c Random 3-SAT Generated Instance
p cnf 75 319
40 -5 61 0
74 34 55 0
11 52 7 0
74 -10 -41 0
-40 -15 31 0
58 66 29 0
19 27 70 0
50 10 55 0
-5 70 -18 0
4 -28 14 0
67 5 -10 0
-15 19 -69 0
8 -39 24 0
-56 50 -44 0
-37 -51 55 0
-48 -60 47 0
58 -52 63 0
53 -11 46 0
25 -45 -37 0
24 -6 63 0
-24 57 50 0
11 -34 -25 0
43 46 6 0
13 53 15 0
2 43 45 0
-37 4 -45 0
64 13 6 0
32 -4 52 0
-12 -68 -3 0
-39 2 -47 0
-14 3 -44 0
-32 -70 -13 0
-32 57 26 0
64 -47 -25 0
59 -58 -65 0
-59 -44 -67 0
-40 -7 -3 0
-36 -75 -2 0
-68 20 -9 0
40 -66 -17 0
44 14 71 0
10 -35 54 0
75 69 -35 0
-62 66 15 0
2 26 -41 0
-6 -4 23 0
-72 -37 63 0
8 65 -36 0
-19 -5 61 0
-71 12 -73 0
38 -39 6 0
-48 -61 -9 0
-8 4 -73 0
72 33 -70 0
64 -24 52 0
64 -11 -26 0
-62 34 -50 0
-62 -54 -74 0
-55 -68 71 0
-16 -45 61 0
-16 10 71 0
-56 -19 -67 0
64 -15 14 0
72 50 -65 0
56 65 58 0
-64 53 -18 0
70 -60 -26 0
8 -69 -65 0
6 62 -25 0
-8 -54 36 0
-56 49 -16 0
48 -25 23 0
-31 -2 23 0
-3 -27 22 0
25 28 -10 0
32 -10 -48 0
19 53 7 0
65 45 38 0
69 39 -73 0
-32 35 -50 0
-61 -27 -74 0
-36 37 7 0
-71 -27 39 0
57 -54 1 0
9 -21 -27 0
34 2 -11 0
72 -5 -12 0
72 27 -56 0
65 -54 12 0
-38 74 57 0
24 -68 6 0
-63 70 39 0
16 20 -58 0
-31 75 44 0
1 -39 69 0
-24 70 -58 0
48 25 -26 0
72 19 70 0
-16 -63 -59 0
48 37 38 0
-23 -15 17 0
-6 38 -33 0
-47 35 -60 0
10 -60 22 0
1 -38 36 0
-29 45 38 0
60 47 -73 0
-14 -35 -73 0
-40 -31 -13 0
-31 -45 -50 0
-46 52 -33 0
-35 13 -17 0
27 -5 -25 0
52 70 63 0
48 -22 43 0
56 -60 -17 0
48 33 -28 0
17 -21 45 0
17 66 62 0
-17 20 -73 0
74 35 -25 0
16 -63 62 0
-55 -19 14 0
58 62 71 0
51 -2 -73 0
-62 21 -57 0
-24 -27 -2 0
-13 5 38 0
58 -51 -34 0
73 -68 -9 0
50 4 -26 0
26 -69 -5 0
18 11 -27 0
45 59 5 0
20 -10 -57 0
57 -3 30 0
56 48 64 0
7 14 63 0
58 51 36 0
-16 35 -5 0
-16 -11 22 0
-24 -30 -48 0
-16 10 -35 0
-32 -24 -41 0
56 -51 -67 0
-24 41 11 0
32 21 30 0
-8 -12 7 0
-41 54 14 0
1 -36 -28 0
73 12 -18 0
72 -54 32 0
-48 -59 -74 0
62 -7 -10 0
18 -42 -73 0
-39 35 -26 0
-43 38 -65 0
-72 -39 35 0
-53 52 47 0
1 37 -75 0
-15 34 53 0
43 6 -5 0
-14 59 -67 0
20 28 -66 0
26 -36 -2 0
16 21 15 0
-63 -66 -25 0
60 -3 -9 0
9 75 -36 0
74 50 -2 0
45 -50 -10 0
73 -46 19 0
-7 36 -3 0
58 -19 -57 0
-47 -30 -9 0
42 -5 31 0
49 3 7 0
-55 -38 2 0
72 58 60 0
-54 19 -36 0
-72 65 57 0
70 75 38 0
18 12 -35 0
73 -71 -43 0
-11 46 -73 0
25 -3 -65 0
24 -63 25 0
-29 -10 -9 0
-14 -21 31 0
64 18 -60 0
54 10 -2 0
-16 -45 -28 0
56 -62 6 0
73 10 -22 0
-38 -29 7 0
56 74 -43 0
-23 -50 -65 0
-7 21 30 0
8 -39 -26 0
-72 -31 15 0
72 41 63 0
67 37 -43 0
-64 53 70 0
-31 53 39 0
-14 42 -19 0
-46 -28 13 0
-20 61 -41 0
66 69 62 0
-15 53 -66 0
57 26 -36 0
56 67 -68 0
59 67 19 0
11 65 3 0
17 74 33 0
19 -45 61 0
-62 -22 -26 0
64 -74 -9 0
72 -27 71 0
38 -50 -18 0
-14 -44 15 0
27 28 -49 0
72 -13 -64 0
19 -60 61 0
-23 -38 -25 0
-47 53 -75 0
-56 2 -26 0
-15 -45 -11 0
-14 -19 -9 0
-40 33 -50 0
-64 -71 -50 0
48 1 69 0
75 -60 -58 0
45 -66 -25 0
-8 -3 53 0
25 -47 37 0
-13 -51 -18 0
41 75 49 0
52 70 71 0
8 -71 51 0
25 11 -73 0
67 39 -49 0
-15 -18 -33 0
50 46 7 0
31 13 -65 0
19 21 -25 0
56 -59 30 0
-63 -13 -41 0
-13 30 7 0
66 67 -60 0
25 -61 -34 0
48 -62 30 0
-12 -59 38 0
52 -43 31 0
-38 -50 71 0
-19 -4 -43 0
-63 -45 -44 0
9 66 12 0
70 -35 -58 0
-13 -52 -9 0
48 57 18 0
65 45 63 0
-48 54 7 0
64 24 35 0
49 67 44 0
-8 58 55 0
73 -12 -11 0
-64 50 46 0
-48 73 26 0
-9 47 -65 0
-47 -67 30 0
74 12 -28 0
58 74 -51 0
-40 26 -10 0
41 -30 17 0
-37 -52 69 0
57 3 13 0
-23 -61 -50 0
-39 -37 -3 0
32 -53 68 0
-56 -11 69 0
-23 -52 5 0
-45 44 -65 0
68 6 -33 0
2 28 15 0
41 27 -61 0
-72 25 26 0
-24 -58 -48 0
11 70 -9 0
-8 13 15 0
-31 -21 -59 0
11 10 -21 0
-53 -44 -49 0
-38 34 -19 0
-31 -54 7 0
40 51 -53 0
-38 -21 5 0
-48 -23 -1 0
-23 -37 60 0
24 74 -1 0
24 66 15 0
3 70 71 0
-38 -14 -46 0
42 -69 -65 0
-62 -43 -33 0
-46 45 30 0
-64 -43 47 0
-59 -68 -28 0
74 -53 -19 0
57 52 45 0
-21 -68 29 0
-46 59 -5 0
-57 -58 -73 0
-21 -18 -10 0
24 -43 -73 0
3 -21 -17 0
-15 -34 -73 0
-32 20 -64 0
16 -5 29 0
24 -53 6 0
