c Random 3-SAT Generated Instance
p cnf 75 319
-31 43 -7 0
-30 -17 -49 0
-53 28 44 0
72 4 -67 0
-53 -18 47 0
-15 -62 -33 0
34 3 -33 0
8 -37 28 0
-31 74 -67 0
-55 52 -41 0
-72 -66 -74 0
51 67 68 0
-32 48 -12 0
46 42 -74 0
11 4 -36 0
44 21 -41 0
-23 -7 -17 0
-5 -35 38 0
-30 -61 -29 0
25 -21 -17 0
-23 42 62 0
41 20 31 0
-37 52 -41 0
-54 11 71 0
70 -74 -50 0
-15 3 -43 0
26 35 -61 0
8 25 -61 0
17 -53 69 0
10 -28 -51 0
16 -51 -25 0
32 50 63 0
57 12 -1 0
33 5 70 0
-64 43 -3 0
-24 69 55 0
-24 -4 -18 0
9 53 -41 0
8 46 63 0
-47 52 -65 0
9 -6 39 0
-32 1 54 0
35 -52 36 0
9 26 -44 0
-72 -10 31 0
-53 -2 -33 0
73 -60 36 0
-63 -14 -19 0
10 54 15 0
65 36 71 0
73 42 -66 0
68 -42 54 0
-8 40 47 0
-32 -8 35 0
74 -21 47 0
37 -35 -33 0
-22 -60 -17 0
-42 5 46 0
32 56 18 0
49 51 -59 0
39 53 71 0
2 -61 -26 0
-4 61 70 0
-71 50 23 0
-29 67 -57 0
-32 -55 -30 0
3 -51 -17 0
-48 75 69 0
-71 52 -67 0
67 -74 -50 0
-24 52 46 0
72 44 -58 0
-40 34 11 0
-44 -28 -25 0
-5 7 -25 0
-53 -26 -17 0
41 -26 -57 0
-63 -45 31 0
18 -3 15 0
24 -32 -29 0
-20 -28 30 0
-66 37 30 0
9 -68 46 0
-64 -63 55 0
41 -46 36 0
46 -53 -1 0
57 75 70 0
-62 12 61 0
72 67 -69 0
42 75 36 0
10 67 54 0
-44 12 -26 0
29 -51 -10 0
-70 -44 60 0
-66 20 22 0
56 -71 -28 0
-40 11 53 0
-6 75 45 0
49 34 -53 0
-13 -45 31 0
-28 45 30 0
-36 -4 -65 0
-60 -11 -57 0
8 -46 26 0
19 -32 -5 0
-39 50 -4 0
4 13 -10 0
27 -29 -69 0
57 -45 29 0
-40 -3 -34 0
-27 -43 -74 0
-70 44 39 0
33 51 23 0
57 35 -68 0
1 -44 -26 0
73 -22 -57 0
57 -28 -31 0
-68 -12 53 0
10 18 -35 0
18 -33 39 0
-56 46 -25 0
-7 70 47 0
-60 70 71 0
-13 52 -17 0
43 68 -4 0
9 -3 29 0
72 -45 -33 0
-54 27 -18 0
74 -21 12 0
-38 26 -58 0
-31 -53 -3 0
37 -36 -3 0
24 65 33 0
-14 -58 -9 0
40 -30 -69 0
24 18 -19 0
5 45 -75 0
-48 -37 39 0
-38 21 13 0
16 -46 10 0
9 19 -1 0
-32 52 39 0
10 -52 -27 0
-29 61 55 0
31 -43 -49 0
24 -62 45 0
-64 67 38 0
-24 -6 -74 0
10 42 22 0
-31 59 -18 0
16 13 -75 0
-62 -29 69 0
73 3 -57 0
9 11 -60 0
1 74 -31 0
-7 -6 59 0
56 -44 62 0
-64 -29 7 0
75 -18 -49 0
-23 -69 28 0
1 -22 -66 0
53 -75 14 0
-7 37 14 0
-48 74 -37 0
-45 -26 -37 0
56 27 62 0
40 50 -45 0
-59 -12 53 0
-63 -18 -49 0
-31 61 23 0
2 60 -35 0
18 59 -9 0
-70 60 55 0
-71 74 -13 0
-48 -4 61 0
9 35 -31 0
65 -63 -54 0
57 50 38 0
-29 -75 -13 0
17 -29 44 0
56 52 -43 0
-4 61 23 0
-30 -14 20 0
21 -58 -33 0
-48 25 -30 0
49 62 -17 0
-69 60 70 0
69 -1 -33 0
56 -72 -33 0
64 40 28 0
9 10 -3 0
-28 -10 22 0
50 31 15 0
72 5 31 0
34 -45 -12 0
64 43 35 0
-5 -50 31 0
-16 -71 -72 0
2 -35 -17 0
-47 -54 38 0
33 61 9 0
-38 42 -3 0
-47 52 71 0
-30 -67 -25 0
65 -31 -14 0
53 -12 -67 0
56 -5 71 0
-64 27 -72 0
-8 -43 47 0
-40 5 -33 0
74 -29 -73 0
38 67 30 0
-5 36 52 0
-44 -75 -41 0
8 -31 -44 0
33 -37 -42 0
-48 -2 23 0
-39 -43 23 0
-16 -8 -34 0
8 72 54 0
-38 44 23 0
-64 -24 -18 0
27 -52 60 0
16 36 -75 0
-21 -27 54 0
9 -70 -50 0
41 -6 35 0
-31 -30 36 0
-73 27 -29 0
-39 52 28 0
-51 -60 5 0
75 -58 -10 0
-8 -3 -58 0
42 -52 -68 0
-50 46 -18 0
33 -5 -39 0
-64 -37 -56 0
-13 69 -41 0
65 -5 -11 0
-45 -2 -5 0
25 -63 5 0
-71 34 -35 0
-32 -71 -12 0
42 -69 28 0
-54 -13 -57 0
-40 41 10 0
-46 52 30 0
-39 59 -31 0
57 23 -25 0
9 -35 -18 0
73 18 -49 0
24 -28 -1 0
-48 -16 22 0
27 -29 69 0
46 -63 70 0
59 50 27 0
8 -29 46 0
17 10 75 0
-46 69 -74 0
-39 11 -49 0
-24 -61 5 0
53 -66 -9 0
1 -46 -36 0
-56 -62 42 0
-19 2 29 0
73 -21 61 0
-72 7 -73 0
-48 72 -56 0
-63 -59 7 0
-62 -50 23 0
-38 -14 28 0
8 3 39 0
-51 -35 61 0
75 -67 15 0
7 71 -73 0
73 -22 42 0
64 73 -41 0
65 60 4 0
-17 -51 71 0
-5 -60 -66 0
58 -13 53 0
-8 46 6 0
66 59 23 0
67 -68 31 0
64 -3 -26 0
65 -4 -42 0
-61 -1 6 0
53 -21 -51 0
33 -60 -47 0
-55 -14 61 0
41 -14 50 0
-40 23 -73 0
-15 -52 23 0
-31 11 -23 0
32 69 -10 0
-56 -36 -26 0
67 -34 -73 0
2 59 37 0
35 50 59 0
-70 66 44 0
-15 -62 34 0
-8 1 -44 0
-40 19 -61 0
42 22 -17 0
24 72 -37 0
37 45 -41 0
-31 -43 -2 0
52 -3 -65 0
17 28 -43 0
-48 -62 28 0
-22 -11 -25 0
64 67 19 0
19 -36 63 0
-16 -63 18 0
-22 -27 31 0
-54 43 50 0
-47 68 -67 0
-32 -42 -64 0
-62 -66 -74 0
