p cnf 2650 2150
232 -323 381 501 0
28 155 -218 502 0
-371 209 474 503 0
-146 -36 360 504 0
-162 -7 196 505 0
348 -132 -99 506 0
391 -190 471 507 0
-180 -333 -28 508 0
126 116 -118 509 0
468 285 -170 510 0
-49 12 -30 511 0
246 366 385 512 0
-27 -241 478 513 0
-394 421 -403 514 0
-254 133 -499 515 0
201 -393 -138 516 0
-225 -473 -397 517 0
331 131 -177 518 0
-410 -192 -41 519 0
-209 -293 424 520 0
-42 -439 -314 521 0
261 441 -321 522 0
378 430 -492 523 0
220 -16 -277 524 0
218 101 478 525 0
-96 52 163 526 0
371 -496 -459 527 0
-294 -20 -380 528 0
402 -230 191 529 0
457 -121 174 530 0
249 321 419 531 0
-200 -120 -344 532 0
443 -500 -389 533 0
-392 19 -25 534 0
229 -179 -270 535 0
-187 417 -239 536 0
355 -310 372 537 0
-207 -480 265 538 0
451 -336 438 539 0
-418 -412 253 540 0
213 30 176 541 0
-258 -126 449 542 0
-9 -461 8 543 0
-438 242 -487 544 0
-494 310 -226 545 0
234 136 167 546 0
-22 -360 288 547 0
-358 448 -53 548 0
286 202 455 549 0
223 116 -406 550 0
216 -21 279 551 0
-137 150 -299 552 0
129 -118 -123 553 0
-66 -91 301 554 0
-272 -248 37 555 0
-202 -220 -333 556 0
330 -428 158 557 0
376 307 429 558 0
-480 448 -284 559 0
-290 -29 499 560 0
302 315 446 561 0
243 -239 258 562 0
258 -420 -271 563 0
-187 275 71 564 0
-207 -27 72 565 0
356 78 -196 566 0
-103 139 487 567 0
442 92 153 568 0
126 297 -283 569 0
9 49 458 570 0
27 12 344 571 0
255 -293 57 572 0
-402 -375 -185 573 0
-49 329 -477 574 0
-391 345 -156 575 0
-100 -377 -468 576 0
-140 47 -11 577 0
299 82 -146 578 0
201 -66 254 579 0
-425 -492 -270 580 0
39 -466 265 581 0
-259 -65 -325 582 0
197 286 471 583 0
328 204 436 584 0
-249 490 -164 585 0
61 -235 40 586 0
260 -236 -199 587 0
284 390 -292 588 0
323 79 484 589 0
457 -382 -271 590 0
-275 -376 -129 591 0
141 -161 86 592 0
420 400 -21 593 0
60 172 39 594 0
171 -292 261 595 0
165 -256 408 596 0
-338 -459 -160 597 0
465 -229 -256 598 0
-330 -411 299 599 0
-426 130 -321 600 0
366 -499 -73 601 0
-366 401 -122 602 0
-108 222 259 603 0
350 263 -319 604 0
5 -149 -362 605 0
377 329 56 606 0
414 320 -168 607 0
490 -374 370 608 0
-16 -428 -100 609 0
-14 -414 337 610 0
-65 435 134 611 0
-287 283 472 612 0
-487 238 -3 613 0
-160 -500 238 614 0
238 392 -105 615 0
-230 -255 -416 616 0
-131 28 -11 617 0
-342 284 320 618 0
277 187 413 619 0
-73 -293 -41 620 0
-55 88 -492 621 0
-98 -193 26 622 0
207 43 85 623 0
-296 55 351 624 0
-208 246 -247 625 0
-135 -459 -338 626 0
46 -476 279 627 0
239 -195 450 628 0
85 50 -455 629 0
463 -191 -207 630 0
267 490 -221 631 0
-394 -495 -287 632 0
434 -241 79 633 0
-225 -228 -440 634 0
-468 -88 58 635 0
-43 135 36 636 0
-270 -210 153 637 0
-65 -117 -188 638 0
-3 -220 -494 639 0
-18 -121 330 640 0
248 -365 -440 641 0
-417 -418 386 642 0
-483 -437 342 643 0
-396 -495 -460 644 0
-41 -422 -9 645 0
-226 -269 -376 646 0
-479 -335 -391 647 0
303 -4 228 648 0
278 197 -124 649 0
169 227 295 650 0
40 -178 -449 651 0
-128 178 -53 652 0
112 467 -219 653 0
437 -102 394 654 0
153 305 112 655 0
91 -463 15 656 0
395 -154 -333 657 0
-40 -403 -482 658 0
127 -28 243 659 0
-383 -238 -178 660 0
-65 490 -154 661 0
353 288 392 662 0
400 -419 108 663 0
-70 -412 347 664 0
186 -470 -231 665 0
-410 480 43 666 0
271 496 128 667 0
215 381 -468 668 0
407 465 176 669 0
84 -377 -492 670 0
-380 116 311 671 0
-306 -368 -68 672 0
-433 -136 438 673 0
72 -279 -119 674 0
147 250 144 675 0
-369 290 71 676 0
479 -110 -158 677 0
-420 326 -164 678 0
-184 399 -294 679 0
273 -195 144 680 0
415 231 -138 681 0
378 195 -368 682 0
-9 -337 224 683 0
126 406 -475 684 0
-212 -340 -45 685 0
-377 -417 289 686 0
-343 348 301 687 0
-442 143 -480 688 0
-337 481 180 689 0
118 -149 426 690 0
-49 133 319 691 0
255 -341 216 692 0
418 -284 171 693 0
-272 330 -58 694 0
104 -330 88 695 0
-162 31 -438 696 0
285 -222 129 697 0
-376 77 90 698 0
-322 6 205 699 0
-233 25 203 700 0
72 280 204 701 0
-231 60 -83 702 0
-24 43 -326 703 0
-19 -359 325 704 0
299 193 257 705 0
359 329 154 706 0
161 -400 482 707 0
297 200 -222 708 0
264 230 138 709 0
-331 460 -13 710 0
-320 20 286 711 0
-125 102 -229 712 0
-101 35 -283 713 0
112 82 -445 714 0
-353 323 346 715 0
-33 -144 -187 716 0
30 -169 370 717 0
-385 -65 -336 718 0
-346 -455 461 719 0
-292 230 29 720 0
417 379 -102 721 0
-79 54 -251 722 0
-11 -430 244 723 0
-313 270 118 724 0
-275 -2 399 725 0
-194 399 130 726 0
-494 -130 133 727 0
282 333 137 728 0
418 -216 -465 729 0
-492 237 51 730 0
192 -322 -362 731 0
74 -483 -443 732 0
-416 -358 -445 733 0
489 -423 264 734 0
-287 -356 -262 735 0
-46 286 -44 736 0
-162 -2 400 737 0
357 406 -311 738 0
-148 -63 -264 739 0
413 439 236 740 0
53 315 5 741 0
-299 124 434 742 0
66 462 41 743 0
303 121 250 744 0
251 -47 -366 745 0
220 -478 200 746 0
289 10 167 747 0
478 178 319 748 0
-87 -325 -141 749 0
312 -161 315 750 0
-23 -200 420 751 0
215 -6 -286 752 0
392 438 408 753 0
495 484 417 754 0
-446 258 372 755 0
-326 -400 236 756 0
-466 194 271 757 0
-182 122 -298 758 0
-120 477 -458 759 0
-204 -156 -293 760 0
-60 -465 214 761 0
214 257 311 762 0
437 -159 -5 763 0
40 -121 340 764 0
-401 128 47 765 0
305 188 450 766 0
163 -390 27 767 0
-68 -130 -146 768 0
279 -287 265 769 0
413 19 177 770 0
464 5 217 771 0
415 -196 -240 772 0
-287 480 -148 773 0
29 -377 17 774 0
220 254 354 775 0
303 29 -36 776 0
-465 -183 125 777 0
262 -256 -177 778 0
-468 -218 -226 779 0
219 79 123 780 0
-430 363 470 781 0
-79 74 450 782 0
145 479 269 783 0
-458 -223 489 784 0
488 -178 316 785 0
-367 -254 233 786 0
-55 489 -325 787 0
168 177 -45 788 0
-6 -43 -72 789 0
74 393 -385 790 0
-308 -379 20 791 0
-113 -119 238 792 0
229 98 -306 793 0
155 195 -382 794 0
-212 -478 -265 795 0
143 -312 -390 796 0
65 -323 -391 797 0
201 86 -232 798 0
-468 70 -279 799 0
471 -99 -115 800 0
125 -280 190 801 0
-28 -449 -143 802 0
65 -267 -113 803 0
-68 -472 148 804 0
-180 98 433 805 0
124 -292 473 806 0
-386 102 165 807 0
-310 -127 -86 808 0
-65 -357 372 809 0
399 451 483 810 0
-371 -327 290 811 0
-473 -486 208 812 0
458 -440 265 813 0
-65 205 -317 814 0
277 84 -151 815 0
192 70 -27 816 0
128 -181 -90 817 0
257 37 165 818 0
158 231 -199 819 0
-211 371 45 820 0
69 86 327 821 0
-179 217 184 822 0
194 200 6 823 0
-254 -389 9 824 0
98 -163 -341 825 0
-46 86 1 826 0
397 77 -249 827 0
225 80 -67 828 0
441 226 260 829 0
63 -457 -383 830 0
195 -412 -251 831 0
230 337 223 832 0
-79 -384 376 833 0
481 306 -499 834 0
245 -398 468 835 0
198 -327 497 836 0
-371 -424 459 837 0
366 -113 412 838 0
400 18 -275 839 0
-247 325 405 840 0
457 -335 111 841 0
54 -108 324 842 0
488 -211 351 843 0
256 100 -245 844 0
-14 -223 -275 845 0
-425 -266 456 846 0
-153 -288 262 847 0
-285 -433 288 848 0
-275 -4 -267 849 0
298 376 177 850 0
-26 -98 -321 851 0
-362 159 15 852 0
420 -119 -21 853 0
-477 -236 -429 854 0
-176 118 -431 855 0
-375 -209 -18 856 0
203 -362 89 857 0
400 -152 -20 858 0
-19 -100 217 859 0
107 -211 30 860 0
-145 -260 351 861 0
12 44 83 862 0
-493 262 483 863 0
-346 -107 301 864 0
-455 -138 -92 865 0
290 215 -183 866 0
387 -305 372 867 0
11 101 -449 868 0
461 229 494 869 0
277 -232 -120 870 0
-375 136 -70 871 0
351 437 -335 872 0
-288 30 -281 873 0
-255 -364 254 874 0
-348 -230 94 875 0
-173 -6 -351 876 0
-484 -350 398 877 0
437 343 161 878 0
34 379 25 879 0
-233 -362 232 880 0
-374 447 -380 881 0
273 422 347 882 0
409 158 -307 883 0
-3 247 380 884 0
-479 -13 -200 885 0
208 -249 -362 886 0
-170 137 -242 887 0
-112 -102 227 888 0
335 376 -169 889 0
-78 -274 392 890 0
357 239 293 891 0
-225 -108 188 892 0
27 -466 436 893 0
436 -36 -102 894 0
431 449 216 895 0
-246 257 -415 896 0
325 -266 99 897 0
408 176 105 898 0
-309 106 363 899 0
116 -80 -47 900 0
370 -293 493 901 0
175 231 -420 902 0
-69 -9 448 903 0
-34 106 -472 904 0
-199 -346 190 905 0
-350 475 356 906 0
90 -72 -294 907 0
-345 184 343 908 0
168 341 -242 909 0
-151 235 -78 910 0
347 245 -315 911 0
289 116 57 912 0
344 -69 -128 913 0
193 81 50 914 0
76 20 -31 915 0
121 -252 -328 916 0
-50 -162 -6 917 0
253 96 347 918 0
-341 -151 -453 919 0
419 359 80 920 0
-91 49 370 921 0
-81 -396 118 922 0
-292 419 -483 923 0
40 248 -342 924 0
-403 190 147 925 0
327 65 -407 926 0
-392 50 109 927 0
-211 80 -299 928 0
495 -331 217 929 0
151 -250 -300 930 0
420 97 135 931 0
-458 442 -70 932 0
277 -463 472 933 0
101 -344 -463 934 0
73 -179 244 935 0
-228 195 -473 936 0
-46 -29 85 937 0
-93 -139 -356 938 0
-362 -385 -473 939 0
437 -409 264 940 0
388 -432 -479 941 0
-228 486 -54 942 0
450 -383 293 943 0
66 -402 -366 944 0
230 -144 21 945 0
-436 -94 291 946 0
-484 -271 313 947 0
-59 54 -141 948 0
-477 111 135 949 0
-206 -190 -250 950 0
224 324 47 951 0
-54 146 -132 952 0
372 453 -49 953 0
-169 42 -373 954 0
-211 -306 -120 955 0
384 -164 -243 956 0
58 369 73 957 0
233 -55 323 958 0
459 356 -218 959 0
-447 215 -190 960 0
237 -422 -35 961 0
-29 5 89 962 0
184 -34 174 963 0
-300 154 -147 964 0
371 -69 -90 965 0
55 62 -206 966 0
40 234 208 967 0
94 212 178 968 0
-460 -211 272 969 0
-12 -175 53 970 0
-120 -353 481 971 0
211 290 -386 972 0
331 -42 46 973 0
-147 -381 398 974 0
-28 -352 212 975 0
-167 -489 -45 976 0
53 -6 -169 977 0
394 -349 -226 978 0
-352 -270 -135 979 0
28 -228 -445 980 0
-417 250 172 981 0
-477 -212 354 982 0
29 -462 105 983 0
-371 -133 -196 984 0
269 382 -272 985 0
-282 -348 -1 986 0
215 17 -88 987 0
-109 -23 484 988 0
479 440 -124 989 0
495 -31 -224 990 0
17 -398 250 991 0
69 -408 309 992 0
406 -373 222 993 0
-209 -474 -159 994 0
16 160 -238 995 0
-47 -129 -225 996 0
-478 -73 231 997 0
122 345 -20 998 0
-308 27 -296 999 0
171 -198 -358 1000 0
-129 -156 218 1001 0
101 485 163 1002 0
184 357 8 1003 0
-369 190 -75 1004 0
-412 254 -58 1005 0
-495 -97 498 1006 0
358 -473 -392 1007 0
-218 103 184 1008 0
-43 -481 185 1009 0
306 31 18 1010 0
-423 -260 272 1011 0
-138 133 -340 1012 0
454 -143 351 1013 0
-118 449 -369 1014 0
-195 48 -129 1015 0
415 -347 -78 1016 0
21 -474 -348 1017 0
388 -163 -115 1018 0
85 -202 48 1019 0
150 462 69 1020 0
493 -444 230 1021 0
-34 -318 -170 1022 0
-142 -415 -440 1023 0
-195 -434 274 1024 0
301 -286 -38 1025 0
-50 298 -202 1026 0
318 -286 -457 1027 0
174 63 392 1028 0
-420 -380 -137 1029 0
193 416 -342 1030 0
-132 30 -122 1031 0
104 427 466 1032 0
430 -107 11 1033 0
146 -368 192 1034 0
424 255 79 1035 0
447 -432 -178 1036 0
201 78 465 1037 0
-451 193 -73 1038 0
251 -133 411 1039 0
-392 443 12 1040 0
485 304 164 1041 0
-22 484 29 1042 0
12 -51 -390 1043 0
492 374 42 1044 0
-43 -481 169 1045 0
299 395 -21 1046 0
159 -284 459 1047 0
-478 313 121 1048 0
-427 121 -16 1049 0
-295 -104 -286 1050 0
-153 41 -465 1051 0
-17 -442 -39 1052 0
-295 196 -185 1053 0
-168 99 145 1054 0
-24 -398 261 1055 0
-410 35 -108 1056 0
35 -34 84 1057 0
167 -241 323 1058 0
-6 447 -146 1059 0
-40 -243 171 1060 0
205 169 40 1061 0
78 63 -19 1062 0
423 -428 -148 1063 0
-213 389 430 1064 0
464 35 -444 1065 0
-312 -498 -51 1066 0
158 -263 224 1067 0
-45 -471 283 1068 0
65 -130 -241 1069 0
448 -115 198 1070 0
446 -50 59 1071 0
156 -338 145 1072 0
-420 283 311 1073 0
281 -132 122 1074 0
-53 3 88 1075 0
-220 -372 450 1076 0
-97 -432 140 1077 0
-4 -102 134 1078 0
-175 130 -195 1079 0
60 -77 -166 1080 0
210 -185 -272 1081 0
278 340 -168 1082 0
-209 420 -25 1083 0
-143 184 -301 1084 0
-487 -37 141 1085 0
461 232 396 1086 0
146 -197 -484 1087 0
-488 45 48 1088 0
-383 -4 104 1089 0
-173 -286 -371 1090 0
-260 -167 445 1091 0
-328 -486 336 1092 0
-27 456 496 1093 0
212 -35 -42 1094 0
155 274 -388 1095 0
-197 172 298 1096 0
464 370 -55 1097 0
-384 431 329 1098 0
183 320 296 1099 0
496 100 -25 1100 0
-18 316 314 1101 0
368 -394 286 1102 0
473 -287 -315 1103 0
-184 265 385 1104 0
-42 -237 151 1105 0
161 -32 401 1106 0
-280 87 321 1107 0
-142 -257 49 1108 0
234 298 -228 1109 0
244 -256 -326 1110 0
-116 177 -410 1111 0
-46 -244 -111 1112 0
-338 450 -471 1113 0
369 -445 27 1114 0
212 -348 354 1115 0
398 -457 29 1116 0
107 -302 -231 1117 0
-259 -125 240 1118 0
-354 215 79 1119 0
74 -222 -341 1120 0
-7 -354 -259 1121 0
329 464 -34 1122 0
-391 -398 319 1123 0
208 -457 490 1124 0
444 -473 -44 1125 0
99 420 421 1126 0
457 -318 471 1127 0
-216 240 180 1128 0
224 322 -30 1129 0
-446 221 105 1130 0
-110 368 -183 1131 0
51 -165 275 1132 0
-167 -339 109 1133 0
-255 -443 184 1134 0
-38 -500 -52 1135 0
120 -217 -342 1136 0
-472 346 -12 1137 0
-257 372 166 1138 0
-84 110 -297 1139 0
280 -62 12 1140 0
231 207 327 1141 0
-311 -378 310 1142 0
-157 211 -463 1143 0
-178 -103 -480 1144 0
251 -190 -8 1145 0
-226 -342 -456 1146 0
-430 -385 -199 1147 0
-464 216 -129 1148 0
203 95 127 1149 0
-342 -453 -425 1150 0
-32 -19 346 1151 0
441 458 90 1152 0
422 350 -226 1153 0
-257 -312 291 1154 0
53 -185 480 1155 0
-274 -348 -439 1156 0
196 377 -248 1157 0
-442 24 -408 1158 0
-34 -259 201 1159 0
-469 -402 103 1160 0
187 -43 2 1161 0
-221 -41 -195 1162 0
261 64 -470 1163 0
383 45 84 1164 0
-372 -186 336 1165 0
486 -38 426 1166 0
-45 -159 -22 1167 0
-498 281 -70 1168 0
-130 -151 163 1169 0
317 -477 -346 1170 0
-58 -71 199 1171 0
465 -463 -122 1172 0
-245 266 77 1173 0
-414 312 90 1174 0
-243 194 23 1175 0
234 -476 -286 1176 0
-97 445 60 1177 0
-343 129 -428 1178 0
192 164 -479 1179 0
207 -335 -255 1180 0
-100 377 -291 1181 0
-361 -30 217 1182 0
125 -84 -428 1183 0
18 -320 -53 1184 0
250 266 -126 1185 0
411 260 -157 1186 0
-268 -243 155 1187 0
472 189 -54 1188 0
-72 133 303 1189 0
213 -5 114 1190 0
36 -110 -411 1191 0
-8 359 -190 1192 0
458 -332 -241 1193 0
59 379 403 1194 0
-71 -229 -344 1195 0
100 -385 -218 1196 0
380 -120 -204 1197 0
-378 -12 -440 1198 0
407 -185 -464 1199 0
-138 118 148 1200 0
235 341 127 1201 0
-281 -68 -178 1202 0
-267 471 -258 1203 0
-120 485 324 1204 0
-50 338 -221 1205 0
-67 -435 161 1206 0
-328 -198 271 1207 0
-464 187 -81 1208 0
-161 -153 -100 1209 0
212 149 28 1210 0
104 345 325 1211 0
-117 -181 106 1212 0
-363 -448 337 1213 0
-255 -206 -378 1214 0
-201 335 103 1215 0
-275 -15 -264 1216 0
-160 -223 158 1217 0
-366 161 -412 1218 0
-459 -400 220 1219 0
258 422 -272 1220 0
490 439 -330 1221 0
-407 -429 32 1222 0
-491 173 319 1223 0
392 -95 -429 1224 0
48 99 403 1225 0
459 -428 11 1226 0
182 201 -473 1227 0
298 -341 362 1228 0
-117 -152 -151 1229 0
-469 -110 4 1230 0
7 -383 338 1231 0
-138 -358 340 1232 0
-447 29 -93 1233 0
344 -373 256 1234 0
-182 271 -326 1235 0
-471 -163 -235 1236 0
247 479 325 1237 0
300 -246 74 1238 0
-279 359 253 1239 0
21 -127 -138 1240 0
96 469 -344 1241 0
10 -478 -169 1242 0
210 161 104 1243 0
238 -444 163 1244 0
446 335 289 1245 0
-158 -91 -223 1246 0
-375 259 96 1247 0
-168 380 50 1248 0
456 -150 -11 1249 0
210 -462 -419 1250 0
-143 383 -480 1251 0
-438 -234 -400 1252 0
256 479 157 1253 0
-243 486 -219 1254 0
129 -163 395 1255 0
8 -14 102 1256 0
208 221 223 1257 0
294 40 17 1258 0
360 24 -372 1259 0
-376 -152 -154 1260 0
89 -444 -322 1261 0
353 89 -208 1262 0
-379 -218 174 1263 0
470 -157 18 1264 0
-276 -2 -129 1265 0
-107 -209 433 1266 0
156 -94 -248 1267 0
68 -182 -447 1268 0
441 164 187 1269 0
311 -428 263 1270 0
-74 -458 -365 1271 0
183 285 82 1272 0
79 -53 467 1273 0
208 -410 -385 1274 0
-129 200 89 1275 0
194 -19 128 1276 0
-459 -369 -216 1277 0
159 160 -294 1278 0
282 -174 -457 1279 0
322 184 -417 1280 0
-190 348 -186 1281 0
205 344 320 1282 0
-54 202 -102 1283 0
243 -338 459 1284 0
16 -278 291 1285 0
-308 -108 -81 1286 0
-278 239 162 1287 0
201 -373 -204 1288 0
160 460 -381 1289 0
277 332 181 1290 0
33 289 274 1291 0
92 -294 -468 1292 0
385 479 -170 1293 0
181 206 -198 1294 0
-49 -12 -245 1295 0
-362 57 -128 1296 0
328 366 -101 1297 0
197 105 435 1298 0
40 194 25 1299 0
-247 -169 -322 1300 0
-445 -119 235 1301 0
159 12 -264 1302 0
-342 -319 -233 1303 0
139 204 375 1304 0
-304 -277 424 1305 0
-478 277 -282 1306 0
-461 -206 44 1307 0
-327 -28 -195 1308 0
221 -302 -155 1309 0
-293 -104 -393 1310 0
-168 206 405 1311 0
-238 414 -403 1312 0
70 -34 124 1313 0
74 321 -358 1314 0
-302 382 297 1315 0
207 -146 300 1316 0
-443 120 58 1317 0
-316 68 -277 1318 0
-448 412 180 1319 0
-8 -72 -335 1320 0
-6 129 313 1321 0
-306 363 -140 1322 0
77 -361 48 1323 0
-482 76 376 1324 0
-286 132 -468 1325 0
295 265 -18 1326 0
-259 -275 34 1327 0
405 321 -330 1328 0
487 -112 143 1329 0
146 -57 265 1330 0
221 -83 -299 1331 0
-436 321 146 1332 0
-122 -444 -213 1333 0
138 -127 398 1334 0
-15 -472 -305 1335 0
387 -492 323 1336 0
364 315 -146 1337 0
175 235 -358 1338 0
125 -500 -79 1339 0
-435 321 456 1340 0
122 -450 -394 1341 0
-403 214 -184 1342 0
264 -247 -360 1343 0
411 -493 488 1344 0
354 420 265 1345 0
-214 252 -126 1346 0
434 -68 375 1347 0
-254 108 -180 1348 0
9 67 -426 1349 0
-189 -427 132 1350 0
-28 -7 168 1351 0
-137 -91 81 1352 0
499 -235 430 1353 0
-1 9 78 1354 0
-387 390 30 1355 0
-419 448 -92 1356 0
-88 354 443 1357 0
371 -436 -178 1358 0
-70 314 -79 1359 0
204 -269 -368 1360 0
-471 -113 -238 1361 0
-363 -209 175 1362 0
-301 432 -312 1363 0
-391 312 415 1364 0
-428 329 -185 1365 0
-131 389 -357 1366 0
337 382 209 1367 0
278 -135 -227 1368 0
493 -43 -57 1369 0
365 239 -194 1370 0
290 -293 -469 1371 0
-247 189 -343 1372 0
419 -246 -150 1373 0
500 363 -391 1374 0
-349 52 293 1375 0
225 99 88 1376 0
92 -73 -178 1377 0
102 -126 -327 1378 0
-138 473 260 1379 0
-36 -247 337 1380 0
286 -46 31 1381 0
-439 444 282 1382 0
-94 -276 477 1383 0
319 163 266 1384 0
86 41 119 1385 0
-122 469 -64 1386 0
-152 -409 -482 1387 0
-55 279 -446 1388 0
58 -352 318 1389 0
370 -109 445 1390 0
148 347 -463 1391 0
204 -115 401 1392 0
-345 -163 -412 1393 0
-257 -187 163 1394 0
-288 272 28 1395 0
326 -320 -271 1396 0
-263 -408 -282 1397 0
106 56 -214 1398 0
389 -359 194 1399 0
94 -91 -202 1400 0
-82 -94 483 1401 0
-423 48 223 1402 0
122 -476 -233 1403 0
-251 127 93 1404 0
372 -353 -42 1405 0
-340 109 -7 1406 0
-362 193 -345 1407 0
174 67 219 1408 0
-396 41 424 1409 0
339 140 66 1410 0
55 -114 -310 1411 0
99 -121 269 1412 0
-369 60 -236 1413 0
-349 284 -396 1414 0
227 306 -218 1415 0
338 394 -91 1416 0
-260 -489 -189 1417 0
-430 485 479 1418 0
30 -123 -174 1419 0
373 293 149 1420 0
-19 453 380 1421 0
-13 485 -286 1422 0
-264 22 -497 1423 0
411 57 -452 1424 0
289 -352 -285 1425 0
-315 34 -470 1426 0
317 42 -336 1427 0
446 -5 -133 1428 0
-332 -89 -393 1429 0
-269 76 -237 1430 0
425 302 -108 1431 0
496 216 437 1432 0
-183 -209 -285 1433 0
-237 275 93 1434 0
125 -116 -66 1435 0
-376 -158 -305 1436 0
-397 -277 169 1437 0
-109 -170 148 1438 0
-282 398 -340 1439 0
-364 -467 -103 1440 0
-402 427 228 1441 0
-153 326 37 1442 0
480 357 -18 1443 0
-148 79 485 1444 0
-143 -193 -382 1445 0
-472 -179 33 1446 0
105 -491 330 1447 0
335 156 322 1448 0
465 295 -12 1449 0
-240 286 -438 1450 0
263 444 -436 1451 0
-121 50 462 1452 0
266 317 -458 1453 0
182 -17 223 1454 0
-480 -385 -250 1455 0
226 -31 -127 1456 0
312 -343 -13 1457 0
42 401 403 1458 0
-295 -21 -105 1459 0
-220 -399 -449 1460 0
299 499 -28 1461 0
154 -355 -475 1462 0
-294 -31 440 1463 0
-330 -272 327 1464 0
-88 429 146 1465 0
-281 374 -231 1466 0
216 -373 -184 1467 0
355 487 -118 1468 0
7 193 -383 1469 0
199 463 -72 1470 0
-98 59 2 1471 0
19 -211 -225 1472 0
-307 -75 236 1473 0
-193 -482 473 1474 0
-138 260 -79 1475 0
-361 239 -431 1476 0
-192 -128 -105 1477 0
295 -315 167 1478 0
-253 482 386 1479 0
262 -109 -431 1480 0
389 222 309 1481 0
-333 -117 179 1482 0
358 -466 34 1483 0
91 -9 -311 1484 0
-162 -12 358 1485 0
-479 -413 58 1486 0
-158 -89 252 1487 0
-388 178 -399 1488 0
-332 291 -304 1489 0
-203 -414 372 1490 0
279 301 -498 1491 0
-247 188 10 1492 0
258 -192 -37 1493 0
422 241 -46 1494 0
-104 425 81 1495 0
-377 -373 -429 1496 0
234 467 16 1497 0
454 -367 243 1498 0
-483 -346 126 1499 0
290 -10 228 1500 0
-262 -4 168 1501 0
-310 -87 -384 1502 0
-176 -170 -377 1503 0
4 358 -445 1504 0
409 75 -52 1505 0
224 200 -395 1506 0
308 440 -373 1507 0
426 243 -65 1508 0
-460 42 393 1509 0
-289 328 -351 1510 0
-13 -11 -370 1511 0
100 189 471 1512 0
-388 -206 464 1513 0
203 -124 -426 1514 0
497 352 465 1515 0
377 191 108 1516 0
-174 488 -308 1517 0
466 -440 -38 1518 0
297 -3 -91 1519 0
12 77 -250 1520 0
-371 -230 330 1521 0
39 -284 477 1522 0
-411 -45 260 1523 0
-45 -396 -300 1524 0
84 63 189 1525 0
-243 -24 440 1526 0
233 491 -256 1527 0
110 -41 124 1528 0
316 375 475 1529 0
-138 -12 -296 1530 0
14 433 113 1531 0
-230 362 453 1532 0
-108 432 327 1533 0
145 -86 -87 1534 0
-254 -240 407 1535 0
-155 363 -194 1536 0
-21 27 317 1537 0
406 -4 158 1538 0
191 -386 375 1539 0
-81 309 157 1540 0
-364 -151 60 1541 0
270 -85 15 1542 0
464 122 -415 1543 0
400 -451 498 1544 0
-35 -56 162 1545 0
-448 420 -468 1546 0
91 -80 57 1547 0
499 352 425 1548 0
410 -186 180 1549 0
8 17 -381 1550 0
351 -25 -270 1551 0
-305 60 138 1552 0
81 -208 357 1553 0
301 -311 397 1554 0
-110 -43 -209 1555 0
-98 100 139 1556 0
-58 411 300 1557 0
379 -340 -131 1558 0
88 -495 327 1559 0
-206 -159 91 1560 0
461 313 125 1561 0
14 437 -463 1562 0
-216 -351 -37 1563 0
-398 -300 476 1564 0
-398 -76 469 1565 0
281 -345 -218 1566 0
126 386 387 1567 0
-74 350 157 1568 0
308 -155 27 1569 0
-207 484 403 1570 0
381 224 -271 1571 0
-41 370 371 1572 0
141 321 -343 1573 0
-250 294 488 1574 0
335 50 -78 1575 0
193 -229 -372 1576 0
464 -356 227 1577 0
-129 420 -239 1578 0
-313 319 290 1579 0
97 -489 167 1580 0
26 -420 -43 1581 0
259 -145 361 1582 0
77 157 -321 1583 0
256 3 345 1584 0
266 142 267 1585 0
-79 -118 -202 1586 0
246 -240 -43 1587 0
-296 33 223 1588 0
-373 -490 -145 1589 0
454 -171 -389 1590 0
263 3 420 1591 0
51 -209 -488 1592 0
-358 -175 368 1593 0
-330 -125 190 1594 0
462 -185 75 1595 0
152 53 209 1596 0
-200 -183 365 1597 0
131 227 -63 1598 0
-396 111 -492 1599 0
69 -146 467 1600 0
177 -496 129 1601 0
77 410 -209 1602 0
-274 66 -351 1603 0
-385 -59 488 1604 0
388 410 -352 1605 0
-37 -168 -29 1606 0
336 -19 -178 1607 0
-231 -209 164 1608 0
-113 -469 448 1609 0
-13 188 -341 1610 0
11 -128 448 1611 0
-228 101 -38 1612 0
376 67 80 1613 0
193 -157 -143 1614 0
-385 -172 450 1615 0
3 158 -317 1616 0
-430 -294 -454 1617 0
288 124 -452 1618 0
-353 32 253 1619 0
113 -253 -392 1620 0
-469 294 -389 1621 0
53 6 -79 1622 0
-80 -488 -66 1623 0
-122 -171 277 1624 0
9 20 -323 1625 0
171 229 318 1626 0
-459 -261 251 1627 0
498 477 143 1628 0
187 444 -19 1629 0
60 -107 -341 1630 0
88 -169 121 1631 0
395 344 -425 1632 0
-365 -90 -145 1633 0
497 -320 -417 1634 0
159 187 -262 1635 0
50 438 213 1636 0
-236 -156 38 1637 0
-9 113 -426 1638 0
-79 -157 -80 1639 0
57 270 -444 1640 0
-224 -374 -283 1641 0
313 87 -249 1642 0
297 -340 390 1643 0
-102 -187 256 1644 0
-6 -28 61 1645 0
-209 -257 74 1646 0
-237 -457 264 1647 0
-221 -209 407 1648 0
217 -488 70 1649 0
138 -194 173 1650 0
-430 264 -202 1651 0
-92 -458 -256 1652 0
-224 173 -312 1653 0
220 396 -423 1654 0
46 -231 316 1655 0
199 -157 304 1656 0
325 379 -463 1657 0
-276 306 450 1658 0
171 112 -427 1659 0
330 198 -465 1660 0
-453 -457 -161 1661 0
303 444 -77 1662 0
-404 342 284 1663 0
-92 -54 157 1664 0
-214 154 18 1665 0
-207 218 -277 1666 0
-253 -480 -192 1667 0
336 -89 408 1668 0
-326 221 309 1669 0
-143 458 434 1670 0
290 -281 -333 1671 0
-20 423 217 1672 0
49 -107 81 1673 0
-465 192 -451 1674 0
441 486 -398 1675 0
-240 94 376 1676 0
-429 463 285 1677 0
193 494 -215 1678 0
44 375 381 1679 0
-359 47 314 1680 0
-45 409 205 1681 0
-29 212 -377 1682 0
-127 16 -203 1683 0
392 66 29 1684 0
499 320 188 1685 0
-23 -42 -455 1686 0
-81 -342 384 1687 0
282 -488 -378 1688 0
201 457 283 1689 0
-337 -488 443 1690 0
-59 -82 -83 1691 0
-180 -65 -497 1692 0
-243 -231 38 1693 0
496 250 -434 1694 0
72 412 142 1695 0
-475 452 -245 1696 0
386 153 -44 1697 0
-284 -281 84 1698 0
429 441 437 1699 0
-470 -13 5 1700 0
242 -358 481 1701 0
-134 -185 -407 1702 0
-463 -365 -127 1703 0
417 -2 162 1704 0
-150 208 267 1705 0
-244 71 288 1706 0
8 209 -216 1707 0
-325 -79 -239 1708 0
435 308 -64 1709 0
448 -466 -425 1710 0
-400 -30 343 1711 0
104 -440 -79 1712 0
-231 431 48 1713 0
-284 481 59 1714 0
110 230 -15 1715 0
-318 -116 -99 1716 0
-256 -361 -68 1717 0
72 -428 -50 1718 0
195 -17 -325 1719 0
98 -466 -272 1720 0
-253 435 111 1721 0
392 109 80 1722 0
-323 214 22 1723 0
114 -123 233 1724 0
82 299 -86 1725 0
279 -298 84 1726 0
372 330 63 1727 0
33 -358 -3 1728 0
382 103 -290 1729 0
134 67 -269 1730 0
338 -413 293 1731 0
354 381 -386 1732 0
-421 -350 410 1733 0
137 -308 293 1734 0
253 -51 -192 1735 0
435 -9 388 1736 0
-124 264 -200 1737 0
137 -67 292 1738 0
-203 -199 -39 1739 0
-207 -128 465 1740 0
392 223 388 1741 0
-175 -221 59 1742 0
297 -220 62 1743 0
481 -226 -15 1744 0
-274 417 -269 1745 0
-304 -369 -374 1746 0
29 231 -78 1747 0
263 -258 -121 1748 0
-389 -131 -72 1749 0
419 -177 -82 1750 0
382 -140 279 1751 0
-269 -82 311 1752 0
336 -461 -279 1753 0
-354 435 263 1754 0
388 -67 247 1755 0
112 323 417 1756 0
432 99 -236 1757 0
248 310 418 1758 0
2 -111 127 1759 0
-47 -447 168 1760 0
304 430 32 1761 0
-55 323 450 1762 0
-405 394 49 1763 0
421 -326 295 1764 0
342 -479 -291 1765 0
-398 334 -6 1766 0
326 185 -415 1767 0
297 -65 213 1768 0
-426 346 -26 1769 0
-188 -241 36 1770 0
-287 -234 63 1771 0
-115 -197 -144 1772 0
-53 -464 -291 1773 0
462 -488 341 1774 0
366 189 -78 1775 0
155 -58 284 1776 0
178 -381 -293 1777 0
-110 92 287 1778 0
-461 158 -242 1779 0
3 322 -423 1780 0
13 23 -61 1781 0
402 -129 -36 1782 0
196 313 -92 1783 0
-376 -239 -313 1784 0
82 79 -324 1785 0
-196 -316 378 1786 0
28 464 500 1787 0
-33 354 -338 1788 0
-201 -180 272 1789 0
-389 368 11 1790 0
243 334 29 1791 0
-467 -340 195 1792 0
274 -222 67 1793 0
-260 126 425 1794 0
67 -277 -249 1795 0
-181 148 30 1796 0
-114 -464 430 1797 0
393 -272 52 1798 0
87 -279 -78 1799 0
-265 285 -11 1800 0
48 368 -295 1801 0
-55 120 -231 1802 0
158 58 -81 1803 0
272 80 -412 1804 0
166 -419 -493 1805 0
-356 72 12 1806 0
-169 105 -225 1807 0
-306 149 -426 1808 0
149 -113 -443 1809 0
96 -444 -176 1810 0
202 -385 163 1811 0
360 -209 167 1812 0
393 -404 -335 1813 0
-10 355 -254 1814 0
-96 -41 -271 1815 0
70 -366 117 1816 0
481 35 -489 1817 0
-183 -61 -134 1818 0
-323 -352 -384 1819 0
-464 -281 -280 1820 0
310 190 379 1821 0
-334 -336 -234 1822 0
-256 395 -159 1823 0
11 -47 204 1824 0
388 484 -333 1825 0
-237 -460 -329 1826 0
279 191 174 1827 0
-111 -384 -231 1828 0
-222 197 413 1829 0
401 -316 231 1830 0
389 -288 433 1831 0
-17 346 444 1832 0
256 175 278 1833 0
-81 480 302 1834 0
322 206 -181 1835 0
-268 213 -356 1836 0
-8 429 -357 1837 0
-49 163 -246 1838 0
-207 453 345 1839 0
-491 -33 -272 1840 0
268 485 239 1841 0
-319 282 301 1842 0
-171 -129 -223 1843 0
-275 447 72 1844 0
454 -492 -469 1845 0
-479 252 152 1846 0
339 112 333 1847 0
-436 -441 349 1848 0
-6 49 -202 1849 0
-446 464 449 1850 0
314 39 71 1851 0
-424 264 152 1852 0
-383 -421 -101 1853 0
-258 294 -426 1854 0
411 -316 -368 1855 0
-120 -420 180 1856 0
93 -192 -387 1857 0
90 -361 -95 1858 0
-18 -456 -170 1859 0
254 -379 -346 1860 0
-180 -98 366 1861 0
-36 -284 89 1862 0
81 358 -309 1863 0
-108 -418 53 1864 0
463 -261 385 1865 0
221 -25 -24 1866 0
84 245 499 1867 0
296 -431 211 1868 0
140 -118 238 1869 0
-314 387 253 1870 0
-484 -241 270 1871 0
-44 -423 -78 1872 0
-464 -268 465 1873 0
-133 -3 -300 1874 0
269 49 337 1875 0
-290 488 220 1876 0
269 42 -404 1877 0
62 132 -70 1878 0
-372 114 196 1879 0
-42 -131 -216 1880 0
-396 11 -5 1881 0
-173 -147 -337 1882 0
390 -121 1 1883 0
136 -84 -493 1884 0
-86 -389 -479 1885 0
26 -201 -123 1886 0
197 -76 193 1887 0
152 433 -66 1888 0
-274 454 354 1889 0
-303 201 -163 1890 0
477 -431 -80 1891 0
254 -414 -295 1892 0
-313 489 128 1893 0
55 -173 -350 1894 0
280 -477 106 1895 0
279 -234 -266 1896 0
-24 190 432 1897 0
-435 -288 -208 1898 0
-474 207 -119 1899 0
-101 -359 -175 1900 0
-313 -96 268 1901 0
-50 185 -363 1902 0
-388 -384 32 1903 0
8 356 -394 1904 0
363 -375 393 1905 0
83 -374 -86 1906 0
-453 -275 -176 1907 0
-26 -313 431 1908 0
-222 -296 -46 1909 0
-69 -151 -168 1910 0
195 461 -57 1911 0
-308 -17 -135 1912 0
40 -69 486 1913 0
-126 310 99 1914 0
-287 106 -379 1915 0
45 164 -119 1916 0
97 107 -273 1917 0
247 160 -470 1918 0
55 121 420 1919 0
423 -379 -228 1920 0
178 122 -347 1921 0
28 78 -269 1922 0
-21 40 -56 1923 0
45 83 251 1924 0
401 -336 1 1925 0
-132 346 -21 1926 0
85 -376 -371 1927 0
396 -145 -217 1928 0
187 279 -410 1929 0
-238 270 447 1930 0
-339 -115 -304 1931 0
-285 -32 -467 1932 0
-217 26 -130 1933 0
327 343 -190 1934 0
337 -213 454 1935 0
65 485 -103 1936 0
-79 -218 293 1937 0
98 -493 -185 1938 0
-98 -477 -308 1939 0
87 250 -199 1940 0
-146 144 479 1941 0
-8 -318 -451 1942 0
-256 169 402 1943 0
-44 121 -85 1944 0
345 90 -358 1945 0
-423 39 304 1946 0
493 -318 -183 1947 0
222 -354 2 1948 0
283 418 -478 1949 0
-190 183 -1 1950 0
-147 -405 313 1951 0
-286 -308 226 1952 0
-418 -463 351 1953 0
1 75 333 1954 0
-382 229 -150 1955 0
-201 -183 -44 1956 0
250 -352 287 1957 0
-51 420 269 1958 0
143 34 -318 1959 0
-306 -111 -176 1960 0
324 -269 -1 1961 0
335 489 -107 1962 0
57 -363 471 1963 0
263 150 465 1964 0
228 -216 435 1965 0
-213 246 -482 1966 0
418 -11 -199 1967 0
466 215 -457 1968 0
-489 -250 100 1969 0
71 -51 -180 1970 0
435 -384 249 1971 0
-138 444 -68 1972 0
296 -417 -160 1973 0
-251 -163 303 1974 0
-157 -466 309 1975 0
22 323 -175 1976 0
-291 -94 151 1977 0
375 -62 -436 1978 0
-275 -315 178 1979 0
-239 315 221 1980 0
-400 52 -140 1981 0
-477 323 166 1982 0
-205 66 -455 1983 0
50 -114 138 1984 0
-298 94 310 1985 0
-115 99 -12 1986 0
-454 -429 -472 1987 0
-194 -420 199 1988 0
-352 115 -292 1989 0
250 100 -162 1990 0
461 98 -37 1991 0
-46 383 -58 1992 0
230 221 -263 1993 0
-150 -21 116 1994 0
302 116 -438 1995 0
286 -309 -442 1996 0
-277 226 416 1997 0
359 -387 -346 1998 0
344 108 144 1999 0
-211 -289 190 2000 0
167 114 -137 2001 0
-186 462 351 2002 0
383 -198 -140 2003 0
244 241 -453 2004 0
-164 168 -130 2005 0
-45 -9 16 2006 0
-297 115 391 2007 0
-441 154 -140 2008 0
267 -231 176 2009 0
313 -225 490 2010 0
-269 494 -209 2011 0
-13 67 -416 2012 0
-206 -243 1 2013 0
-440 -335 207 2014 0
-273 -53 115 2015 0
262 432 -83 2016 0
199 185 365 2017 0
-268 124 -299 2018 0
272 290 -357 2019 0
118 -359 347 2020 0
-31 -71 368 2021 0
331 366 259 2022 0
67 450 70 2023 0
-295 -108 -409 2024 0
-112 -40 16 2025 0
-153 -452 -467 2026 0
-90 101 202 2027 0
73 441 369 2028 0
423 55 299 2029 0
-346 -444 -367 2030 0
65 -283 273 2031 0
-75 171 325 2032 0
78 -92 444 2033 0
-116 -43 -381 2034 0
239 376 -101 2035 0
-495 486 -91 2036 0
355 186 458 2037 0
-450 -339 -338 2038 0
95 -493 -272 2039 0
-468 -191 -369 2040 0
-323 98 -107 2041 0
432 463 -74 2042 0
-481 -39 179 2043 0
235 -371 390 2044 0
351 -374 226 2045 0
-144 -291 242 2046 0
147 -168 252 2047 0
-399 -312 -485 2048 0
-433 393 412 2049 0
-70 -6 339 2050 0
72 311 -299 2051 0
165 437 247 2052 0
-282 90 -105 2053 0
344 149 -437 2054 0
64 253 495 2055 0
144 -106 124 2056 0
-161 -384 8 2057 0
123 -261 -392 2058 0
-455 157 376 2059 0
437 -35 98 2060 0
-464 -18 42 2061 0
348 -73 -103 2062 0
-70 -122 -191 2063 0
320 142 365 2064 0
-413 188 365 2065 0
97 232 22 2066 0
391 110 305 2067 0
-388 -399 -8 2068 0
333 391 -182 2069 0
-350 45 -139 2070 0
499 385 -144 2071 0
-188 146 285 2072 0
-224 172 -168 2073 0
-96 -400 -106 2074 0
-379 -354 -329 2075 0
22 488 230 2076 0
-499 218 -378 2077 0
-440 -287 200 2078 0
398 339 124 2079 0
-208 -68 366 2080 0
202 120 292 2081 0
-212 298 -344 2082 0
386 -475 -250 2083 0
-57 -219 -88 2084 0
455 -273 238 2085 0
-148 -134 -500 2086 0
-431 -284 266 2087 0
274 -48 -225 2088 0
-171 477 -286 2089 0
490 -380 476 2090 0
-189 208 -457 2091 0
-292 -179 299 2092 0
106 -104 166 2093 0
159 -27 -312 2094 0
363 25 392 2095 0
-442 -248 51 2096 0
295 6 334 2097 0
-222 238 28 2098 0
308 462 21 2099 0
-67 249 -18 2100 0
194 477 447 2101 0
-270 -233 45 2102 0
-189 101 62 2103 0
-409 107 -282 2104 0
-221 -38 461 2105 0
50 361 92 2106 0
-396 235 -471 2107 0
-453 54 -444 2108 0
-215 -347 129 2109 0
-36 -228 -30 2110 0
-222 438 -22 2111 0
346 322 219 2112 0
307 329 -229 2113 0
-4 -425 386 2114 0
288 -225 493 2115 0
159 22 -66 2116 0
34 1 -213 2117 0
-396 381 -186 2118 0
-37 -449 -321 2119 0
-168 -481 -111 2120 0
-235 40 27 2121 0
-490 261 389 2122 0
-410 3 -276 2123 0
41 488 226 2124 0
-421 -475 200 2125 0
148 -396 -238 2126 0
-86 378 155 2127 0
-51 61 154 2128 0
-181 -143 415 2129 0
45 -1 -490 2130 0
262 337 234 2131 0
-414 206 137 2132 0
-153 -295 190 2133 0
192 451 124 2134 0
357 223 165 2135 0
42 97 -94 2136 0
356 71 -147 2137 0
315 -408 438 2138 0
500 -332 -362 2139 0
85 9 -376 2140 0
283 -308 -41 2141 0
349 -40 268 2142 0
164 -472 468 2143 0
8 -471 -76 2144 0
84 441 450 2145 0
-136 163 -488 2146 0
-69 -314 438 2147 0
-184 209 -313 2148 0
-31 -476 278 2149 0
-51 482 479 2150 0
-156 128 469 2151 0
22 239 -149 2152 0
-254 -96 -463 2153 0
-231 305 315 2154 0
-250 -91 241 2155 0
316 275 107 2156 0
113 -56 194 2157 0
373 54 -17 2158 0
64 46 149 2159 0
62 457 32 2160 0
241 16 24 2161 0
229 140 249 2162 0
63 406 447 2163 0
-29 -75 -494 2164 0
394 -468 -357 2165 0
361 335 -398 2166 0
-403 113 100 2167 0
216 -262 192 2168 0
-180 435 -319 2169 0
-304 457 121 2170 0
302 -231 155 2171 0
432 115 -90 2172 0
-437 198 -246 2173 0
2 -206 426 2174 0
108 -352 55 2175 0
-482 77 -335 2176 0
-228 -297 -128 2177 0
-294 438 26 2178 0
255 -214 382 2179 0
-359 -332 -287 2180 0
-380 -216 -8 2181 0
-359 -230 -104 2182 0
484 169 235 2183 0
-212 -195 299 2184 0
276 64 -454 2185 0
223 -202 -3 2186 0
489 -292 -34 2187 0
-203 -365 306 2188 0
-275 381 -133 2189 0
385 63 -89 2190 0
12 -390 -50 2191 0
-58 -299 -258 2192 0
-6 135 408 2193 0
241 65 -254 2194 0
-414 -115 66 2195 0
118 -385 -308 2196 0
-165 341 415 2197 0
-434 -385 -256 2198 0
174 -90 -226 2199 0
-306 -468 379 2200 0
-301 104 -97 2201 0
145 -330 237 2202 0
294 466 95 2203 0
201 -317 336 2204 0
-397 417 -26 2205 0
256 210 61 2206 0
383 278 -300 2207 0
-238 423 -311 2208 0
-50 430 35 2209 0
227 449 161 2210 0
-69 -184 118 2211 0
434 183 459 2212 0
-259 478 78 2213 0
212 190 -307 2214 0
-402 -367 -488 2215 0
56 -230 217 2216 0
-7 -487 429 2217 0
102 -142 99 2218 0
-58 163 -32 2219 0
419 23 -234 2220 0
-494 -55 184 2221 0
-19 116 -12 2222 0
8 163 -126 2223 0
-406 391 362 2224 0
86 -128 273 2225 0
206 52 418 2226 0
254 374 -196 2227 0
48 215 -272 2228 0
348 374 -171 2229 0
373 78 -397 2230 0
-72 -487 158 2231 0
100 -297 -328 2232 0
-7 -40 -124 2233 0
-4 -307 107 2234 0
-58 27 -286 2235 0
403 -136 -447 2236 0
-21 256 373 2237 0
44 162 155 2238 0
-413 -421 -326 2239 0
-33 462 -262 2240 0
76 -67 228 2241 0
10 36 -240 2242 0
-173 93 -264 2243 0
76 252 37 2244 0
-194 497 -484 2245 0
342 -109 449 2246 0
107 -384 -377 2247 0
259 -184 389 2248 0
479 -128 -49 2249 0
80 260 -55 2250 0
462 236 -426 2251 0
-231 68 463 2252 0
350 420 413 2253 0
-301 225 133 2254 0
311 -441 452 2255 0
72 288 89 2256 0
-123 -382 70 2257 0
-56 -309 198 2258 0
-470 -174 -382 2259 0
171 185 419 2260 0
-412 322 167 2261 0
-245 -295 448 2262 0
478 -451 -1 2263 0
-2 -473 -123 2264 0
159 -100 -327 2265 0
255 309 458 2266 0
-105 113 377 2267 0
419 454 471 2268 0
-496 -141 -458 2269 0
221 -201 -173 2270 0
362 326 40 2271 0
110 -203 395 2272 0
-255 272 192 2273 0
-220 463 -172 2274 0
170 -145 -215 2275 0
-136 -6 47 2276 0
-280 355 -30 2277 0
264 -188 493 2278 0
284 462 174 2279 0
421 -145 -71 2280 0
61 129 160 2281 0
-110 146 -139 2282 0
-8 -393 -231 2283 0
243 218 -285 2284 0
266 -144 -31 2285 0
398 -188 194 2286 0
-315 -183 16 2287 0
200 -422 -232 2288 0
210 161 412 2289 0
100 266 4 2290 0
-355 254 193 2291 0
-263 -246 -138 2292 0
-423 -121 -86 2293 0
243 -461 -27 2294 0
-297 309 -22 2295 0
107 454 307 2296 0
222 24 475 2297 0
166 -268 408 2298 0
421 169 227 2299 0
325 -170 376 2300 0
496 324 141 2301 0
445 -172 328 2302 0
155 -75 42 2303 0
-8 353 -156 2304 0
363 -309 177 2305 0
260 132 131 2306 0
-398 81 -181 2307 0
-387 -190 39 2308 0
-152 -176 -277 2309 0
-448 -212 -110 2310 0
240 76 365 2311 0
-491 44 484 2312 0
-44 449 118 2313 0
422 -394 -121 2314 0
-229 481 -39 2315 0
116 -312 408 2316 0
-35 -60 44 2317 0
-111 -499 48 2318 0
302 481 -460 2319 0
283 -398 3 2320 0
153 -385 63 2321 0
23 431 -268 2322 0
35 -495 -327 2323 0
-39 -330 -302 2324 0
135 217 -463 2325 0
269 30 -312 2326 0
-215 -252 362 2327 0
377 -418 -278 2328 0
29 -444 -321 2329 0
-375 -337 -485 2330 0
-135 -492 -228 2331 0
-473 248 293 2332 0
146 -247 -371 2333 0
-94 161 269 2334 0
394 224 -185 2335 0
-252 180 -341 2336 0
-227 306 105 2337 0
-417 17 232 2338 0
393 -97 -389 2339 0
159 -262 400 2340 0
-364 -472 233 2341 0
-291 -41 -434 2342 0
194 105 -88 2343 0
-67 418 126 2344 0
444 -44 467 2345 0
-365 -187 456 2346 0
-234 -360 -254 2347 0
-161 407 73 2348 0
165 -457 -364 2349 0
123 -291 -248 2350 0
-294 312 -336 2351 0
-289 -326 -19 2352 0
135 366 -200 2353 0
-374 258 73 2354 0
288 -432 -176 2355 0
-400 -254 -448 2356 0
167 31 -204 2357 0
-360 -223 -115 2358 0
386 -179 -274 2359 0
-328 -234 -38 2360 0
303 350 159 2361 0
-259 -52 -484 2362 0
360 254 437 2363 0
-178 -168 89 2364 0
116 54 436 2365 0
378 -99 -101 2366 0
-140 296 -260 2367 0
-102 -348 -370 2368 0
103 326 62 2369 0
-385 11 462 2370 0
149 276 -437 2371 0
-100 -52 -426 2372 0
-6 80 413 2373 0
391 -473 -197 2374 0
-459 285 470 2375 0
-93 216 -10 2376 0
-48 216 195 2377 0
-220 -41 -234 2378 0
-406 310 485 2379 0
70 391 -181 2380 0
-351 332 371 2381 0
131 466 268 2382 0
-193 -83 -314 2383 0
151 148 -454 2384 0
8 478 -479 2385 0
375 131 271 2386 0
-34 -388 -223 2387 0
84 377 -274 2388 0
355 -55 -345 2389 0
-309 171 -150 2390 0
-278 -160 358 2391 0
-134 174 -109 2392 0
-255 493 -285 2393 0
-487 -470 351 2394 0
15 416 487 2395 0
-417 436 -465 2396 0
77 401 426 2397 0
-240 129 488 2398 0
426 -231 331 2399 0
-43 -473 -408 2400 0
-481 183 -380 2401 0
481 428 -309 2402 0
-277 32 449 2403 0
-58 -363 -481 2404 0
-201 440 -131 2405 0
-315 -181 -157 2406 0
295 136 -269 2407 0
-324 -73 -425 2408 0
375 421 -1 2409 0
77 252 -38 2410 0
-33 -436 -463 2411 0
-453 -217 338 2412 0
-188 352 -147 2413 0
496 -194 -253 2414 0
-443 415 469 2415 0
49 -87 329 2416 0
-321 -368 -114 2417 0
394 400 -55 2418 0
155 205 -72 2419 0
-126 117 -461 2420 0
-410 323 -364 2421 0
-478 -197 -264 2422 0
-375 358 432 2423 0
93 60 -191 2424 0
-53 166 199 2425 0
-245 -152 284 2426 0
-127 -121 -425 2427 0
341 26 43 2428 0
210 149 -344 2429 0
344 82 -19 2430 0
-375 -457 -98 2431 0
-14 201 -311 2432 0
-321 389 -331 2433 0
-270 435 474 2434 0
-25 229 -350 2435 0
414 162 224 2436 0
183 -270 -272 2437 0
290 -500 258 2438 0
50 -232 467 2439 0
73 363 198 2440 0
40 -337 161 2441 0
217 -234 340 2442 0
-500 460 319 2443 0
318 -250 75 2444 0
-254 95 347 2445 0
357 430 -121 2446 0
-190 154 -45 2447 0
403 18 -348 2448 0
-100 102 -404 2449 0
-293 -417 -50 2450 0
-415 -440 -270 2451 0
112 412 -260 2452 0
170 334 407 2453 0
370 438 -83 2454 0
-85 -492 -415 2455 0
-236 176 -264 2456 0
38 -310 147 2457 0
-42 -330 -258 2458 0
319 -494 414 2459 0
23 -408 389 2460 0
-438 280 254 2461 0
17 -368 111 2462 0
443 -79 -48 2463 0
-423 -284 52 2464 0
298 -256 -369 2465 0
219 366 -431 2466 0
-332 -17 -435 2467 0
-429 -49 -215 2468 0
-367 -72 234 2469 0
-287 327 -285 2470 0
-17 -255 -469 2471 0
-140 355 -164 2472 0
-409 451 21 2473 0
500 34 -11 2474 0
-1 487 -400 2475 0
128 -227 116 2476 0
103 -236 -378 2477 0
167 -260 24 2478 0
120 442 -38 2479 0
460 -473 -109 2480 0
135 280 313 2481 0
-134 184 -155 2482 0
-319 358 -83 2483 0
411 -279 2 2484 0
-386 -313 205 2485 0
-388 21 121 2486 0
8 151 -191 2487 0
279 -397 435 2488 0
280 -219 -236 2489 0
-174 422 -49 2490 0
-148 -8 -303 2491 0
-146 250 416 2492 0
372 500 -22 2493 0
256 370 -37 2494 0
-442 294 -190 2495 0
46 -210 158 2496 0
91 122 177 2497 0
220 -338 441 2498 0
487 -308 452 2499 0
269 181 467 2500 0
190 25 -498 2501 0
-211 -443 363 2502 0
485 -145 -211 2503 0
-79 -27 -175 2504 0
-143 -276 -169 2505 0
251 268 381 2506 0
487 218 -37 2507 0
436 165 35 2508 0
110 405 467 2509 0
-396 -244 -228 2510 0
311 332 477 2511 0
-352 -194 321 2512 0
317 -480 -413 2513 0
-400 -429 210 2514 0
-391 442 157 2515 0
-428 7 -188 2516 0
-108 -138 -397 2517 0
-167 -38 26 2518 0
-164 -427 287 2519 0
243 -258 446 2520 0
16 -26 -77 2521 0
-277 342 -492 2522 0
-1 -364 -205 2523 0
207 -438 -459 2524 0
-415 -199 178 2525 0
272 174 -201 2526 0
-11 112 296 2527 0
-488 -416 390 2528 0
343 272 -328 2529 0
-499 188 201 2530 0
14 -402 272 2531 0
-62 -441 -183 2532 0
294 40 162 2533 0
-489 258 282 2534 0
291 -147 -108 2535 0
46 -166 332 2536 0
207 -201 89 2537 0
-291 -473 313 2538 0
25 -443 -406 2539 0
-66 395 -219 2540 0
455 4 40 2541 0
204 -136 150 2542 0
393 22 -334 2543 0
39 -491 87 2544 0
-222 -244 92 2545 0
-415 154 -127 2546 0
-229 -81 -490 2547 0
128 -67 300 2548 0
-258 466 223 2549 0
253 -233 185 2550 0
-55 229 -491 2551 0
-19 -24 322 2552 0
-232 27 -142 2553 0
-288 -351 165 2554 0
-166 -37 -242 2555 0
491 480 426 2556 0
66 -364 -493 2557 0
-120 -383 -268 2558 0
-498 59 227 2559 0
118 -164 -27 2560 0
-200 -416 -392 2561 0
-40 112 -165 2562 0
-190 -152 -411 2563 0
-327 -490 481 2564 0
86 -498 -252 2565 0
110 438 247 2566 0
-59 -156 245 2567 0
-472 -31 -117 2568 0
-89 -325 -200 2569 0
471 64 -16 2570 0
-421 -481 -164 2571 0
303 483 -150 2572 0
116 -250 -71 2573 0
151 392 -297 2574 0
499 -456 -319 2575 0
-172 10 247 2576 0
31 367 429 2577 0
47 -227 -282 2578 0
414 -310 -353 2579 0
55 389 418 2580 0
-207 -147 479 2581 0
-272 487 139 2582 0
251 -492 315 2583 0
285 -267 -468 2584 0
-30 352 344 2585 0
116 352 378 2586 0
194 -7 -265 2587 0
97 -297 481 2588 0
194 -14 -119 2589 0
-474 334 -25 2590 0
405 -404 269 2591 0
74 -361 -312 2592 0
156 -265 -68 2593 0
80 33 66 2594 0
-303 -363 -419 2595 0
-349 -293 -309 2596 0
311 -486 161 2597 0
-213 -171 -301 2598 0
68 32 223 2599 0
457 -128 -421 2600 0
220 -239 -432 2601 0
10 -85 -486 2602 0
30 461 381 2603 0
413 478 28 2604 0
-461 -394 337 2605 0
-93 -267 166 2606 0
-34 -389 155 2607 0
-174 -430 116 2608 0
351 -268 45 2609 0
-486 384 104 2610 0
161 209 -492 2611 0
-138 408 450 2612 0
159 484 -364 2613 0
-468 302 -338 2614 0
490 467 427 2615 0
232 -346 479 2616 0
-289 -208 38 2617 0
-461 -473 -207 2618 0
-48 153 420 2619 0
307 -244 28 2620 0
49 -401 114 2621 0
-45 80 127 2622 0
-440 -410 225 2623 0
61 48 1 2624 0
-377 -392 90 2625 0
474 74 152 2626 0
-185 228 127 2627 0
480 38 -170 2628 0
-93 30 294 2629 0
356 440 -293 2630 0
-6 40 478 2631 0
426 -450 -323 2632 0
29 -147 108 2633 0
-306 24 147 2634 0
-73 464 -333 2635 0
215 -106 -357 2636 0
348 -316 -403 2637 0
-354 198 -481 2638 0
-236 373 104 2639 0
42 204 -68 2640 0
238 471 101 2641 0
333 -245 421 2642 0
-428 76 -151 2643 0
476 -77 264 2644 0
330 98 305 2645 0
283 -300 -395 2646 0
376 193 -113 2647 0
-385 411 -211 2648 0
14 320 355 2649 0
286 -476 -208 2650 0
