p cnf 2650 2150
-162 -277 -402 501 0
482 -397 246 502 0
-229 2 -187 503 0
358 362 134 504 0
-367 283 34 505 0
-362 194 -408 506 0
-450 123 344 507 0
-251 -440 -63 508 0
329 51 448 509 0
-415 -320 304 510 0
51 367 310 511 0
434 -379 163 512 0
451 88 -235 513 0
434 467 -122 514 0
483 -86 47 515 0
-190 -35 -382 516 0
381 439 105 517 0
444 -498 417 518 0
-493 29 -133 519 0
290 353 116 520 0
-61 136 -168 521 0
-245 100 78 522 0
289 -271 -306 523 0
-206 317 -210 524 0
136 -360 -356 525 0
10 -240 -411 526 0
-42 495 -213 527 0
344 295 -211 528 0
-410 322 -379 529 0
-43 -209 -238 530 0
442 -490 -258 531 0
-156 -159 -88 532 0
-131 -179 46 533 0
459 366 -407 534 0
-213 190 343 535 0
-324 -484 -269 536 0
245 -443 20 537 0
-215 209 -353 538 0
-333 422 -244 539 0
350 -397 318 540 0
-393 -139 416 541 0
-274 87 370 542 0
-243 -116 488 543 0
260 79 -158 544 0
256 35 46 545 0
266 -139 -387 546 0
143 314 207 547 0
-119 -450 6 548 0
11 280 -117 549 0
499 -303 1 550 0
-99 12 -140 551 0
85 -322 -72 552 0
-322 -436 -101 553 0
497 -176 250 554 0
360 56 235 555 0
158 382 187 556 0
-481 244 -135 557 0
198 -334 95 558 0
-152 461 -5 559 0
-265 -455 -241 560 0
430 458 -51 561 0
317 -322 -198 562 0
355 -391 -342 563 0
-495 -17 -392 564 0
328 184 -464 565 0
-19 249 68 566 0
-333 -376 -197 567 0
-496 79 -156 568 0
-112 460 80 569 0
15 392 -17 570 0
-498 471 -100 571 0
373 121 305 572 0
-228 113 -308 573 0
73 78 184 574 0
-481 -430 -420 575 0
425 84 174 576 0
334 277 271 577 0
-453 117 142 578 0
-485 242 475 579 0
-465 -316 -45 580 0
136 188 -45 581 0
162 352 -427 582 0
116 14 -319 583 0
-391 -368 264 584 0
-227 256 -463 585 0
417 -463 457 586 0
373 81 315 587 0
123 320 276 588 0
-254 495 447 589 0
295 -493 -190 590 0
-177 -60 359 591 0
205 -372 -170 592 0
-50 -234 -269 593 0
226 341 115 594 0
272 -290 452 595 0
131 411 -260 596 0
-401 408 -46 597 0
342 316 106 598 0
-488 -283 -52 599 0
80 -92 350 600 0
490 -186 491 601 0
159 445 -11 602 0
27 435 -268 603 0
144 -208 -264 604 0
-119 -193 -159 605 0
256 -228 384 606 0
82 -431 -164 607 0
271 -167 233 608 0
-313 -54 -341 609 0
-214 -282 -327 610 0
-92 71 -491 611 0
105 257 404 612 0
-37 125 418 613 0
472 -145 253 614 0
290 -77 -361 615 0
396 453 -362 616 0
-480 -306 -312 617 0
439 305 -196 618 0
216 -487 -8 619 0
219 -223 215 620 0
-290 3 -400 621 0
-22 -198 249 622 0
36 -92 382 623 0
-110 -128 -152 624 0
289 267 -187 625 0
64 167 -365 626 0
442 410 -499 627 0
-133 95 -105 628 0
-77 -381 -326 629 0
-288 151 -88 630 0
-235 -99 -270 631 0
-355 273 405 632 0
303 -126 -424 633 0
-81 -195 -288 634 0
-402 175 182 635 0
-157 322 204 636 0
81 -370 101 637 0
268 -35 -234 638 0
-338 -422 -433 639 0
197 -29 83 640 0
-388 -387 385 641 0
406 -53 101 642 0
350 326 -258 643 0
227 -56 -320 644 0
-474 -305 -216 645 0
-269 -356 -383 646 0
176 137 424 647 0
-26 295 -405 648 0
405 -198 -205 649 0
22 250 -446 650 0
73 -495 -390 651 0
75 24 346 652 0
-306 -83 -401 653 0
90 -304 -385 654 0
-182 433 196 655 0
49 -229 -446 656 0
185 -463 436 657 0
478 -177 -49 658 0
-279 -370 -329 659 0
156 350 298 660 0
-340 438 296 661 0
-216 214 -264 662 0
-319 -352 14 663 0
-305 -155 -71 664 0
365 -288 -73 665 0
149 110 -40 666 0
-32 288 388 667 0
322 -209 -23 668 0
32 -52 -392 669 0
247 -55 372 670 0
61 294 -338 671 0
-429 -51 91 672 0
77 -275 341 673 0
431 486 175 674 0
-360 -67 500 675 0
56 -172 377 676 0
-252 86 222 677 0
395 -170 364 678 0
242 -355 -152 679 0
34 -312 -461 680 0
-215 -259 -353 681 0
125 -316 202 682 0
260 -248 444 683 0
377 96 130 684 0
148 -249 238 685 0
366 28 174 686 0
-99 -427 468 687 0
200 297 469 688 0
479 65 -18 689 0
-336 213 174 690 0
-108 178 -331 691 0
419 353 57 692 0
-405 -272 -120 693 0
-490 430 -438 694 0
-125 -153 429 695 0
195 -365 483 696 0
361 -67 -93 697 0
-251 -69 420 698 0
-63 -45 114 699 0
-92 19 255 700 0
-360 -471 -168 701 0
260 92 -12 702 0
187 53 -150 703 0
-94 -342 43 704 0
242 -259 162 705 0
-268 84 405 706 0
-423 139 -140 707 0
-301 158 90 708 0
416 407 268 709 0
200 -35 -243 710 0
128 153 212 711 0
450 319 28 712 0
316 97 63 713 0
-337 -332 139 714 0
-213 56 144 715 0
71 117 -381 716 0
101 22 95 717 0
326 -282 347 718 0
-430 258 248 719 0
-487 -201 -417 720 0
397 -176 277 721 0
-361 483 -470 722 0
-310 431 -81 723 0
388 395 362 724 0
-479 -102 -456 725 0
188 -131 36 726 0
-450 -103 -51 727 0
276 -141 -432 728 0
217 -433 150 729 0
-12 148 303 730 0
-436 -364 -381 731 0
151 -410 42 732 0
-192 -40 -499 733 0
114 -213 55 734 0
-360 38 379 735 0
86 56 7 736 0
-50 482 -273 737 0
-89 -323 -43 738 0
-290 424 68 739 0
148 -498 -315 740 0
-263 266 435 741 0
427 -37 440 742 0
478 -419 319 743 0
70 -3 -487 744 0
13 -403 -217 745 0
294 111 -45 746 0
82 475 -86 747 0
-187 -360 239 748 0
-486 194 297 749 0
163 -73 -45 750 0
-487 -358 436 751 0
-260 -174 -394 752 0
21 -232 -379 753 0
484 300 -43 754 0
-287 -212 -257 755 0
203 -165 -254 756 0
392 -139 94 757 0
-366 -385 166 758 0
-470 -204 255 759 0
189 -84 -399 760 0
-321 51 -500 761 0
461 52 -363 762 0
-376 -319 436 763 0
-409 -437 458 764 0
342 -95 291 765 0
51 309 -486 766 0
389 -61 -484 767 0
444 -301 -461 768 0
-360 -21 318 769 0
112 -382 -459 770 0
226 -52 -174 771 0
275 247 -340 772 0
-64 -133 -126 773 0
56 196 -317 774 0
-368 139 370 775 0
106 -154 62 776 0
-416 468 -405 777 0
155 -461 -388 778 0
-268 99 -49 779 0
-392 416 -160 780 0
468 97 -357 781 0
222 200 89 782 0
230 -398 -210 783 0
407 -174 427 784 0
411 210 -150 785 0
8 209 -366 786 0
457 169 -130 787 0
-213 -462 -29 788 0
-183 -134 -429 789 0
291 141 -359 790 0
-453 -258 468 791 0
-497 417 -107 792 0
-464 115 -368 793 0
-349 -333 -302 794 0
5 -152 176 795 0
398 -68 -70 796 0
114 202 -405 797 0
-215 328 -226 798 0
-142 356 -469 799 0
-296 -392 -323 800 0
167 -239 410 801 0
-279 -127 -121 802 0
48 -353 -271 803 0
-193 93 -96 804 0
463 -292 -69 805 0
233 -175 131 806 0
344 188 -192 807 0
459 -268 -128 808 0
-169 80 442 809 0
16 47 -171 810 0
86 -280 482 811 0
-52 -111 93 812 0
-159 136 -430 813 0
433 317 -219 814 0
248 -211 81 815 0
273 -424 92 816 0
200 -95 456 817 0
485 452 198 818 0
121 248 -15 819 0
292 241 486 820 0
-476 -221 64 821 0
-12 233 -495 822 0
-213 -427 52 823 0
377 -12 -11 824 0
-284 232 -178 825 0
342 -445 421 826 0
-61 449 -11 827 0
243 298 -309 828 0
-406 -52 455 829 0
20 -1 -291 830 0
69 -23 -371 831 0
-393 457 -345 832 0
-285 40 323 833 0
-305 -321 -402 834 0
-308 -65 158 835 0
-172 396 308 836 0
-115 322 -8 837 0
422 -38 77 838 0
-282 444 -311 839 0
312 -306 485 840 0
37 -24 322 841 0
100 -341 470 842 0
383 -487 289 843 0
371 -455 132 844 0
-343 6 -394 845 0
435 -364 -333 846 0
-129 159 -118 847 0
210 2 416 848 0
187 445 -95 849 0
-313 36 -362 850 0
-233 -330 310 851 0
125 -121 -106 852 0
-418 -128 -304 853 0
-80 5 -230 854 0
257 256 205 855 0
-304 -474 79 856 0
-362 209 -113 857 0
-95 -475 -370 858 0
335 159 26 859 0
342 490 163 860 0
-368 322 -125 861 0
284 434 145 862 0
-319 380 -158 863 0
9 -171 451 864 0
6 -172 335 865 0
408 -394 -198 866 0
462 141 152 867 0
-350 246 -87 868 0
269 426 494 869 0
6 1 452 870 0
195 -101 -329 871 0
-353 297 -274 872 0
-82 8 -194 873 0
-136 -61 -321 874 0
374 -145 92 875 0
-354 -455 58 876 0
-397 293 -142 877 0
71 168 163 878 0
-229 -199 -177 879 0
-315 266 -262 880 0
386 -395 22 881 0
-463 36 196 882 0
-10 -124 -170 883 0
-9 363 -7 884 0
-234 448 -200 885 0
-293 -241 104 886 0
-447 116 -41 887 0
80 -326 -360 888 0
105 301 370 889 0
117 485 -465 890 0
288 331 139 891 0
-247 37 -87 892 0
119 26 140 893 0
249 181 34 894 0
263 -469 -193 895 0
489 -372 451 896 0
-434 316 399 897 0
434 -254 449 898 0
-71 264 410 899 0
-155 -97 324 900 0
-370 -44 -401 901 0
-321 88 -13 902 0
-455 289 -440 903 0
47 456 -266 904 0
-123 253 -44 905 0
-268 -493 150 906 0
-38 -278 124 907 0
-88 -89 94 908 0
364 35 -55 909 0
-123 174 153 910 0
301 -162 48 911 0
33 120 -358 912 0
230 20 36 913 0
-121 29 107 914 0
-66 83 -124 915 0
449 -317 -63 916 0
88 -244 417 917 0
-233 -218 -97 918 0
10 -40 214 919 0
387 133 -486 920 0
-372 264 -48 921 0
-59 395 -203 922 0
437 -183 262 923 0
350 133 92 924 0
-133 215 222 925 0
7 318 219 926 0
-471 385 -435 927 0
348 -142 374 928 0
-107 119 434 929 0
-384 23 -400 930 0
-338 100 -14 931 0
173 244 296 932 0
482 -294 -471 933 0
262 -117 113 934 0
-7 -224 -34 935 0
330 278 -219 936 0
-90 381 -332 937 0
226 -298 259 938 0
91 -215 -494 939 0
14 164 -160 940 0
-378 -86 49 941 0
170 120 -308 942 0
-331 294 -445 943 0
-304 -252 -407 944 0
283 48 403 945 0
-453 185 -81 946 0
-275 -393 84 947 0
49 -332 -422 948 0
413 486 3 949 0
59 -386 -165 950 0
-8 -336 -214 951 0
136 140 -331 952 0
281 30 244 953 0
241 353 53 954 0
-459 212 398 955 0
400 -330 80 956 0
362 -488 23 957 0
7 247 -239 958 0
367 39 166 959 0
20 -108 -247 960 0
-277 288 -121 961 0
-479 -121 -268 962 0
-412 -499 264 963 0
-218 -79 429 964 0
-132 -417 -357 965 0
482 337 -370 966 0
-82 6 -455 967 0
374 72 -188 968 0
317 93 243 969 0
-246 -468 -223 970 0
-28 -102 -239 971 0
-235 469 -459 972 0
-130 -295 82 973 0
-361 385 -96 974 0
-44 273 -155 975 0
-334 110 -376 976 0
-257 -187 -280 977 0
-304 -463 -31 978 0
194 -459 430 979 0
-475 -49 482 980 0
-436 -13 121 981 0
213 -139 159 982 0
-200 -260 174 983 0
90 170 -479 984 0
-33 -185 217 985 0
-106 96 292 986 0
226 -356 -3 987 0
-193 -14 62 988 0
-107 -41 -294 989 0
-342 270 29 990 0
499 340 -351 991 0
-56 -206 112 992 0
-131 424 497 993 0
-309 451 56 994 0
-328 -84 -96 995 0
-245 250 464 996 0
-490 -439 -217 997 0
-205 451 -1 998 0
-272 495 -456 999 0
362 -273 53 1000 0
-180 -408 -486 1001 0
-477 309 -48 1002 0
454 123 -382 1003 0
331 -203 -325 1004 0
-49 -229 487 1005 0
143 87 32 1006 0
-274 -199 -132 1007 0
261 140 284 1008 0
-493 -204 -205 1009 0
143 37 368 1010 0
-93 378 35 1011 0
-173 -97 -464 1012 0
146 -311 4 1013 0
-174 -100 153 1014 0
-436 -362 -418 1015 0
-181 -492 392 1016 0
-342 -70 231 1017 0
-113 -276 369 1018 0
473 -255 -147 1019 0
424 -154 8 1020 0
-201 -297 138 1021 0
-457 181 345 1022 0
412 411 -444 1023 0
437 -254 -369 1024 0
240 -171 -70 1025 0
-84 256 417 1026 0
-112 -184 -46 1027 0
382 307 7 1028 0
347 400 -478 1029 0
118 -413 6 1030 0
-199 339 236 1031 0
442 406 -458 1032 0
-9 -377 -362 1033 0
-215 460 -260 1034 0
-70 -124 -467 1035 0
-234 -316 -198 1036 0
-243 -18 450 1037 0
-341 -323 -408 1038 0
-25 24 28 1039 0
375 292 -131 1040 0
-376 -140 358 1041 0
174 -495 374 1042 0
-484 198 160 1043 0
480 13 -321 1044 0
102 -1 -288 1045 0
139 -156 121 1046 0
-345 -424 -155 1047 0
-394 -258 481 1048 0
143 450 -219 1049 0
119 94 -224 1050 0
-421 116 94 1051 0
-43 9 307 1052 0
385 282 -190 1053 0
269 -150 308 1054 0
242 142 35 1055 0
350 352 430 1056 0
-353 42 -244 1057 0
205 81 -431 1058 0
228 239 434 1059 0
335 142 -315 1060 0
453 498 405 1061 0
-367 -258 -154 1062 0
10 163 -354 1063 0
-165 -350 -318 1064 0
-377 -144 29 1065 0
77 -177 161 1066 0
50 -43 91 1067 0
-278 -92 293 1068 0
-275 265 -352 1069 0
137 265 51 1070 0
-480 -173 -343 1071 0
416 -23 -124 1072 0
58 257 189 1073 0
175 -435 378 1074 0
-162 144 -62 1075 0
241 -424 -404 1076 0
152 272 -116 1077 0
-1 -29 283 1078 0
419 -161 286 1079 0
68 -419 -166 1080 0
-449 -456 462 1081 0
-328 383 165 1082 0
-425 364 -2 1083 0
-6 -329 28 1084 0
477 239 225 1085 0
-470 90 -486 1086 0
-39 278 490 1087 0
-148 -197 483 1088 0
202 -447 -446 1089 0
18 -404 -96 1090 0
-330 354 51 1091 0
-423 -104 -371 1092 0
307 208 -116 1093 0
225 4 -371 1094 0
-105 42 475 1095 0
-326 -339 169 1096 0
-292 183 -290 1097 0
267 -393 -358 1098 0
-214 113 316 1099 0
342 -33 -299 1100 0
-47 -154 403 1101 0
-281 -71 411 1102 0
352 -44 -162 1103 0
-40 -31 -32 1104 0
94 -32 -362 1105 0
118 -388 -409 1106 0
85 -262 202 1107 0
362 -372 -99 1108 0
-63 67 477 1109 0
-70 -195 342 1110 0
336 -26 -130 1111 0
371 -109 490 1112 0
-91 -288 -225 1113 0
454 191 -342 1114 0
-257 -3 402 1115 0
-130 73 -333 1116 0
-260 298 -121 1117 0
-81 -50 346 1118 0
-321 20 361 1119 0
-193 298 -137 1120 0
418 333 -308 1121 0
89 376 -104 1122 0
167 445 23 1123 0
209 39 85 1124 0
363 453 -229 1125 0
-225 -107 -329 1126 0
-4 -459 -281 1127 0
204 365 323 1128 0
-184 236 -156 1129 0
340 -456 209 1130 0
-375 -146 57 1131 0
-424 -259 -61 1132 0
-303 -344 -229 1133 0
-223 -39 244 1134 0
119 314 455 1135 0
303 -194 -238 1136 0
-249 277 298 1137 0
-71 -113 -337 1138 0
-296 -245 -334 1139 0
164 -461 437 1140 0
418 -416 -484 1141 0
-376 -309 -40 1142 0
349 -118 207 1143 0
234 120 -412 1144 0
273 131 -29 1145 0
34 -157 -8 1146 0
-156 436 221 1147 0
127 -311 -219 1148 0
-126 93 457 1149 0
460 -253 92 1150 0
-23 -411 116 1151 0
-402 495 -189 1152 0
-8 -6 475 1153 0
-498 -319 298 1154 0
277 -8 467 1155 0
-365 -182 266 1156 0
344 -325 405 1157 0
-409 -175 200 1158 0
-178 443 -281 1159 0
-313 65 285 1160 0
-177 -495 383 1161 0
-374 -8 -318 1162 0
18 414 265 1163 0
-485 490 -148 1164 0
-160 -327 495 1165 0
-437 -96 444 1166 0
445 -300 -271 1167 0
-124 -260 -308 1168 0
-79 -374 48 1169 0
-393 213 118 1170 0
-368 -199 -235 1171 0
261 -432 342 1172 0
140 -168 277 1173 0
-91 461 258 1174 0
-314 -308 -287 1175 0
-410 -234 263 1176 0
417 -446 261 1177 0
134 -117 209 1178 0
-289 271 351 1179 0
-395 117 432 1180 0
328 285 23 1181 0
206 259 303 1182 0
-498 29 -428 1183 0
108 -103 232 1184 0
165 -233 -82 1185 0
-102 -149 -96 1186 0
3 180 420 1187 0
394 497 261 1188 0
15 -335 364 1189 0
-376 -363 339 1190 0
49 77 -81 1191 0
403 -36 -399 1192 0
-30 479 -21 1193 0
-401 391 -124 1194 0
47 168 -234 1195 0
-366 -156 313 1196 0
28 427 392 1197 0
159 -151 -279 1198 0
-499 -265 7 1199 0
227 -151 -186 1200 0
-257 -457 265 1201 0
-238 137 -405 1202 0
-28 3 -43 1203 0
-101 -211 -455 1204 0
336 158 110 1205 0
355 413 300 1206 0
133 356 -67 1207 0
401 -222 -282 1208 0
-248 -113 460 1209 0
-340 398 -22 1210 0
-306 395 -93 1211 0
-420 405 117 1212 0
27 474 -207 1213 0
50 316 -47 1214 0
-112 412 415 1215 0
449 263 -25 1216 0
-457 -214 160 1217 0
-46 35 396 1218 0
-220 204 -28 1219 0
-476 124 210 1220 0
255 -280 -260 1221 0
6 470 286 1222 0
-92 -74 167 1223 0
-43 10 -212 1224 0
-372 -400 -120 1225 0
250 -201 153 1226 0
-32 488 -47 1227 0
-491 -307 -70 1228 0
-17 -175 106 1229 0
-129 -401 -433 1230 0
411 265 344 1231 0
57 -79 -234 1232 0
-9 -228 208 1233 0
-289 192 -50 1234 0
-204 9 398 1235 0
-47 285 -9 1236 0
-56 -268 -179 1237 0
395 -26 -331 1238 0
230 -32 370 1239 0
42 454 -265 1240 0
-108 336 -129 1241 0
-173 329 -69 1242 0
-136 -27 309 1243 0
-194 -28 -205 1244 0
-220 -126 -100 1245 0
172 488 407 1246 0
366 -126 -107 1247 0
485 -82 161 1248 0
-122 182 -290 1249 0
178 476 422 1250 0
116 -460 113 1251 0
-156 -368 -45 1252 0
-30 -385 44 1253 0
113 -68 329 1254 0
-113 -418 364 1255 0
-279 -317 410 1256 0
4 165 328 1257 0
-221 464 119 1258 0
-69 -37 -333 1259 0
60 -365 -456 1260 0
-466 493 -58 1261 0
355 -2 -156 1262 0
-80 -485 -365 1263 0
357 4 500 1264 0
483 478 -200 1265 0
-343 -62 -238 1266 0
382 413 -350 1267 0
228 209 -113 1268 0
452 -72 -206 1269 0
436 87 -18 1270 0
-369 -213 -399 1271 0
-454 194 187 1272 0
-43 -63 415 1273 0
-331 1 300 1274 0
132 -198 395 1275 0
387 -301 -253 1276 0
397 -165 -437 1277 0
265 -475 -195 1278 0
-471 295 -21 1279 0
162 311 -337 1280 0
494 438 43 1281 0
160 221 197 1282 0
-148 284 126 1283 0
330 84 263 1284 0
474 203 -362 1285 0
-46 472 -276 1286 0
288 -119 -391 1287 0
472 244 -489 1288 0
-188 -367 162 1289 0
-446 -92 459 1290 0
340 -34 -476 1291 0
476 -175 70 1292 0
-331 367 178 1293 0
157 -384 -4 1294 0
277 -26 -443 1295 0
-30 -348 394 1296 0
-243 -375 117 1297 0
32 228 -19 1298 0
387 -143 -488 1299 0
-291 -32 -143 1300 0
336 190 57 1301 0
325 90 48 1302 0
-478 -113 309 1303 0
421 -407 -418 1304 0
-95 -318 18 1305 0
-459 -304 -490 1306 0
406 432 79 1307 0
-15 384 135 1308 0
-376 172 -287 1309 0
-211 436 59 1310 0
8 179 -313 1311 0
267 98 319 1312 0
-468 46 37 1313 0
-433 -24 -161 1314 0
497 468 -171 1315 0
-373 -474 291 1316 0
-182 166 -353 1317 0
310 -48 -468 1318 0
-26 -326 -401 1319 0
-301 -123 219 1320 0
325 324 -258 1321 0
-434 79 354 1322 0
-44 292 410 1323 0
23 277 -263 1324 0
259 448 374 1325 0
321 -424 -9 1326 0
435 79 -499 1327 0
-349 -300 384 1328 0
-289 362 10 1329 0
-106 -248 418 1330 0
447 338 389 1331 0
77 393 326 1332 0
-353 -103 328 1333 0
-318 -463 211 1334 0
475 315 -439 1335 0
-299 40 -265 1336 0
431 -455 -213 1337 0
34 3 45 1338 0
-287 -397 253 1339 0
134 5 -243 1340 0
190 -144 -451 1341 0
395 172 428 1342 0
103 202 -342 1343 0
-7 -169 -25 1344 0
-95 304 407 1345 0
161 -245 376 1346 0
-48 -109 -334 1347 0
-218 16 -153 1348 0
313 267 -113 1349 0
-465 -156 104 1350 0
-381 330 -248 1351 0
267 9 218 1352 0
-462 -366 -147 1353 0
324 -392 -311 1354 0
-29 -111 250 1355 0
-41 -98 23 1356 0
-315 112 133 1357 0
125 -285 -324 1358 0
330 318 -409 1359 0
-399 -126 101 1360 0
148 -342 -48 1361 0
-119 -315 -134 1362 0
-95 432 370 1363 0
-315 91 142 1364 0
-478 301 -240 1365 0
-31 -288 -347 1366 0
-282 427 117 1367 0
-98 -386 -408 1368 0
-9 425 377 1369 0
223 76 494 1370 0
-23 392 187 1371 0
421 -247 -132 1372 0
-240 -300 -480 1373 0
125 -448 -417 1374 0
-116 165 -171 1375 0
493 307 -208 1376 0
141 322 -342 1377 0
395 -3 431 1378 0
186 -405 353 1379 0
218 19 131 1380 0
85 88 240 1381 0
-71 -234 136 1382 0
-215 -476 297 1383 0
336 263 496 1384 0
88 -380 -443 1385 0
-342 -40 300 1386 0
401 -43 117 1387 0
99 -270 -46 1388 0
485 -4 106 1389 0
-480 -130 279 1390 0
111 -439 -155 1391 0
437 -407 430 1392 0
137 -33 337 1393 0
394 -307 -318 1394 0
-179 -450 11 1395 0
495 -302 84 1396 0
475 -237 428 1397 0
-400 -210 -468 1398 0
406 103 465 1399 0
-329 -273 -48 1400 0
-151 -374 423 1401 0
-66 226 495 1402 0
-192 -371 -57 1403 0
-85 -23 -385 1404 0
249 177 -85 1405 0
-351 -181 48 1406 0
-82 -113 450 1407 0
190 -398 -28 1408 0
434 -26 408 1409 0
-462 419 -366 1410 0
422 161 -474 1411 0
156 -472 455 1412 0
-471 -204 271 1413 0
-243 -418 276 1414 0
140 -284 -110 1415 0
311 -307 -37 1416 0
224 -475 -128 1417 0
6 393 -271 1418 0
258 388 14 1419 0
419 -352 316 1420 0
334 -290 -2 1421 0
450 -147 218 1422 0
-54 -492 38 1423 0
-249 179 455 1424 0
-103 -118 370 1425 0
99 142 -187 1426 0
19 -424 429 1427 0
-290 -64 38 1428 0
23 -58 336 1429 0
-152 -272 -36 1430 0
244 184 411 1431 0
237 -190 -172 1432 0
-43 -78 498 1433 0
98 -349 453 1434 0
330 164 374 1435 0
-71 -409 -460 1436 0
-230 481 -409 1437 0
138 -269 -444 1438 0
-122 109 -486 1439 0
424 -176 -349 1440 0
-481 -340 433 1441 0
-156 1 479 1442 0
101 200 -315 1443 0
-296 -164 -131 1444 0
-236 -428 -421 1445 0
46 298 -367 1446 0
-308 368 -468 1447 0
-33 28 239 1448 0
188 -264 -206 1449 0
9 446 275 1450 0
-20 107 344 1451 0
472 -98 -480 1452 0
-39 421 261 1453 0
488 -321 -42 1454 0
-194 215 465 1455 0
-94 -319 -492 1456 0
-418 128 242 1457 0
-89 -447 4 1458 0
-266 432 -68 1459 0
353 -318 -269 1460 0
404 -95 -312 1461 0
130 -434 -155 1462 0
-14 326 -362 1463 0
277 -189 126 1464 0
257 77 -51 1465 0
-9 10 -312 1466 0
-40 -150 -187 1467 0
-385 -210 -63 1468 0
-308 255 34 1469 0
-244 -393 17 1470 0
-77 186 346 1471 0
-499 -113 265 1472 0
-210 -491 500 1473 0
-45 -81 -463 1474 0
76 469 -86 1475 0
139 -399 -342 1476 0
463 160 421 1477 0
-360 359 57 1478 0
244 -47 -452 1479 0
-296 -46 -100 1480 0
352 130 -245 1481 0
378 274 -114 1482 0
81 439 -376 1483 0
310 52 173 1484 0
124 -458 -476 1485 0
-232 -311 404 1486 0
426 -131 -57 1487 0
-244 332 474 1488 0
188 -289 251 1489 0
-444 35 -20 1490 0
21 -338 45 1491 0
441 -133 -384 1492 0
-443 -350 128 1493 0
283 480 -171 1494 0
-454 286 431 1495 0
396 392 92 1496 0
272 381 198 1497 0
417 -488 305 1498 0
118 -7 408 1499 0
224 387 -376 1500 0
319 199 387 1501 0
333 319 -255 1502 0
62 66 330 1503 0
121 170 -463 1504 0
-455 305 -177 1505 0
-11 377 131 1506 0
288 -92 16 1507 0
-452 165 -10 1508 0
-492 214 317 1509 0
211 122 86 1510 0
98 -372 321 1511 0
-243 291 56 1512 0
-314 79 -375 1513 0
315 229 391 1514 0
-310 -190 119 1515 0
174 -98 -366 1516 0
-436 247 -32 1517 0
43 83 311 1518 0
395 -261 266 1519 0
56 -485 -287 1520 0
-316 -232 -142 1521 0
-428 -122 33 1522 0
368 -36 -273 1523 0
63 125 -418 1524 0
140 -290 213 1525 0
-298 76 161 1526 0
-140 500 -94 1527 0
462 -38 -419 1528 0
479 -394 330 1529 0
163 -151 -96 1530 0
274 -403 431 1531 0
446 392 -312 1532 0
-441 32 7 1533 0
219 -244 344 1534 0
-81 -433 476 1535 0
426 256 -260 1536 0
345 -302 140 1537 0
-365 -250 -385 1538 0
-233 -362 298 1539 0
272 130 -5 1540 0
-26 -110 -203 1541 0
-432 63 103 1542 0
-1 -291 -139 1543 0
267 412 245 1544 0
-303 -38 -285 1545 0
-84 306 254 1546 0
103 85 48 1547 0
-357 -62 -180 1548 0
428 -42 431 1549 0
64 300 -489 1550 0
-65 -257 -22 1551 0
-383 33 -403 1552 0
-255 -404 27 1553 0
-343 313 106 1554 0
-313 -174 -447 1555 0
54 -194 -365 1556 0
-247 167 -335 1557 0
104 -323 53 1558 0
43 -291 341 1559 0
-414 -381 119 1560 0
-297 328 178 1561 0
10 112 260 1562 0
286 -412 374 1563 0
272 360 -393 1564 0
-65 -441 -42 1565 0
-367 -85 -231 1566 0
401 -60 132 1567 0
199 300 460 1568 0
328 73 -406 1569 0
-219 170 -353 1570 0
72 58 123 1571 0
78 -128 -51 1572 0
-95 -164 260 1573 0
426 -362 -397 1574 0
-483 258 -113 1575 0
434 241 -17 1576 0
241 356 113 1577 0
347 -375 -376 1578 0
-208 -287 260 1579 0
24 494 370 1580 0
-385 -218 -240 1581 0
152 417 -337 1582 0
436 446 -242 1583 0
121 408 164 1584 0
349 289 -363 1585 0
-461 -143 -325 1586 0
-291 -400 -345 1587 0
198 185 -280 1588 0
-222 -456 -194 1589 0
-361 122 -181 1590 0
-169 136 -414 1591 0
94 -180 -246 1592 0
-38 -139 61 1593 0
-313 157 35 1594 0
259 367 442 1595 0
297 -311 -96 1596 0
31 323 277 1597 0
105 317 -49 1598 0
-128 -342 254 1599 0
338 312 258 1600 0
122 -178 -464 1601 0
86 345 -429 1602 0
-445 -319 391 1603 0
215 -150 -438 1604 0
-415 254 -455 1605 0
252 -473 112 1606 0
-255 -252 176 1607 0
406 366 -474 1608 0
234 177 295 1609 0
210 -84 -362 1610 0
-377 -281 -273 1611 0
-250 210 182 1612 0
-1 7 264 1613 0
123 201 250 1614 0
-408 -145 -14 1615 0
-56 1 -340 1616 0
416 256 -146 1617 0
-357 -338 -465 1618 0
116 343 338 1619 0
-243 156 -13 1620 0
299 15 -95 1621 0
-20 -331 -335 1622 0
-475 97 -106 1623 0
113 279 -39 1624 0
-21 -387 89 1625 0
-152 -422 -421 1626 0
-63 -487 235 1627 0
470 -186 -46 1628 0
113 473 218 1629 0
155 -321 -300 1630 0
-492 307 320 1631 0
284 268 -451 1632 0
-93 14 -480 1633 0
250 389 -348 1634 0
-498 -186 -397 1635 0
-194 -490 -76 1636 0
148 117 -169 1637 0
-207 -374 -369 1638 0
-87 -21 166 1639 0
-45 193 -323 1640 0
-102 -12 143 1641 0
187 -59 -459 1642 0
268 457 -465 1643 0
486 372 183 1644 0
-151 -247 -371 1645 0
221 -392 -448 1646 0
-204 -272 -74 1647 0
-72 -408 -239 1648 0
449 219 16 1649 0
159 360 278 1650 0
118 -287 111 1651 0
486 34 -305 1652 0
150 -354 165 1653 0
-255 -134 -403 1654 0
81 -426 -30 1655 0
334 491 -246 1656 0
413 -437 364 1657 0
4 122 341 1658 0
-415 77 178 1659 0
12 283 -182 1660 0
-283 -310 -109 1661 0
167 -131 96 1662 0
466 318 112 1663 0
282 -408 298 1664 0
498 -218 -275 1665 0
122 -334 -53 1666 0
201 49 216 1667 0
-117 347 380 1668 0
-295 -355 -413 1669 0
-102 364 -209 1670 0
219 182 -475 1671 0
-499 450 -2 1672 0
-479 208 -159 1673 0
143 -288 -188 1674 0
68 331 366 1675 0
463 -288 -395 1676 0
380 200 23 1677 0
-392 -42 -286 1678 0
128 -445 -307 1679 0
-94 137 271 1680 0
-460 -216 -491 1681 0
90 -371 -477 1682 0
-435 -296 453 1683 0
263 -308 -225 1684 0
60 178 202 1685 0
67 450 -417 1686 0
5 173 23 1687 0
169 181 413 1688 0
-124 241 483 1689 0
-258 264 -95 1690 0
471 19 140 1691 0
-446 -191 183 1692 0
213 180 370 1693 0
-279 129 306 1694 0
97 468 63 1695 0
-115 376 -222 1696 0
-313 -34 -154 1697 0
-350 375 -104 1698 0
-220 -182 117 1699 0
-394 309 87 1700 0
-457 -239 -284 1701 0
-208 289 128 1702 0
410 241 -193 1703 0
-328 237 378 1704 0
273 -124 90 1705 0
57 462 104 1706 0
166 242 -266 1707 0
-233 -463 -25 1708 0
-194 -366 -320 1709 0
-142 393 -355 1710 0
265 -477 -103 1711 0
-393 57 -467 1712 0
-367 355 257 1713 0
192 -5 -468 1714 0
-273 84 56 1715 0
402 -322 279 1716 0
-319 479 -70 1717 0
297 314 305 1718 0
-358 232 -215 1719 0
495 379 63 1720 0
392 58 123 1721 0
-309 -115 208 1722 0
-469 -384 -218 1723 0
294 -362 332 1724 0
179 -70 101 1725 0
-265 299 -10 1726 0
362 165 -133 1727 0
-383 -251 -178 1728 0
-486 36 8 1729 0
156 158 398 1730 0
159 -328 17 1731 0
-325 -157 472 1732 0
150 85 -470 1733 0
439 62 -9 1734 0
64 -463 384 1735 0
-286 465 -128 1736 0
268 323 91 1737 0
447 -360 195 1738 0
-346 233 190 1739 0
323 -263 -409 1740 0
189 484 -298 1741 0
-315 -374 341 1742 0
449 -234 406 1743 0
253 329 243 1744 0
213 267 196 1745 0
325 -75 113 1746 0
339 -215 78 1747 0
20 298 341 1748 0
258 148 -321 1749 0
83 457 442 1750 0
-8 164 408 1751 0
280 -471 289 1752 0
299 -139 -36 1753 0
-264 351 342 1754 0
-171 -80 -217 1755 0
490 -367 19 1756 0
257 -183 -164 1757 0
116 -493 -236 1758 0
363 490 -73 1759 0
412 -500 -411 1760 0
-101 -447 -161 1761 0
198 -352 345 1762 0
-478 433 11 1763 0
-249 -196 230 1764 0
116 194 -34 1765 0
-142 -205 478 1766 0
133 -183 471 1767 0
68 340 -498 1768 0
323 -68 -134 1769 0
-426 46 412 1770 0
378 249 -479 1771 0
93 -79 177 1772 0
-121 -262 -256 1773 0
-262 156 -489 1774 0
-447 33 486 1775 0
421 -134 -345 1776 0
481 494 252 1777 0
18 -32 62 1778 0
-416 -54 316 1779 0
290 -160 -494 1780 0
202 155 -63 1781 0
191 24 -56 1782 0
189 -122 -207 1783 0
460 211 347 1784 0
-94 -474 410 1785 0
-281 156 -40 1786 0
387 -397 -310 1787 0
498 -467 -122 1788 0
443 -119 363 1789 0
-216 177 -102 1790 0
74 -482 435 1791 0
-131 107 410 1792 0
-429 -112 457 1793 0
-342 -53 6 1794 0
128 -213 459 1795 0
-17 312 204 1796 0
-447 194 -252 1797 0
443 -299 -96 1798 0
243 171 -100 1799 0
440 -453 312 1800 0
-164 -370 -456 1801 0
447 -44 -52 1802 0
-413 65 445 1803 0
-410 -495 60 1804 0
-167 341 405 1805 0
392 266 -93 1806 0
-351 214 -452 1807 0
-70 349 85 1808 0
-189 23 314 1809 0
-48 -14 478 1810 0
322 -343 -500 1811 0
487 228 120 1812 0
51 -234 230 1813 0
-478 406 37 1814 0
350 272 -34 1815 0
189 -417 358 1816 0
201 244 -411 1817 0
-362 236 137 1818 0
-150 -398 -25 1819 0
61 -65 -450 1820 0
-284 83 250 1821 0
170 464 472 1822 0
-406 176 -489 1823 0
80 306 -411 1824 0
-294 -348 -413 1825 0
-119 75 99 1826 0
486 58 494 1827 0
437 229 -81 1828 0
361 -343 -403 1829 0
-118 410 238 1830 0
-215 -319 371 1831 0
391 -203 -96 1832 0
190 300 -140 1833 0
-100 -405 432 1834 0
3 22 263 1835 0
348 -489 327 1836 0
157 -382 312 1837 0
1 245 -161 1838 0
402 -324 72 1839 0
467 -147 207 1840 0
-57 474 -316 1841 0
149 -470 337 1842 0
-193 -324 -57 1843 0
457 441 -62 1844 0
498 -50 386 1845 0
-29 49 -254 1846 0
-285 246 -32 1847 0
-483 374 -93 1848 0
-358 -378 351 1849 0
110 -426 100 1850 0
445 104 -285 1851 0
172 -463 -484 1852 0
-381 -87 -200 1853 0
-491 86 109 1854 0
303 77 327 1855 0
346 145 -362 1856 0
399 487 221 1857 0
-348 -42 -310 1858 0
36 -58 -429 1859 0
466 396 -319 1860 0
-243 39 299 1861 0
-314 -281 296 1862 0
63 -113 -394 1863 0
-294 -160 42 1864 0
-414 7 24 1865 0
34 -92 -302 1866 0
-357 156 -39 1867 0
-493 499 75 1868 0
-381 33 122 1869 0
-212 329 -250 1870 0
-114 232 -371 1871 0
61 318 414 1872 0
-47 9 -405 1873 0
-258 -431 392 1874 0
176 140 -187 1875 0
-242 75 -285 1876 0
-391 441 228 1877 0
-324 -483 -327 1878 0
100 123 412 1879 0
205 171 152 1880 0
380 -342 -175 1881 0
48 -202 -149 1882 0
132 -351 149 1883 0
113 -30 388 1884 0
-383 473 -61 1885 0
-278 350 -306 1886 0
9 97 -489 1887 0
-187 -419 -206 1888 0
-87 -498 -269 1889 0
-214 449 144 1890 0
15 31 445 1891 0
-90 -491 464 1892 0
-418 -135 186 1893 0
-492 -401 -431 1894 0
187 -188 -447 1895 0
-191 -479 343 1896 0
-212 -48 -54 1897 0
326 -102 207 1898 0
-39 -410 -475 1899 0
63 -248 -111 1900 0
-496 -146 -170 1901 0
351 -449 20 1902 0
381 467 25 1903 0
329 -336 -479 1904 0
-181 405 57 1905 0
-302 360 -220 1906 0
320 -276 -452 1907 0
167 -482 -27 1908 0
421 428 -257 1909 0
-24 -56 462 1910 0
-417 422 -395 1911 0
-355 -121 -243 1912 0
-186 85 -294 1913 0
356 288 343 1914 0
468 104 -126 1915 0
-107 -398 -194 1916 0
416 -181 -94 1917 0
321 65 467 1918 0
-126 -329 441 1919 0
424 -172 -136 1920 0
276 -331 -283 1921 0
-490 21 239 1922 0
-341 27 -184 1923 0
184 -247 238 1924 0
-266 276 -301 1925 0
-267 -383 -179 1926 0
-275 491 128 1927 0
301 -290 187 1928 0
-263 244 499 1929 0
-261 -52 -488 1930 0
296 -58 -283 1931 0
-112 458 187 1932 0
-328 46 332 1933 0
-168 -12 229 1934 0
239 359 219 1935 0
-360 50 -173 1936 0
-488 -457 -354 1937 0
-302 -350 174 1938 0
-252 320 157 1939 0
-345 -176 -452 1940 0
340 -120 -145 1941 0
-175 359 -479 1942 0
-61 460 -442 1943 0
-22 -78 -136 1944 0
201 -112 -376 1945 0
-123 -146 78 1946 0
335 56 -330 1947 0
300 114 325 1948 0
199 432 -63 1949 0
-100 364 -234 1950 0
382 -339 95 1951 0
388 -370 363 1952 0
298 160 -497 1953 0
165 -406 -291 1954 0
-427 -236 -353 1955 0
153 -325 346 1956 0
-403 114 341 1957 0
-470 151 176 1958 0
64 324 -326 1959 0
63 376 -34 1960 0
-434 422 -448 1961 0
-184 119 -52 1962 0
-298 134 -118 1963 0
242 -316 152 1964 0
-348 -214 421 1965 0
215 -6 244 1966 0
-89 224 135 1967 0
-19 122 229 1968 0
-392 83 -433 1969 0
-487 -143 -316 1970 0
-29 -470 144 1971 0
160 262 -244 1972 0
-356 -305 363 1973 0
-441 79 -374 1974 0
186 353 -127 1975 0
-465 17 -285 1976 0
233 136 496 1977 0
-160 108 354 1978 0
-406 444 197 1979 0
-103 -200 -402 1980 0
-342 -195 92 1981 0
147 -63 -393 1982 0
297 262 -123 1983 0
413 465 88 1984 0
-322 -100 44 1985 0
-274 -411 -371 1986 0
224 42 -260 1987 0
332 25 8 1988 0
12 152 465 1989 0
-125 298 -258 1990 0
477 -51 450 1991 0
-290 -232 -189 1992 0
177 -128 300 1993 0
-230 136 -295 1994 0
275 323 405 1995 0
-242 466 -299 1996 0
353 -4 37 1997 0
-130 -185 -437 1998 0
154 459 315 1999 0
253 -69 -71 2000 0
-446 167 261 2001 0
-237 -346 276 2002 0
58 -344 32 2003 0
-387 -122 211 2004 0
-3 321 9 2005 0
420 418 317 2006 0
-107 316 -431 2007 0
-151 -453 -272 2008 0
465 218 -489 2009 0
-141 -369 292 2010 0
-299 430 197 2011 0
-108 388 122 2012 0
29 385 -360 2013 0
294 445 -348 2014 0
218 -37 -293 2015 0
385 -58 33 2016 0
14 -466 45 2017 0
427 -190 -36 2018 0
-37 23 -269 2019 0
73 136 -373 2020 0
95 -36 -190 2021 0
-259 -362 -292 2022 0
-23 -89 378 2023 0
-425 229 -247 2024 0
449 -260 178 2025 0
-332 239 -225 2026 0
275 21 -476 2027 0
-490 -102 -216 2028 0
-431 -86 -378 2029 0
-452 -120 232 2030 0
-152 -436 274 2031 0
-291 -389 364 2032 0
-348 -5 407 2033 0
173 205 -355 2034 0
244 320 -496 2035 0
297 -389 -237 2036 0
-196 -239 -485 2037 0
449 446 441 2038 0
201 -441 345 2039 0
-244 -120 -409 2040 0
-269 -105 -21 2041 0
-43 24 178 2042 0
-439 309 30 2043 0
111 -168 27 2044 0
-109 488 266 2045 0
-312 147 -440 2046 0
269 340 119 2047 0
301 47 120 2048 0
106 -440 335 2049 0
-236 -474 -62 2050 0
155 -51 -458 2051 0
297 -291 -491 2052 0
-135 249 -19 2053 0
-465 -306 62 2054 0
15 146 -229 2055 0
-389 -73 5 2056 0
134 -241 -199 2057 0
-128 -157 138 2058 0
-392 -492 -166 2059 0
-199 -485 -459 2060 0
349 -373 487 2061 0
423 199 -356 2062 0
-111 207 -169 2063 0
-361 -250 493 2064 0
-73 102 361 2065 0
-205 161 422 2066 0
111 319 8 2067 0
222 -468 -455 2068 0
-275 -450 23 2069 0
-442 -143 234 2070 0
76 495 372 2071 0
-85 190 466 2072 0
495 -434 -281 2073 0
314 -404 38 2074 0
125 243 221 2075 0
209 -71 -487 2076 0
-361 -455 -216 2077 0
17 367 -177 2078 0
231 94 -204 2079 0
-238 44 18 2080 0
379 84 426 2081 0
-366 -493 -423 2082 0
-469 -277 -224 2083 0
-164 54 -467 2084 0
435 119 -184 2085 0
167 -456 -104 2086 0
20 -405 -153 2087 0
-217 -451 419 2088 0
337 84 302 2089 0
494 421 31 2090 0
447 -438 -418 2091 0
-260 51 407 2092 0
-99 -188 29 2093 0
-385 190 172 2094 0
-465 228 -405 2095 0
11 -128 -234 2096 0
-492 -285 -406 2097 0
-232 124 427 2098 0
-448 429 313 2099 0
-102 -109 -169 2100 0
199 473 135 2101 0
251 -64 -281 2102 0
-17 -284 490 2103 0
-112 281 -109 2104 0
-94 474 -322 2105 0
-130 -28 -223 2106 0
-209 289 -24 2107 0
-374 164 110 2108 0
-496 130 -411 2109 0
-212 -45 -29 2110 0
-165 424 123 2111 0
262 161 -357 2112 0
-282 297 134 2113 0
320 305 -272 2114 0
-150 76 122 2115 0
-142 18 208 2116 0
70 -83 236 2117 0
289 459 -342 2118 0
304 389 445 2119 0
-361 -186 271 2120 0
297 -193 -379 2121 0
-477 89 -447 2122 0
-437 47 325 2123 0
-50 -243 -196 2124 0
-151 259 194 2125 0
-455 -94 386 2126 0
277 55 371 2127 0
465 316 228 2128 0
-108 205 419 2129 0
-337 -281 -27 2130 0
-49 -393 360 2131 0
24 -409 261 2132 0
-212 -49 -54 2133 0
-192 -17 404 2134 0
403 160 -489 2135 0
-10 -64 -29 2136 0
186 -87 -218 2137 0
168 -74 -454 2138 0
-404 439 -398 2139 0
-389 -487 372 2140 0
80 -397 277 2141 0
71 -309 245 2142 0
379 202 238 2143 0
345 444 -16 2144 0
83 -476 -481 2145 0
76 -276 128 2146 0
92 461 -285 2147 0
-98 -432 186 2148 0
-408 375 -281 2149 0
-156 466 -338 2150 0
295 -240 -138 2151 0
-197 160 481 2152 0
-272 -469 210 2153 0
57 -290 -86 2154 0
-132 -29 -413 2155 0
-392 -270 332 2156 0
-56 67 -46 2157 0
312 -47 -434 2158 0
-204 315 373 2159 0
402 204 46 2160 0
446 -365 -49 2161 0
-137 37 -312 2162 0
-255 -291 413 2163 0
123 -173 -252 2164 0
321 -164 -336 2165 0
-255 394 67 2166 0
323 70 185 2167 0
491 189 -58 2168 0
-348 -47 482 2169 0
-159 67 452 2170 0
-135 -176 -395 2171 0
-411 -177 -462 2172 0
469 425 127 2173 0
140 -166 -334 2174 0
-315 36 162 2175 0
59 -321 282 2176 0
188 -398 -92 2177 0
175 487 -12 2178 0
-2 246 99 2179 0
268 91 297 2180 0
-440 85 441 2181 0
410 386 72 2182 0
-274 258 79 2183 0
163 230 203 2184 0
286 -461 487 2185 0
253 -244 435 2186 0
-388 85 406 2187 0
294 -355 -106 2188 0
402 -258 485 2189 0
384 345 394 2190 0
-286 -168 434 2191 0
105 -93 -236 2192 0
-244 199 -327 2193 0
-15 376 386 2194 0
-231 59 -160 2195 0
351 218 -209 2196 0
137 433 40 2197 0
-65 219 -89 2198 0
487 -138 -82 2199 0
-382 -442 -55 2200 0
250 110 -111 2201 0
93 -165 -21 2202 0
-280 -58 84 2203 0
266 45 77 2204 0
-134 -12 -493 2205 0
199 368 196 2206 0
-394 -249 224 2207 0
-354 -276 118 2208 0
13 462 225 2209 0
359 398 -251 2210 0
336 -406 -430 2211 0
59 -477 -351 2212 0
455 22 -102 2213 0
321 448 -44 2214 0
303 -458 -353 2215 0
207 -178 -330 2216 0
80 148 -265 2217 0
-351 -445 -222 2218 0
-256 -425 -456 2219 0
407 16 212 2220 0
-201 286 411 2221 0
-402 414 80 2222 0
372 254 -196 2223 0
452 148 275 2224 0
445 -473 -353 2225 0
-291 -288 -418 2226 0
179 -17 212 2227 0
-243 -89 -149 2228 0
100 -443 204 2229 0
-175 -59 386 2230 0
-363 199 -131 2231 0
-249 253 439 2232 0
-209 -273 437 2233 0
202 22 18 2234 0
-296 -387 113 2235 0
425 -51 -484 2236 0
-346 33 157 2237 0
276 11 -239 2238 0
-70 -192 68 2239 0
-326 214 -192 2240 0
-125 221 -269 2241 0
-200 -323 218 2242 0
181 -340 -467 2243 0
-195 -268 104 2244 0
-482 325 -16 2245 0
-357 -311 250 2246 0
-180 125 320 2247 0
-399 -183 -10 2248 0
45 86 378 2249 0
-35 397 466 2250 0
-329 402 -283 2251 0
-123 -340 -478 2252 0
421 -163 35 2253 0
-235 474 220 2254 0
-350 326 24 2255 0
-45 -338 222 2256 0
-137 -364 153 2257 0
-299 143 -178 2258 0
243 -134 -267 2259 0
233 -356 -69 2260 0
474 -24 -332 2261 0
-324 73 476 2262 0
-108 -63 95 2263 0
-377 389 -466 2264 0
84 174 204 2265 0
-405 203 482 2266 0
410 -130 397 2267 0
-55 76 81 2268 0
221 -204 -179 2269 0
206 272 349 2270 0
-415 43 -56 2271 0
-473 389 -243 2272 0
-126 -356 267 2273 0
397 -293 -244 2274 0
402 377 352 2275 0
-459 -52 263 2276 0
-167 -115 65 2277 0
-416 255 -283 2278 0
-295 -34 -458 2279 0
-330 369 465 2280 0
477 34 8 2281 0
65 -455 -177 2282 0
-316 483 -406 2283 0
-138 -160 -311 2284 0
-420 248 -297 2285 0
326 5 -108 2286 0
489 -218 98 2287 0
-68 -126 -447 2288 0
192 143 -376 2289 0
174 -160 107 2290 0
247 -472 -393 2291 0
115 -104 60 2292 0
164 -61 116 2293 0
377 -308 -206 2294 0
-197 37 -194 2295 0
19 -493 154 2296 0
-5 327 -195 2297 0
-321 121 -415 2298 0
260 -62 96 2299 0
-8 44 19 2300 0
429 -446 368 2301 0
259 405 375 2302 0
44 -10 129 2303 0
460 -280 378 2304 0
-265 105 -351 2305 0
415 486 206 2306 0
-397 -2 304 2307 0
-331 53 498 2308 0
-142 -420 -321 2309 0
-155 -241 -389 2310 0
183 97 306 2311 0
311 -495 203 2312 0
-403 38 10 2313 0
6 -413 -352 2314 0
-361 47 52 2315 0
-363 -448 410 2316 0
73 192 247 2317 0
225 -456 -134 2318 0
1 90 273 2319 0
-136 -174 -165 2320 0
141 -315 -161 2321 0
204 188 -447 2322 0
-155 360 -408 2323 0
-56 -247 418 2324 0
405 -124 327 2325 0
-38 -416 198 2326 0
338 192 138 2327 0
-301 -393 410 2328 0
3 356 442 2329 0
-252 421 275 2330 0
-36 404 -285 2331 0
106 -155 248 2332 0
-56 72 -387 2333 0
-236 -460 -208 2334 0
317 -295 27 2335 0
222 61 453 2336 0
-136 385 292 2337 0
328 17 479 2338 0
339 -23 -454 2339 0
-240 63 -419 2340 0
-232 -277 194 2341 0
184 -477 -324 2342 0
437 338 -8 2343 0
-199 470 242 2344 0
207 405 177 2345 0
218 -153 -52 2346 0
-341 -300 -208 2347 0
-132 -297 -239 2348 0
130 -320 -227 2349 0
-444 290 -184 2350 0
219 -302 415 2351 0
411 196 -453 2352 0
297 -173 -458 2353 0
-338 477 -426 2354 0
-402 -401 494 2355 0
-281 178 211 2356 0
292 -62 215 2357 0
428 436 293 2358 0
55 -205 240 2359 0
16 298 -341 2360 0
-351 -108 333 2361 0
-86 179 175 2362 0
-52 -177 -129 2363 0
109 436 -129 2364 0
-195 -145 284 2365 0
-278 -56 -478 2366 0
94 -178 -143 2367 0
-114 -341 164 2368 0
152 -373 54 2369 0
418 341 -333 2370 0
106 -216 -166 2371 0
92 -149 -359 2372 0
-82 476 253 2373 0
-388 -462 -30 2374 0
-291 -472 -267 2375 0
-130 -18 -438 2376 0
419 -251 -279 2377 0
371 293 492 2378 0
-256 -251 -330 2379 0
-310 340 245 2380 0
-321 140 214 2381 0
-282 -405 293 2382 0
85 290 371 2383 0
23 -292 -146 2384 0
52 -466 -421 2385 0
185 -42 -344 2386 0
319 130 87 2387 0
260 -3 104 2388 0
-93 -340 -373 2389 0
262 497 -411 2390 0
-410 -250 -187 2391 0
-294 92 91 2392 0
-398 118 189 2393 0
-297 -59 301 2394 0
-466 -436 -430 2395 0
-191 371 55 2396 0
-342 -177 395 2397 0
-103 277 85 2398 0
220 385 -492 2399 0
-295 233 417 2400 0
-21 452 409 2401 0
-289 -307 -437 2402 0
-256 -274 199 2403 0
-104 74 356 2404 0
318 211 -180 2405 0
-143 375 -275 2406 0
368 -460 -489 2407 0
401 153 -93 2408 0
403 414 2 2409 0
-145 -352 130 2410 0
-391 -289 -250 2411 0
-52 415 338 2412 0
366 -35 -361 2413 0
87 371 -22 2414 0
187 -156 -242 2415 0
480 82 -88 2416 0
-18 44 256 2417 0
399 66 455 2418 0
248 -270 87 2419 0
-359 165 255 2420 0
-15 113 497 2421 0
303 331 -313 2422 0
303 384 375 2423 0
376 -60 100 2424 0
81 118 212 2425 0
-218 -338 70 2426 0
439 123 323 2427 0
-270 -309 -220 2428 0
23 80 -41 2429 0
-217 -192 255 2430 0
-210 374 61 2431 0
-437 179 -122 2432 0
-346 170 -223 2433 0
-144 -89 -335 2434 0
203 -129 -186 2435 0
-275 452 -151 2436 0
-189 137 -285 2437 0
183 424 367 2438 0
-325 -69 16 2439 0
-41 -330 -16 2440 0
325 -121 -246 2441 0
-55 40 -390 2442 0
63 -481 -290 2443 0
-432 330 -496 2444 0
-75 17 -88 2445 0
394 -248 -243 2446 0
-15 243 481 2447 0
494 -478 105 2448 0
-28 256 -429 2449 0
-375 165 181 2450 0
-498 163 435 2451 0
112 -211 -138 2452 0
-231 -144 -371 2453 0
-398 267 -93 2454 0
-254 -201 277 2455 0
448 -58 -102 2456 0
-150 -336 414 2457 0
-351 -404 -299 2458 0
-333 71 -337 2459 0
-303 -135 -157 2460 0
331 51 -221 2461 0
158 92 -100 2462 0
-306 197 -352 2463 0
-475 -2 -359 2464 0
353 -279 261 2465 0
376 109 -164 2466 0
135 -39 141 2467 0
-67 209 169 2468 0
-253 308 334 2469 0
-475 393 160 2470 0
325 -161 -305 2471 0
-340 -137 -380 2472 0
-187 167 -314 2473 0
-81 500 -322 2474 0
273 -339 275 2475 0
-194 352 -282 2476 0
-124 -333 475 2477 0
-394 -433 -351 2478 0
-173 -428 263 2479 0
-275 301 389 2480 0
-474 336 -214 2481 0
-6 191 76 2482 0
148 95 212 2483 0
-346 96 222 2484 0
276 -157 84 2485 0
-240 -228 -307 2486 0
107 157 -399 2487 0
477 180 -107 2488 0
-46 -320 319 2489 0
-44 145 309 2490 0
-379 269 93 2491 0
312 277 -377 2492 0
408 97 -406 2493 0
-22 129 317 2494 0
-304 26 -458 2495 0
-157 -429 82 2496 0
-17 -291 268 2497 0
-225 -96 35 2498 0
-419 -41 -231 2499 0
-105 -160 498 2500 0
-493 219 -274 2501 0
-272 -121 -305 2502 0
-372 40 -424 2503 0
30 -293 -420 2504 0
445 186 365 2505 0
363 -333 -240 2506 0
-45 359 107 2507 0
-335 -237 426 2508 0
-66 392 69 2509 0
419 185 385 2510 0
317 -179 -63 2511 0
-144 267 255 2512 0
-410 426 -460 2513 0
-434 -115 -467 2514 0
-180 -398 -352 2515 0
211 -138 274 2516 0
223 155 -111 2517 0
334 166 418 2518 0
402 -463 348 2519 0
-460 56 -414 2520 0
269 341 -295 2521 0
395 454 -377 2522 0
-106 -419 224 2523 0
291 -152 39 2524 0
-439 217 139 2525 0
-124 130 -492 2526 0
435 -476 439 2527 0
-422 405 123 2528 0
106 -438 -107 2529 0
289 -242 -473 2530 0
67 256 59 2531 0
17 -302 -73 2532 0
-354 -164 256 2533 0
33 159 309 2534 0
187 366 7 2535 0
486 155 -304 2536 0
-99 317 384 2537 0
-420 -25 -468 2538 0
45 -194 128 2539 0
359 -237 310 2540 0
-72 137 30 2541 0
316 -44 -153 2542 0
-16 -35 314 2543 0
-238 119 66 2544 0
-126 -402 41 2545 0
-283 303 -103 2546 0
188 -149 409 2547 0
474 343 -58 2548 0
461 364 286 2549 0
335 -405 203 2550 0
135 61 30 2551 0
347 180 -15 2552 0
461 153 -312 2553 0
-358 374 -251 2554 0
30 78 253 2555 0
-373 341 165 2556 0
-367 -237 -95 2557 0
-20 411 -433 2558 0
370 471 -460 2559 0
401 -322 -374 2560 0
-361 176 -220 2561 0
445 -172 -209 2562 0
-369 -424 -458 2563 0
-100 -446 -57 2564 0
405 -179 -78 2565 0
-43 -174 -295 2566 0
-121 497 -232 2567 0
-39 -447 267 2568 0
-457 -86 210 2569 0
108 352 -387 2570 0
-284 -293 -72 2571 0
-27 483 -15 2572 0
-298 -266 110 2573 0
101 399 57 2574 0
-464 340 -259 2575 0
476 307 -134 2576 0
42 372 489 2577 0
214 -376 4 2578 0
-91 -87 68 2579 0
-457 -419 -12 2580 0
-16 465 61 2581 0
411 -471 129 2582 0
-44 -75 -201 2583 0
-196 -31 170 2584 0
-387 170 -139 2585 0
-231 -78 -296 2586 0
-96 15 -220 2587 0
-410 -196 153 2588 0
412 191 -33 2589 0
493 278 -400 2590 0
307 452 -448 2591 0
-450 -270 -190 2592 0
-210 -440 -456 2593 0
-272 163 -304 2594 0
355 -71 -456 2595 0
-196 -260 363 2596 0
237 -255 293 2597 0
-240 147 -276 2598 0
-132 -421 -245 2599 0
-434 21 -304 2600 0
-366 218 -203 2601 0
-238 -117 74 2602 0
-283 -249 -447 2603 0
-123 347 474 2604 0
274 -432 -324 2605 0
378 -263 -444 2606 0
-262 -423 76 2607 0
-193 94 376 2608 0
-46 394 -302 2609 0
428 -467 257 2610 0
221 -1 142 2611 0
-270 -191 121 2612 0
-31 159 99 2613 0
-160 -483 278 2614 0
219 232 -379 2615 0
324 -149 62 2616 0
136 144 -207 2617 0
-276 -306 -187 2618 0
-359 -139 -414 2619 0
-490 -338 -192 2620 0
99 128 120 2621 0
149 356 426 2622 0
312 468 385 2623 0
73 -220 -264 2624 0
336 -389 -285 2625 0
-393 -328 -302 2626 0
-179 105 438 2627 0
372 486 -129 2628 0
339 -101 107 2629 0
399 -141 -326 2630 0
42 470 -211 2631 0
-483 -399 265 2632 0
-350 -245 242 2633 0
-46 -345 -285 2634 0
475 314 154 2635 0
-16 240 -66 2636 0
286 321 -146 2637 0
443 6 -189 2638 0
273 -224 459 2639 0
-334 179 316 2640 0
88 376 451 2641 0
-325 498 -20 2642 0
83 -259 165 2643 0
-291 -315 -222 2644 0
90 154 -433 2645 0
-1 464 -139 2646 0
-284 426 -339 2647 0
-271 -241 484 2648 0
-149 -429 -42 2649 0
-382 276 -397 2650 0
