p cnf 2650 2150
-95 89 -79 501 0
-67 412 131 502 0
-169 394 -13 503 0
85 -22 272 504 0
-368 -74 -85 505 0
57 -417 371 506 0
119 -359 429 507 0
49 153 -358 508 0
183 184 310 509 0
-69 -256 338 510 0
-339 -461 359 511 0
-248 234 345 512 0
159 -376 31 513 0
-77 -145 366 514 0
-79 -353 449 515 0
-446 386 -400 516 0
-178 107 -223 517 0
-8 -226 -442 518 0
18 -377 361 519 0
-367 57 141 520 0
439 47 -469 521 0
-393 215 375 522 0
-181 -488 -16 523 0
189 -295 104 524 0
-280 -109 -152 525 0
119 -164 -162 526 0
-410 -113 -263 527 0
-175 111 -492 528 0
273 -242 461 529 0
-385 -340 34 530 0
-348 101 -278 531 0
-267 262 280 532 0
-66 -116 11 533 0
259 435 -343 534 0
-379 -479 50 535 0
-373 341 -386 536 0
-171 -419 499 537 0
-300 267 -415 538 0
376 -69 -126 539 0
245 367 -440 540 0
84 -172 -148 541 0
-329 473 159 542 0
105 416 -117 543 0
141 457 170 544 0
60 377 -36 545 0
-490 146 -180 546 0
20 -395 -307 547 0
-224 -433 15 548 0
-83 470 431 549 0
-163 -83 400 550 0
-371 -198 232 551 0
-395 -276 -122 552 0
-433 -418 411 553 0
-476 -265 10 554 0
-356 -2 459 555 0
89 176 153 556 0
-385 88 204 557 0
238 164 199 558 0
172 -80 416 559 0
-367 151 42 560 0
256 -128 -356 561 0
-414 -242 332 562 0
-311 -75 -167 563 0
-453 156 237 564 0
-373 -26 -221 565 0
-362 496 151 566 0
-406 114 423 567 0
372 -217 -66 568 0
489 -493 -225 569 0
-179 111 264 570 0
-255 118 -272 571 0
-272 -49 -247 572 0
193 -59 -355 573 0
362 -167 207 574 0
80 331 131 575 0
-49 118 329 576 0
342 472 51 577 0
-135 463 10 578 0
-397 -462 164 579 0
-111 70 226 580 0
-464 461 -278 581 0
347 -346 406 582 0
-228 359 -111 583 0
326 -245 -260 584 0
-456 417 175 585 0
-9 -61 -370 586 0
-298 -367 189 587 0
-158 13 -203 588 0
404 -32 249 589 0
-24 -213 -463 590 0
174 -83 460 591 0
-98 216 42 592 0
171 98 -114 593 0
-69 -374 85 594 0
-383 43 -99 595 0
417 120 -152 596 0
418 53 -383 597 0
-465 478 -118 598 0
302 389 -478 599 0
-217 -312 11 600 0
-385 31 46 601 0
198 469 -444 602 0
470 -197 242 603 0
94 60 7 604 0
-332 -70 -334 605 0
-255 -69 6 606 0
-127 -397 224 607 0
-230 199 -233 608 0
-245 -325 -470 609 0
-333 367 345 610 0
-21 399 350 611 0
-23 108 384 612 0
-239 -344 -67 613 0
-137 153 345 614 0
-275 -247 6 615 0
-318 14 -96 616 0
-71 -242 -104 617 0
182 -228 -176 618 0
197 -349 314 619 0
470 -434 -131 620 0
-164 -406 475 621 0
-145 -28 331 622 0
-353 302 -300 623 0
-252 372 -325 624 0
368 -404 -55 625 0
-276 -232 464 626 0
-382 488 249 627 0
449 -158 19 628 0
-296 -337 389 629 0
362 146 2 630 0
402 192 -461 631 0
-373 -420 152 632 0
-175 -299 -58 633 0
-464 -202 -142 634 0
-291 -402 471 635 0
288 -437 -282 636 0
196 -275 -210 637 0
-151 59 170 638 0
395 -190 481 639 0
-94 112 -363 640 0
387 272 79 641 0
468 -410 -318 642 0
-217 -487 -157 643 0
155 -399 288 644 0
188 -9 -413 645 0
-162 487 -198 646 0
-283 -296 -85 647 0
43 385 338 648 0
-228 82 -63 649 0
230 52 -409 650 0
168 477 -30 651 0
-371 156 -310 652 0
309 318 65 653 0
418 -142 -424 654 0
-411 153 -362 655 0
-316 83 405 656 0
363 254 -298 657 0
-91 -122 4 658 0
-234 147 -203 659 0
398 -14 253 660 0
286 -28 -236 661 0
47 -285 122 662 0
-496 226 -85 663 0
-54 -374 71 664 0
360 -191 -5 665 0
-479 -79 -24 666 0
-116 -475 -357 667 0
232 -224 -48 668 0
-419 110 83 669 0
386 -219 294 670 0
160 287 -10 671 0
252 136 -342 672 0
223 300 278 673 0
-143 55 -187 674 0
-245 -400 -412 675 0
-25 482 38 676 0
440 199 -216 677 0
107 179 -82 678 0
-467 -292 -13 679 0
-125 154 -396 680 0
-445 462 483 681 0
-351 163 69 682 0
445 -455 374 683 0
-195 264 -476 684 0
492 -23 -361 685 0
433 -447 81 686 0
256 -203 117 687 0
252 218 -227 688 0
-497 -163 -352 689 0
-440 -427 -121 690 0
90 17 -98 691 0
334 308 -464 692 0
463 -253 -55 693 0
410 -243 -113 694 0
44 396 469 695 0
-254 -170 465 696 0
-219 -83 -449 697 0
-254 223 365 698 0
110 -296 -139 699 0
-478 -114 -142 700 0
-176 316 403 701 0
-470 394 461 702 0
-314 -420 136 703 0
-69 342 371 704 0
-185 41 265 705 0
376 -283 -363 706 0
-469 -414 -253 707 0
-186 460 -494 708 0
-164 -16 -418 709 0
-419 -213 -118 710 0
323 -100 -331 711 0
395 -344 -468 712 0
-188 342 103 713 0
58 23 -95 714 0
-384 424 432 715 0
141 -426 248 716 0
-184 -254 -300 717 0
-414 453 -110 718 0
92 239 -256 719 0
341 -359 -442 720 0
-341 269 472 721 0
-414 -325 500 722 0
381 -448 -391 723 0
-385 351 -440 724 0
-197 377 445 725 0
187 35 -243 726 0
-272 18 287 727 0
120 404 -471 728 0
392 318 -299 729 0
449 130 92 730 0
23 395 26 731 0
338 -101 -32 732 0
262 -440 -43 733 0
325 310 -65 734 0
-100 68 462 735 0
-272 248 -265 736 0
-410 -21 -424 737 0
358 -64 -253 738 0
-236 244 169 739 0
296 -454 -399 740 0
16 212 -362 741 0
120 338 196 742 0
418 -70 366 743 0
-143 -23 -330 744 0
-286 444 -311 745 0
-17 -153 184 746 0
-5 420 352 747 0
273 -151 314 748 0
10 -309 -224 749 0
-217 493 54 750 0
-140 -290 348 751 0
-120 -414 -73 752 0
64 233 176 753 0
-290 205 -389 754 0
212 12 -500 755 0
279 -115 470 756 0
496 257 394 757 0
-3 -275 344 758 0
131 -398 -76 759 0
-282 339 14 760 0
-23 -345 37 761 0
443 -454 210 762 0
-181 12 -324 763 0
-53 358 386 764 0
35 -312 153 765 0
302 -139 -132 766 0
-28 12 -372 767 0
60 12 -389 768 0
-204 -25 246 769 0
-382 -234 -316 770 0
91 464 460 771 0
-140 128 72 772 0
-93 334 385 773 0
389 -201 -350 774 0
63 27 -140 775 0
23 81 214 776 0
63 -11 -268 777 0
-492 -62 -321 778 0
-463 23 2 779 0
-469 89 -330 780 0
289 -23 153 781 0
345 -90 -325 782 0
-315 196 -465 783 0
-397 411 379 784 0
142 -183 -377 785 0
-317 -278 -53 786 0
113 312 184 787 0
-81 -273 -455 788 0
396 -413 -298 789 0
125 159 -291 790 0
-386 35 -65 791 0
-112 -220 -496 792 0
-220 -468 298 793 0
-426 113 403 794 0
-414 55 -31 795 0
110 155 -459 796 0
235 -359 386 797 0
491 205 -69 798 0
-244 -371 -152 799 0
209 490 264 800 0
476 -328 346 801 0
-1 -366 -76 802 0
-146 228 -214 803 0
-333 -374 311 804 0
280 -275 -266 805 0
-370 68 500 806 0
-33 -366 -330 807 0
-26 206 175 808 0
420 411 -267 809 0
-189 -32 135 810 0
224 -73 -83 811 0
-215 305 -117 812 0
-399 -186 393 813 0
9 354 -343 814 0
80 -484 36 815 0
17 417 142 816 0
457 225 230 817 0
360 -57 390 818 0
446 314 -359 819 0
131 -86 -121 820 0
-289 -364 -189 821 0
-238 467 97 822 0
-32 -316 -330 823 0
334 -80 198 824 0
-214 -109 458 825 0
166 341 -49 826 0
423 159 -287 827 0
183 -190 33 828 0
351 21 455 829 0
-292 -268 231 830 0
-209 345 336 831 0
-351 -68 113 832 0
316 382 473 833 0
-382 114 -358 834 0
-357 -200 -498 835 0
-23 -33 292 836 0
220 -430 153 837 0
307 -33 -439 838 0
307 -276 -211 839 0
245 -14 39 840 0
443 -160 369 841 0
-13 -348 -198 842 0
450 301 -352 843 0
175 -444 -390 844 0
-243 418 -92 845 0
207 -186 72 846 0
-214 -86 81 847 0
-63 -190 -105 848 0
-271 -369 114 849 0
-36 -214 -75 850 0
210 -496 -455 851 0
-78 -15 300 852 0
-29 232 446 853 0
415 215 123 854 0
380 -461 -252 855 0
133 -397 335 856 0
270 55 -165 857 0
76 -23 337 858 0
327 -14 -394 859 0
-58 -163 376 860 0
242 -245 -62 861 0
76 -354 437 862 0
411 -257 339 863 0
55 -418 448 864 0
333 270 -439 865 0
297 -154 273 866 0
-405 183 -270 867 0
-117 -435 -3 868 0
220 -4 -270 869 0
-91 -60 389 870 0
366 -155 -170 871 0
485 -400 241 872 0
281 -223 -185 873 0
-6 191 -157 874 0
-350 138 197 875 0
153 -434 -381 876 0
167 2 -65 877 0
181 194 341 878 0
-384 -53 158 879 0
-412 -69 113 880 0
402 234 -312 881 0
36 -197 17 882 0
-474 -39 188 883 0
-170 -479 79 884 0
89 -234 -213 885 0
-245 -78 257 886 0
330 446 -500 887 0
478 -480 497 888 0
432 -74 307 889 0
389 269 122 890 0
-107 202 -6 891 0
289 -194 311 892 0
-83 6 491 893 0
370 314 -340 894 0
215 482 -480 895 0
131 38 -318 896 0
-315 -446 14 897 0
-89 -34 -77 898 0
139 -35 -148 899 0
-69 -345 206 900 0
-357 400 -249 901 0
408 -73 136 902 0
-176 18 192 903 0
-427 231 230 904 0
212 113 479 905 0
282 -463 -480 906 0
-308 -352 270 907 0
-118 -440 -88 908 0
-312 -242 429 909 0
-25 -418 -134 910 0
377 500 -216 911 0
202 283 -411 912 0
-441 102 -282 913 0
-393 54 -343 914 0
242 463 -7 915 0
-44 -421 423 916 0
-125 495 133 917 0
184 -225 -136 918 0
72 -390 -104 919 0
-485 439 472 920 0
162 485 -341 921 0
-419 -399 -473 922 0
407 -311 -277 923 0
121 -46 -235 924 0
93 -341 264 925 0
445 -114 -478 926 0
-443 -278 -5 927 0
-94 -375 -61 928 0
-329 97 -154 929 0
-387 -292 -228 930 0
367 440 416 931 0
-15 -412 55 932 0
-385 -298 105 933 0
-27 320 130 934 0
377 152 416 935 0
466 -215 396 936 0
-12 383 290 937 0
-283 433 442 938 0
-184 -342 -416 939 0
-249 -109 472 940 0
-176 468 -243 941 0
430 300 -493 942 0
-288 165 465 943 0
-137 68 -400 944 0
-271 -348 -130 945 0
87 168 201 946 0
18 44 -207 947 0
-76 81 493 948 0
-460 -346 -59 949 0
457 500 170 950 0
-15 457 313 951 0
288 278 -451 952 0
4 336 -190 953 0
101 -430 477 954 0
-181 35 -157 955 0
-309 324 280 956 0
261 208 -243 957 0
-302 472 -354 958 0
110 -267 44 959 0
-6 -106 489 960 0
187 41 -205 961 0
-112 323 393 962 0
7 -370 87 963 0
59 422 -348 964 0
-247 -19 -46 965 0
411 294 143 966 0
484 292 -29 967 0
-328 356 86 968 0
-38 79 -214 969 0
228 66 292 970 0
390 -358 -256 971 0
-427 413 219 972 0
233 291 298 973 0
490 440 -167 974 0
-48 -287 399 975 0
-376 451 -127 976 0
-204 162 494 977 0
-124 425 489 978 0
48 -87 223 979 0
288 -496 402 980 0
-240 455 -403 981 0
75 -72 175 982 0
321 180 -177 983 0
-210 -58 126 984 0
-461 317 -361 985 0
35 292 -31 986 0
-296 248 131 987 0
347 -193 226 988 0
-418 -51 120 989 0
243 464 253 990 0
-134 -247 -265 991 0
33 241 23 992 0
-278 -434 431 993 0
31 -402 -196 994 0
391 139 -137 995 0
-93 -442 -443 996 0
-220 16 -48 997 0
-143 -359 -268 998 0
-254 -9 269 999 0
10 290 128 1000 0
429 396 133 1001 0
-382 -216 -361 1002 0
-220 446 -452 1003 0
278 -173 -1 1004 0
-455 94 -227 1005 0
209 -425 457 1006 0
241 500 -449 1007 0
211 -41 -214 1008 0
388 -276 -426 1009 0
-82 -426 153 1010 0
219 -96 -497 1011 0
-226 295 -323 1012 0
-447 211 -456 1013 0
-413 -468 8 1014 0
-272 -301 337 1015 0
-22 280 410 1016 0
-454 -480 442 1017 0
236 -313 17 1018 0
-388 -107 -228 1019 0
455 -469 62 1020 0
390 -66 136 1021 0
359 -413 -107 1022 0
-493 99 301 1023 0
416 -311 388 1024 0
-116 -296 -434 1025 0
416 370 -203 1026 0
65 -361 92 1027 0
-125 25 71 1028 0
57 -44 -50 1029 0
-4 -339 -156 1030 0
-279 -484 -141 1031 0
184 221 -139 1032 0
-144 -161 -367 1033 0
357 317 167 1034 0
-370 -311 482 1035 0
191 -122 16 1036 0
164 108 25 1037 0
37 -168 -178 1038 0
-339 -284 165 1039 0
271 38 -476 1040 0
-235 -318 178 1041 0
-457 -219 227 1042 0
476 -112 -102 1043 0
-295 -392 463 1044 0
350 -498 261 1045 0
29 -269 335 1046 0
-75 39 -51 1047 0
-39 228 166 1048 0
53 -35 386 1049 0
271 391 -214 1050 0
321 201 -203 1051 0
-259 15 385 1052 0
-500 152 39 1053 0
-244 -185 49 1054 0
339 -290 -96 1055 0
244 461 42 1056 0
460 119 497 1057 0
-412 -405 401 1058 0
178 -122 -392 1059 0
-323 -36 -254 1060 0
268 -280 342 1061 0
199 102 -57 1062 0
199 -161 390 1063 0
328 -147 -385 1064 0
221 -479 -73 1065 0
424 -497 271 1066 0
-126 -234 262 1067 0
35 144 227 1068 0
-216 -82 -383 1069 0
-6 -454 83 1070 0
-468 19 398 1071 0
-352 33 -31 1072 0
-41 104 -476 1073 0
-103 31 -313 1074 0
153 -75 -92 1075 0
292 355 1 1076 0
55 355 368 1077 0
-345 -50 49 1078 0
-472 -262 -162 1079 0
-444 106 322 1080 0
250 -47 499 1081 0
357 344 -458 1082 0
244 410 157 1083 0
204 -495 334 1084 0
396 -200 100 1085 0
417 177 271 1086 0
186 442 90 1087 0
154 396 -268 1088 0
-466 71 292 1089 0
-37 -483 -109 1090 0
-330 33 -101 1091 0
45 274 200 1092 0
266 -186 164 1093 0
-45 199 108 1094 0
227 -414 35 1095 0
-152 122 421 1096 0
260 -120 -78 1097 0
-224 7 -50 1098 0
449 -65 -388 1099 0
-244 -40 375 1100 0
-381 -290 464 1101 0
-454 397 303 1102 0
479 303 -400 1103 0
116 434 492 1104 0
-437 -18 325 1105 0
255 17 -375 1106 0
218 -474 -239 1107 0
-89 -369 -22 1108 0
372 41 -285 1109 0
55 -189 465 1110 0
-496 276 -88 1111 0
189 -395 212 1112 0
500 -292 -408 1113 0
390 -249 -36 1114 0
226 -203 -333 1115 0
288 -483 154 1116 0
-451 -125 -34 1117 0
-456 140 -478 1118 0
142 149 -329 1119 0
84 316 -133 1120 0
271 19 -314 1121 0
388 461 281 1122 0
406 -312 -402 1123 0
-81 199 -314 1124 0
-23 -19 33 1125 0
-137 -129 408 1126 0
-93 398 -406 1127 0
-495 -422 -325 1128 0
-398 -106 199 1129 0
126 426 -338 1130 0
-74 168 43 1131 0
43 399 301 1132 0
11 469 320 1133 0
-337 -167 -65 1134 0
52 94 419 1135 0
-136 -4 333 1136 0
346 439 -438 1137 0
228 -203 -315 1138 0
337 195 -33 1139 0
198 -126 -290 1140 0
497 -71 -363 1141 0
290 419 400 1142 0
361 188 431 1143 0
486 -434 31 1144 0
66 -363 45 1145 0
-272 459 -377 1146 0
-463 -362 423 1147 0
5 310 480 1148 0
-396 -117 -5 1149 0
460 499 -126 1150 0
160 -230 -98 1151 0
374 254 321 1152 0
370 -467 -149 1153 0
-284 414 -301 1154 0
317 222 390 1155 0
297 -258 -324 1156 0
479 -148 241 1157 0
96 174 -22 1158 0
300 329 103 1159 0
305 -134 -413 1160 0
419 -254 355 1161 0
174 104 75 1162 0
-262 -291 -110 1163 0
102 -9 409 1164 0
434 -279 107 1165 0
-96 142 422 1166 0
-198 -105 -341 1167 0
488 320 474 1168 0
322 307 -127 1169 0
-81 -359 415 1170 0
288 -161 459 1171 0
-96 -392 -426 1172 0
471 -236 -447 1173 0
-177 -467 230 1174 0
101 -251 -94 1175 0
-464 -80 -447 1176 0
-389 277 60 1177 0
171 -280 -347 1178 0
-426 333 136 1179 0
352 395 -20 1180 0
-430 -393 -56 1181 0
278 -437 -81 1182 0
9 191 343 1183 0
437 -401 282 1184 0
311 -234 -4 1185 0
3 -454 -182 1186 0
-226 221 162 1187 0
-28 -438 -471 1188 0
-221 -440 -311 1189 0
174 323 388 1190 0
138 -290 415 1191 0
-219 108 457 1192 0
-382 49 43 1193 0
21 -430 -233 1194 0
-160 283 -224 1195 0
-266 241 17 1196 0
-303 -407 133 1197 0
226 -402 -68 1198 0
453 212 1 1199 0
-120 -276 107 1200 0
173 -70 -455 1201 0
218 169 186 1202 0
93 135 -4 1203 0
265 -68 173 1204 0
-153 267 -312 1205 0
365 -435 -481 1206 0
351 118 -287 1207 0
-432 412 147 1208 0
376 391 216 1209 0
-442 59 100 1210 0
99 -392 -68 1211 0
146 133 193 1212 0
249 171 -32 1213 0
7 491 210 1214 0
-105 -410 481 1215 0
-469 181 359 1216 0
-270 -314 -444 1217 0
326 -49 279 1218 0
-104 465 -456 1219 0
334 -217 366 1220 0
-227 -281 403 1221 0
-215 -193 -210 1222 0
-160 -404 343 1223 0
403 257 412 1224 0
9 -370 -307 1225 0
-13 376 284 1226 0
-149 172 447 1227 0
133 500 -370 1228 0
45 -419 385 1229 0
-376 -288 -111 1230 0
-357 -215 -142 1231 0
231 -28 304 1232 0
-80 -302 33 1233 0
-419 -331 377 1234 0
-489 106 -117 1235 0
-270 347 -82 1236 0
-488 495 -481 1237 0
102 483 245 1238 0
288 -340 367 1239 0
-293 -355 -250 1240 0
-357 -428 154 1241 0
-497 17 -10 1242 0
434 -90 -108 1243 0
-460 -124 -253 1244 0
-320 -294 383 1245 0
-4 445 -327 1246 0
-227 381 274 1247 0
233 -409 199 1248 0
-64 377 -337 1249 0
-43 -244 454 1250 0
75 -131 58 1251 0
-241 248 285 1252 0
-411 -310 -252 1253 0
334 -94 258 1254 0
414 -437 149 1255 0
164 22 -430 1256 0
-263 -146 -71 1257 0
427 193 -179 1258 0
241 -129 116 1259 0
94 426 -322 1260 0
-495 -477 162 1261 0
-304 -41 336 1262 0
-93 -363 172 1263 0
452 -214 -359 1264 0
-105 -53 253 1265 0
231 -247 201 1266 0
191 -308 -385 1267 0
294 -332 -413 1268 0
-11 -189 302 1269 0
128 361 392 1270 0
-392 -471 -364 1271 0
17 248 237 1272 0
-427 -241 334 1273 0
-465 -500 472 1274 0
388 381 412 1275 0
-280 48 -389 1276 0
490 231 142 1277 0
455 -338 300 1278 0
-496 107 59 1279 0
118 -405 251 1280 0
174 145 369 1281 0
187 378 371 1282 0
-234 19 -143 1283 0
-204 30 443 1284 0
-325 -212 -457 1285 0
103 39 288 1286 0
64 358 437 1287 0
-142 -121 13 1288 0
-373 -314 -288 1289 0
71 -262 25 1290 0
-478 257 -5 1291 0
-296 -431 119 1292 0
-143 -80 -389 1293 0
-380 -83 97 1294 0
-198 -227 392 1295 0
-290 -313 99 1296 0
-356 242 -81 1297 0
-372 -249 51 1298 0
-160 -126 -362 1299 0
171 -323 -278 1300 0
-403 -3 90 1301 0
269 -71 -226 1302 0
-206 -351 58 1303 0
-307 -485 -56 1304 0
404 334 -303 1305 0
186 -419 400 1306 0
-302 39 -432 1307 0
392 93 -251 1308 0
238 -328 -104 1309 0
51 -181 105 1310 0
-117 -283 37 1311 0
23 152 330 1312 0
165 129 300 1313 0
457 46 -411 1314 0
-59 -281 66 1315 0
446 206 -150 1316 0
301 278 144 1317 0
-421 165 -417 1318 0
-486 -47 -24 1319 0
-449 102 -120 1320 0
-124 158 120 1321 0
-87 -367 120 1322 0
178 -132 -77 1323 0
435 335 -227 1324 0
343 473 -22 1325 0
-380 61 242 1326 0
202 -94 378 1327 0
-424 382 -84 1328 0
-196 -140 183 1329 0
-382 319 -116 1330 0
482 -141 -116 1331 0
462 -211 -377 1332 0
410 -45 -97 1333 0
-442 -402 -330 1334 0
358 436 -4 1335 0
437 499 226 1336 0
66 44 -405 1337 0
-220 -223 270 1338 0
360 112 36 1339 0
-284 332 -464 1340 0
-493 -351 -284 1341 0
347 -298 -427 1342 0
316 -49 -82 1343 0
-97 -24 -435 1344 0
-73 -288 53 1345 0
349 291 43 1346 0
93 -356 224 1347 0
481 -18 -468 1348 0
283 272 467 1349 0
301 -317 265 1350 0
30 -200 -134 1351 0
-397 -70 294 1352 0
-58 -123 192 1353 0
20 -409 274 1354 0
-223 -74 -88 1355 0
219 207 357 1356 0
156 -100 461 1357 0
-354 -464 351 1358 0
44 -146 71 1359 0
-110 -11 -100 1360 0
-490 17 -406 1361 0
390 73 25 1362 0
-263 396 -354 1363 0
-361 168 494 1364 0
283 -69 -404 1365 0
-314 -298 333 1366 0
-197 -53 -50 1367 0
309 103 110 1368 0
-355 133 -98 1369 0
-30 -485 -452 1370 0
-316 244 -387 1371 0
374 -265 -148 1372 0
187 288 -271 1373 0
-163 -201 362 1374 0
-140 -61 191 1375 0
-209 -403 -463 1376 0
322 -433 43 1377 0
206 409 2 1378 0
-300 -268 81 1379 0
-118 -56 -103 1380 0
151 -182 210 1381 0
-458 318 -366 1382 0
192 324 -172 1383 0
-293 496 -297 1384 0
169 36 252 1385 0
409 498 -10 1386 0
-238 -111 -361 1387 0
54 -85 -120 1388 0
173 26 424 1389 0
478 -410 -353 1390 0
102 476 -70 1391 0
-260 -499 -117 1392 0
-256 76 33 1393 0
-148 450 81 1394 0
-45 -183 490 1395 0
-117 139 -426 1396 0
-461 215 105 1397 0
465 170 -342 1398 0
-175 -107 -429 1399 0
-153 27 -324 1400 0
129 -453 -6 1401 0
366 315 -160 1402 0
130 277 71 1403 0
-236 369 -343 1404 0
168 -258 -54 1405 0
96 49 13 1406 0
490 -182 -401 1407 0
-402 -324 386 1408 0
-307 -298 -288 1409 0
-182 475 -3 1410 0
196 31 -481 1411 0
-57 384 439 1412 0
264 -200 298 1413 0
-360 -430 -364 1414 0
-276 -210 183 1415 0
-15 -284 -269 1416 0
-79 -118 -224 1417 0
-59 322 128 1418 0
164 -207 -180 1419 0
-361 418 -328 1420 0
-28 107 228 1421 0
-323 -132 117 1422 0
51 -319 -52 1423 0
-115 -379 311 1424 0
-194 118 -127 1425 0
321 327 -305 1426 0
281 -379 -84 1427 0
247 -367 -42 1428 0
-475 -192 -313 1429 0
-447 -130 108 1430 0
465 -1 107 1431 0
-116 -126 47 1432 0
97 -368 330 1433 0
-371 454 97 1434 0
423 29 277 1435 0
455 -359 -135 1436 0
-169 -193 -20 1437 0
153 -307 -252 1438 0
237 412 105 1439 0
-404 -126 -427 1440 0
-396 -324 -217 1441 0
363 -106 489 1442 0
-210 117 -43 1443 0
-275 -205 -442 1444 0
-230 -338 297 1445 0
-119 146 111 1446 0
195 -491 -377 1447 0
-326 333 446 1448 0
499 -169 -421 1449 0
-445 -394 -363 1450 0
-296 366 -277 1451 0
361 424 268 1452 0
-493 -94 48 1453 0
-78 422 -454 1454 0
-363 -243 298 1455 0
-23 -233 -413 1456 0
191 195 -346 1457 0
-324 241 213 1458 0
342 3 222 1459 0
-376 -348 -10 1460 0
39 202 -290 1461 0
224 -203 205 1462 0
-229 207 495 1463 0
-137 -307 443 1464 0
452 143 -340 1465 0
291 -453 183 1466 0
-205 78 160 1467 0
240 496 378 1468 0
-61 380 -14 1469 0
-192 354 303 1470 0
16 325 -148 1471 0
29 -203 -57 1472 0
-474 484 -497 1473 0
-377 69 149 1474 0
485 -351 124 1475 0
435 -182 11 1476 0
-396 369 78 1477 0
-104 -246 131 1478 0
56 -163 166 1479 0
191 130 92 1480 0
29 317 183 1481 0
479 -341 337 1482 0
402 492 44 1483 0
-5 -391 93 1484 0
197 184 473 1485 0
323 453 438 1486 0
72 360 79 1487 0
-479 337 220 1488 0
-385 -401 -71 1489 0
-355 381 479 1490 0
91 -181 410 1491 0
281 205 -93 1492 0
456 -352 -90 1493 0
156 352 208 1494 0
-240 21 264 1495 0
103 201 108 1496 0
-313 328 -179 1497 0
409 83 167 1498 0
287 229 167 1499 0
-442 21 260 1500 0
161 492 -318 1501 0
471 -189 -146 1502 0
-386 -102 -47 1503 0
-82 408 125 1504 0
479 -422 295 1505 0
-482 28 363 1506 0
300 -429 262 1507 0
307 213 -305 1508 0
133 197 -208 1509 0
-339 -412 -408 1510 0
365 -182 278 1511 0
371 126 -390 1512 0
281 -244 63 1513 0
299 439 170 1514 0
-147 -434 193 1515 0
371 74 295 1516 0
-427 226 -387 1517 0
44 161 150 1518 0
-3 -120 -422 1519 0
-316 -241 -200 1520 0
379 -155 -415 1521 0
404 -362 -397 1522 0
499 -12 8 1523 0
-499 -321 38 1524 0
-470 -202 -487 1525 0
360 465 -277 1526 0
-235 -175 83 1527 0
234 -271 142 1528 0
105 330 -353 1529 0
-24 -64 -439 1530 0
-224 472 -347 1531 0
-119 -125 399 1532 0
-437 98 -303 1533 0
293 222 -137 1534 0
-239 -343 -398 1535 0
246 230 -214 1536 0
78 480 32 1537 0
191 -450 148 1538 0
-383 -336 201 1539 0
-221 260 -477 1540 0
-426 118 -271 1541 0
28 141 54 1542 0
-405 180 52 1543 0
45 236 -161 1544 0
199 346 364 1545 0
-207 -36 299 1546 0
187 -442 307 1547 0
382 296 -177 1548 0
213 -355 318 1549 0
-204 31 -267 1550 0
249 -473 476 1551 0
-106 -72 -231 1552 0
-175 300 318 1553 0
368 -392 -489 1554 0
329 -317 -201 1555 0
-200 255 -346 1556 0
-207 344 -87 1557 0
-382 72 43 1558 0
342 189 175 1559 0
-67 -380 423 1560 0
-259 61 496 1561 0
-138 -448 70 1562 0
-353 341 -110 1563 0
-475 -81 84 1564 0
465 -73 -406 1565 0
-344 -276 -53 1566 0
-15 434 139 1567 0
455 -393 190 1568 0
-441 31 -84 1569 0
111 -38 -252 1570 0
354 353 -42 1571 0
-469 171 485 1572 0
-183 -357 472 1573 0
-154 285 -214 1574 0
-51 320 257 1575 0
-329 448 -249 1576 0
-284 -51 -499 1577 0
-336 54 -203 1578 0
-190 -126 201 1579 0
-96 176 -235 1580 0
-60 280 -3 1581 0
108 22 -134 1582 0
130 205 160 1583 0
-42 -23 -424 1584 0
19 152 451 1585 0
180 399 457 1586 0
-139 142 -266 1587 0
-466 -21 -198 1588 0
331 -448 429 1589 0
-42 -36 171 1590 0
288 408 386 1591 0
-170 211 429 1592 0
105 -429 474 1593 0
1 374 -479 1594 0
247 -279 494 1595 0
-419 -5 271 1596 0
407 -347 488 1597 0
-103 173 -381 1598 0
168 -60 -216 1599 0
240 461 -268 1600 0
121 146 -297 1601 0
365 -400 291 1602 0
366 -471 -102 1603 0
-294 244 -217 1604 0
-188 156 322 1605 0
3 229 -205 1606 0
429 261 -248 1607 0
200 343 -175 1608 0
-449 -273 433 1609 0
-396 469 286 1610 0
436 70 -69 1611 0
128 5 -112 1612 0
-62 -407 -148 1613 0
-39 19 242 1614 0
276 244 101 1615 0
61 356 -286 1616 0
296 56 -4 1617 0
-312 -206 490 1618 0
-276 -133 -400 1619 0
-265 -461 -178 1620 0
-344 -6 444 1621 0
-345 194 159 1622 0
-30 40 406 1623 0
298 -67 -225 1624 0
-405 -124 348 1625 0
185 292 387 1626 0
-24 359 284 1627 0
39 -414 294 1628 0
365 293 -180 1629 0
126 -270 7 1630 0
-430 -10 -240 1631 0
359 3 -1 1632 0
245 -436 454 1633 0
404 -216 142 1634 0
278 143 -26 1635 0
-269 -120 443 1636 0
153 147 -302 1637 0
-361 -209 -442 1638 0
289 -108 190 1639 0
-496 301 -261 1640 0
9 48 361 1641 0
-150 -42 321 1642 0
-2 193 -203 1643 0
368 231 413 1644 0
-212 367 -50 1645 0
-387 -237 -280 1646 0
22 -246 127 1647 0
-207 141 -328 1648 0
-336 -429 -434 1649 0
-391 354 223 1650 0
378 -194 -63 1651 0
362 -172 -34 1652 0
109 74 49 1653 0
90 -53 163 1654 0
393 111 -11 1655 0
322 195 -359 1656 0
361 246 72 1657 0
204 474 -258 1658 0
146 -13 303 1659 0
-291 -286 -163 1660 0
245 -68 -347 1661 0
-350 -348 106 1662 0
239 428 112 1663 0
227 198 -466 1664 0
-209 -483 153 1665 0
247 490 -187 1666 0
-350 -68 22 1667 0
14 -110 349 1668 0
-405 -215 421 1669 0
-401 397 428 1670 0
-347 -385 -430 1671 0
-122 115 250 1672 0
453 423 -375 1673 0
120 -366 410 1674 0
-59 -271 -387 1675 0
86 -25 378 1676 0
-154 271 -461 1677 0
425 332 421 1678 0
3 -254 -435 1679 0
-13 399 -390 1680 0
445 180 58 1681 0
264 291 149 1682 0
-341 181 -207 1683 0
-418 -398 315 1684 0
143 -265 -400 1685 0
-487 -299 -171 1686 0
345 393 -216 1687 0
84 -241 162 1688 0
-221 -401 179 1689 0
3 47 -413 1690 0
115 -497 4 1691 0
-87 132 -213 1692 0
162 -402 -424 1693 0
335 -42 -272 1694 0
121 130 207 1695 0
302 -470 245 1696 0
-268 -354 -469 1697 0
-389 -69 -18 1698 0
17 285 -342 1699 0
445 251 484 1700 0
-261 180 -233 1701 0
-137 83 -379 1702 0
398 193 -249 1703 0
348 -349 -155 1704 0
-323 72 131 1705 0
394 315 102 1706 0
-242 358 -420 1707 0
-153 -137 -203 1708 0
-30 -290 -85 1709 0
-123 -37 373 1710 0
404 -237 -225 1711 0
-274 413 312 1712 0
201 381 159 1713 0
40 396 258 1714 0
287 -109 181 1715 0
182 426 -298 1716 0
-101 -148 51 1717 0
-2 196 -195 1718 0
-275 -490 -4 1719 0
106 -121 -76 1720 0
328 139 -180 1721 0
-123 38 233 1722 0
-164 -229 -493 1723 0
403 111 241 1724 0
-476 43 -133 1725 0
-233 364 -412 1726 0
-253 -121 345 1727 0
-291 463 350 1728 0
106 405 -184 1729 0
-189 63 314 1730 0
-131 324 -405 1731 0
-368 250 216 1732 0
267 -93 398 1733 0
-203 143 -89 1734 0
-241 286 60 1735 0
50 391 395 1736 0
45 218 323 1737 0
-319 -260 491 1738 0
-267 -474 417 1739 0
-133 -323 -474 1740 0
-180 19 -224 1741 0
387 329 292 1742 0
-66 228 -494 1743 0
271 239 265 1744 0
-110 172 360 1745 0
-289 159 -254 1746 0
221 -167 -409 1747 0
171 -289 -226 1748 0
-170 -315 -123 1749 0
255 133 424 1750 0
-455 -490 -451 1751 0
97 -394 -219 1752 0
487 -446 -121 1753 0
456 359 187 1754 0
-372 405 273 1755 0
-222 -351 284 1756 0
429 -156 48 1757 0
6 -439 464 1758 0
-479 -160 200 1759 0
-145 4 -353 1760 0
-40 342 -410 1761 0
-258 323 404 1762 0
239 -93 -109 1763 0
-247 347 391 1764 0
-500 -247 89 1765 0
-250 -267 -49 1766 0
-231 381 172 1767 0
-410 -402 262 1768 0
388 -493 32 1769 0
370 -227 471 1770 0
387 -269 -363 1771 0
-391 97 -74 1772 0
-398 -103 344 1773 0
-445 -378 406 1774 0
469 237 116 1775 0
-335 491 348 1776 0
-350 -460 -372 1777 0
341 -423 -228 1778 0
276 335 -146 1779 0
61 -483 1 1780 0
447 30 184 1781 0
36 -174 -335 1782 0
-65 233 -210 1783 0
-304 -235 -213 1784 0
17 -78 337 1785 0
-116 -434 29 1786 0
-430 -128 296 1787 0
151 -372 255 1788 0
-430 -363 409 1789 0
-372 434 185 1790 0
-467 244 -56 1791 0
466 -188 143 1792 0
476 -353 -235 1793 0
191 -237 -494 1794 0
58 -282 402 1795 0
-487 -48 -489 1796 0
114 -280 389 1797 0
-356 -175 -123 1798 0
-437 -216 -313 1799 0
433 218 -171 1800 0
239 16 428 1801 0
-251 8 145 1802 0
196 349 278 1803 0
-311 -181 -37 1804 0
428 -102 470 1805 0
329 57 -90 1806 0
317 46 39 1807 0
391 129 275 1808 0
135 -309 -37 1809 0
100 413 10 1810 0
-128 -425 -280 1811 0
52 -224 280 1812 0
114 -4 58 1813 0
-428 306 -326 1814 0
-87 263 178 1815 0
-65 21 -321 1816 0
-5 75 -308 1817 0
-23 65 -35 1818 0
122 -58 316 1819 0
-362 -335 -32 1820 0
236 352 -290 1821 0
-357 -79 -281 1822 0
168 -454 23 1823 0
-265 232 494 1824 0
448 75 37 1825 0
173 105 315 1826 0
37 322 -398 1827 0
-181 154 461 1828 0
-400 195 -152 1829 0
64 269 -370 1830 0
-291 -498 -454 1831 0
-207 401 -371 1832 0
403 49 405 1833 0
-114 337 381 1834 0
63 217 123 1835 0
-21 200 -56 1836 0
-446 -125 330 1837 0
223 -73 438 1838 0
-28 129 -203 1839 0
68 304 -383 1840 0
-403 496 -438 1841 0
-284 331 49 1842 0
-451 -476 -343 1843 0
-252 -98 -430 1844 0
45 427 326 1845 0
250 493 -356 1846 0
273 -297 -103 1847 0
-460 -99 -133 1848 0
-200 -81 287 1849 0
-395 331 176 1850 0
-462 303 485 1851 0
200 -468 -335 1852 0
340 -130 389 1853 0
-408 302 -363 1854 0
-174 206 436 1855 0
-303 44 -460 1856 0
-402 -354 46 1857 0
-226 356 273 1858 0
-403 54 -228 1859 0
86 -33 -35 1860 0
498 69 -499 1861 0
273 253 -475 1862 0
239 325 -385 1863 0
-54 315 -107 1864 0
-426 -165 123 1865 0
-229 467 -283 1866 0
-4 -278 -15 1867 0
149 -281 -230 1868 0
-327 91 55 1869 0
-144 -425 -411 1870 0
436 405 -428 1871 0
141 420 -469 1872 0
124 -492 -84 1873 0
-275 100 248 1874 0
457 472 -52 1875 0
-25 -197 240 1876 0
-421 277 276 1877 0
-483 -234 -308 1878 0
-212 -310 -32 1879 0
-157 -447 406 1880 0
118 345 327 1881 0
497 -402 102 1882 0
7 63 433 1883 0
444 481 310 1884 0
266 -41 -298 1885 0
189 319 14 1886 0
214 -468 456 1887 0
376 285 -389 1888 0
385 -34 54 1889 0
-46 362 -387 1890 0
418 -91 -397 1891 0
136 -153 455 1892 0
-403 -49 279 1893 0
-98 -59 74 1894 0
-199 50 318 1895 0
400 191 -176 1896 0
79 91 363 1897 0
-441 284 369 1898 0
85 -26 285 1899 0
-370 -83 251 1900 0
-285 322 -206 1901 0
-140 85 -384 1902 0
144 289 -198 1903 0
295 -6 -355 1904 0
-179 -172 -108 1905 0
310 293 -159 1906 0
369 351 -462 1907 0
-321 -381 242 1908 0
48 404 -479 1909 0
-431 115 -199 1910 0
407 307 208 1911 0
-263 -297 -53 1912 0
427 90 219 1913 0
-162 -272 356 1914 0
157 453 -268 1915 0
-108 257 -80 1916 0
-180 -36 -82 1917 0
-336 -403 -170 1918 0
-366 -132 -74 1919 0
133 -55 16 1920 0
161 59 424 1921 0
76 -295 -290 1922 0
-500 -234 414 1923 0
196 197 -363 1924 0
-365 406 -452 1925 0
212 268 -180 1926 0
-38 146 -350 1927 0
-356 -56 -145 1928 0
257 89 -244 1929 0
57 487 437 1930 0
68 -118 -14 1931 0
-146 -256 -285 1932 0
457 -164 -246 1933 0
446 -359 -361 1934 0
-356 11 -6 1935 0
-445 -444 413 1936 0
-68 455 -97 1937 0
-293 234 -348 1938 0
-336 460 196 1939 0
-124 348 -77 1940 0
-97 430 -358 1941 0
329 29 126 1942 0
-187 276 -126 1943 0
96 -400 453 1944 0
372 433 -69 1945 0
251 -394 213 1946 0
-59 81 -394 1947 0
500 303 -152 1948 0
-148 219 260 1949 0
-382 -47 174 1950 0
-206 181 360 1951 0
372 377 383 1952 0
261 -121 -326 1953 0
229 12 -21 1954 0
-403 118 -229 1955 0
-175 295 -242 1956 0
-483 -308 383 1957 0
280 177 -376 1958 0
319 -253 201 1959 0
-429 41 -444 1960 0
497 278 426 1961 0
161 -94 385 1962 0
-240 134 -111 1963 0
464 -122 -367 1964 0
465 -388 80 1965 0
74 -5 475 1966 0
-156 132 53 1967 0
-49 -459 -473 1968 0
-67 -288 232 1969 0
229 33 355 1970 0
-410 -73 -154 1971 0
-16 71 31 1972 0
-393 -80 50 1973 0
242 -166 75 1974 0
39 483 40 1975 0
44 -271 -1 1976 0
475 499 242 1977 0
245 -1 -449 1978 0
239 321 421 1979 0
293 214 -225 1980 0
25 -327 -394 1981 0
111 495 -11 1982 0
457 -446 125 1983 0
-401 201 456 1984 0
346 -261 -293 1985 0
-452 448 -496 1986 0
-206 408 -496 1987 0
87 -371 -151 1988 0
459 317 -135 1989 0
-194 178 -308 1990 0
-15 -260 34 1991 0
-185 160 247 1992 0
-160 -305 -231 1993 0
-439 134 274 1994 0
472 -113 85 1995 0
-499 446 -183 1996 0
-332 -19 -387 1997 0
-295 -496 -262 1998 0
-91 -467 -47 1999 0
-282 -278 -95 2000 0
404 473 323 2001 0
-100 368 323 2002 0
-325 -290 -233 2003 0
33 99 53 2004 0
447 -406 -325 2005 0
-48 307 -311 2006 0
-303 -381 147 2007 0
-223 -370 441 2008 0
-247 67 436 2009 0
365 117 -443 2010 0
-43 -484 119 2011 0
-365 -326 -494 2012 0
-154 431 238 2013 0
35 372 -116 2014 0
241 -234 -179 2015 0
203 338 403 2016 0
-368 -325 370 2017 0
205 -146 -10 2018 0
248 282 94 2019 0
132 -136 -99 2020 0
-381 410 181 2021 0
-113 -320 189 2022 0
-190 -188 -402 2023 0
-24 227 -170 2024 0
458 -43 -194 2025 0
455 68 263 2026 0
217 245 207 2027 0
140 257 -181 2028 0
-221 366 -237 2029 0
-442 233 -85 2030 0
399 175 411 2031 0
-479 -270 -327 2032 0
238 37 -326 2033 0
230 165 50 2034 0
-31 -372 448 2035 0
69 -51 467 2036 0
43 32 -377 2037 0
-291 -264 222 2038 0
-359 -109 226 2039 0
-71 -53 -420 2040 0
-138 308 9 2041 0
-114 -165 123 2042 0
364 102 -293 2043 0
-465 114 24 2044 0
496 49 -3 2045 0
261 -133 272 2046 0
492 76 261 2047 0
423 -442 286 2048 0
386 -314 -469 2049 0
-95 -227 -136 2050 0
242 399 -175 2051 0
-391 118 -285 2052 0
261 -451 290 2053 0
-56 175 -217 2054 0
99 -122 -157 2055 0
329 137 268 2056 0
34 120 300 2057 0
-297 -163 388 2058 0
103 102 -416 2059 0
268 126 -213 2060 0
-31 259 -176 2061 0
-313 250 -91 2062 0
101 -488 -254 2063 0
-386 144 146 2064 0
226 178 370 2065 0
-80 416 -10 2066 0
-182 331 -75 2067 0
-286 489 278 2068 0
-350 -351 189 2069 0
151 192 -260 2070 0
-61 -411 449 2071 0
254 -179 -150 2072 0
211 -20 -424 2073 0
82 -184 175 2074 0
163 93 115 2075 0
-3 86 487 2076 0
363 -131 -7 2077 0
-2 -378 69 2078 0
374 411 -470 2079 0
347 -435 70 2080 0
95 -251 -454 2081 0
-98 -15 341 2082 0
150 -404 -110 2083 0
152 475 -463 2084 0
201 -184 -374 2085 0
-224 374 491 2086 0
-160 -143 371 2087 0
-265 316 158 2088 0
-29 -379 -373 2089 0
-264 -188 89 2090 0
-26 490 -116 2091 0
217 -431 -113 2092 0
468 -106 474 2093 0
388 -311 -232 2094 0
-58 -20 -323 2095 0
-29 274 482 2096 0
-353 -135 -116 2097 0
95 -299 -52 2098 0
-239 -43 199 2099 0
-121 212 72 2100 0
305 -415 -347 2101 0
-232 281 21 2102 0
-119 171 302 2103 0
487 133 -264 2104 0
-101 -419 -267 2105 0
-492 339 437 2106 0
-422 -477 98 2107 0
199 -176 -443 2108 0
-11 -22 257 2109 0
200 482 196 2110 0
458 -365 56 2111 0
-257 236 -451 2112 0
112 -54 -459 2113 0
-331 384 -305 2114 0
-8 -221 -279 2115 0
228 103 -112 2116 0
422 101 144 2117 0
-371 180 -30 2118 0
294 84 147 2119 0
60 -92 -231 2120 0
-340 8 -493 2121 0
-134 -296 172 2122 0
359 -87 -176 2123 0
7 114 -328 2124 0
-61 -409 132 2125 0
479 -404 199 2126 0
366 437 287 2127 0
266 -380 26 2128 0
81 89 253 2129 0
-3 -354 28 2130 0
-60 -454 223 2131 0
158 49 358 2132 0
315 218 490 2133 0
269 350 30 2134 0
-69 386 -167 2135 0
100 -386 -104 2136 0
-279 -74 380 2137 0
133 263 -332 2138 0
-206 103 389 2139 0
-309 -21 367 2140 0
-333 98 280 2141 0
366 -41 384 2142 0
345 -46 -393 2143 0
2 125 -343 2144 0
-330 412 -483 2145 0
35 304 -66 2146 0
-405 -63 -124 2147 0
-96 -129 113 2148 0
-273 14 308 2149 0
-344 119 -499 2150 0
-372 416 -61 2151 0
402 421 437 2152 0
300 -229 -202 2153 0
342 -27 467 2154 0
-55 15 -242 2155 0
207 -100 284 2156 0
103 -43 312 2157 0
363 -73 262 2158 0
208 -98 -128 2159 0
462 370 363 2160 0
148 429 -386 2161 0
475 372 -65 2162 0
-474 -18 -176 2163 0
-362 -315 455 2164 0
-447 -340 -336 2165 0
385 -97 -28 2166 0
-59 -94 174 2167 0
388 -341 -313 2168 0
403 145 -144 2169 0
-122 -65 332 2170 0
-184 -406 -99 2171 0
-44 -281 263 2172 0
213 -255 402 2173 0
-181 -341 -43 2174 0
-41 -489 -339 2175 0
-143 -15 17 2176 0
-285 53 371 2177 0
341 488 410 2178 0
394 371 4 2179 0
-87 379 343 2180 0
-293 411 -476 2181 0
71 130 386 2182 0
-223 -61 97 2183 0
218 32 285 2184 0
421 -500 143 2185 0
5 -190 289 2186 0
-181 109 -491 2187 0
-177 127 -73 2188 0
373 11 -228 2189 0
148 490 60 2190 0
-357 -84 376 2191 0
-162 -192 349 2192 0
360 -311 -412 2193 0
42 147 61 2194 0
-97 -406 148 2195 0
-191 495 -30 2196 0
461 -314 -68 2197 0
160 391 -104 2198 0
175 22 295 2199 0
-334 369 -284 2200 0
-32 116 131 2201 0
-84 -216 18 2202 0
348 396 -322 2203 0
118 -494 422 2204 0
-159 -172 -2 2205 0
360 389 -308 2206 0
-374 446 -88 2207 0
395 419 -125 2208 0
438 -402 428 2209 0
324 196 -73 2210 0
-466 -499 462 2211 0
341 235 61 2212 0
155 451 -52 2213 0
26 -291 -404 2214 0
-308 493 -148 2215 0
74 21 193 2216 0
-35 -338 -328 2217 0
66 72 -65 2218 0
-10 141 271 2219 0
-240 -389 -309 2220 0
48 154 458 2221 0
-62 -227 109 2222 0
457 -81 -13 2223 0
-446 -231 126 2224 0
119 280 -253 2225 0
378 175 443 2226 0
-145 77 -97 2227 0
-327 -379 -216 2228 0
-456 6 -10 2229 0
66 236 176 2230 0
75 118 -316 2231 0
33 -360 249 2232 0
88 335 -224 2233 0
-411 500 261 2234 0
-198 413 2 2235 0
498 114 106 2236 0
127 -54 -15 2237 0
264 -387 -144 2238 0
-53 -498 -376 2239 0
-210 67 -360 2240 0
-484 491 64 2241 0
311 -470 179 2242 0
-345 50 421 2243 0
460 198 -57 2244 0
-281 -103 -161 2245 0
408 100 -487 2246 0
478 -69 153 2247 0
-356 -359 38 2248 0
230 437 -399 2249 0
-134 -35 212 2250 0
-436 -500 5 2251 0
-477 -441 351 2252 0
26 336 5 2253 0
48 462 -322 2254 0
-315 247 -235 2255 0
-4 166 336 2256 0
-287 75 301 2257 0
9 -347 -37 2258 0
-497 -459 -132 2259 0
-20 -469 17 2260 0
208 52 -153 2261 0
423 -173 438 2262 0
-334 431 -382 2263 0
364 313 -128 2264 0
-340 -257 -352 2265 0
7 -134 -37 2266 0
364 389 -378 2267 0
-107 448 -419 2268 0
-48 -396 129 2269 0
153 131 -228 2270 0
-435 -266 39 2271 0
346 424 -18 2272 0
1 371 23 2273 0
-348 -115 143 2274 0
243 170 -9 2275 0
-320 230 331 2276 0
-443 126 -132 2277 0
261 -271 67 2278 0
472 -357 -383 2279 0
383 66 -335 2280 0
-403 -304 237 2281 0
64 -188 221 2282 0
-54 67 -279 2283 0
359 23 467 2284 0
165 -347 481 2285 0
-188 -224 -230 2286 0
-153 21 -339 2287 0
248 440 -390 2288 0
162 -211 -387 2289 0
-383 264 46 2290 0
87 279 -353 2291 0
-133 -81 -228 2292 0
-373 107 -369 2293 0
204 129 254 2294 0
210 -487 -367 2295 0
-205 280 179 2296 0
202 -389 388 2297 0
-6 -391 -230 2298 0
-195 69 105 2299 0
91 494 146 2300 0
119 188 175 2301 0
-378 -382 414 2302 0
-299 -12 351 2303 0
131 372 -251 2304 0
203 -242 42 2305 0
-176 399 -146 2306 0
404 -474 -417 2307 0
-148 97 -209 2308 0
-345 -356 394 2309 0
-167 45 12 2310 0
144 -493 32 2311 0
81 -244 453 2312 0
110 396 -248 2313 0
422 -485 253 2314 0
362 207 168 2315 0
266 -491 473 2316 0
-195 216 -437 2317 0
268 -356 -392 2318 0
-442 -296 237 2319 0
321 -378 -369 2320 0
164 -355 -370 2321 0
-268 329 -122 2322 0
-271 333 491 2323 0
45 285 69 2324 0
-394 -111 -155 2325 0
-166 -97 190 2326 0
-161 -463 -494 2327 0
325 335 -285 2328 0
67 -204 -223 2329 0
-30 450 -36 2330 0
-58 293 -492 2331 0
141 -238 415 2332 0
350 -310 320 2333 0
-295 -43 -316 2334 0
-488 458 -366 2335 0
-277 206 -173 2336 0
-387 -450 -35 2337 0
421 415 7 2338 0
447 -441 120 2339 0
103 -153 393 2340 0
-121 335 231 2341 0
444 419 215 2342 0
-180 -296 -152 2343 0
175 75 -499 2344 0
-81 489 493 2345 0
-468 -316 500 2346 0
175 -44 384 2347 0
-295 142 -173 2348 0
254 363 -21 2349 0
464 -13 -445 2350 0
-474 11 219 2351 0
-274 -446 -441 2352 0
-459 100 206 2353 0
64 -271 276 2354 0
-362 68 49 2355 0
-90 453 77 2356 0
295 314 264 2357 0
82 241 -349 2358 0
-294 153 75 2359 0
-334 64 123 2360 0
219 -156 370 2361 0
467 -136 -494 2362 0
43 332 -203 2363 0
23 35 -327 2364 0
-166 423 141 2365 0
-278 383 -219 2366 0
-452 -84 313 2367 0
-283 275 -471 2368 0
295 -395 -280 2369 0
99 11 -391 2370 0
-350 429 -51 2371 0
-222 -258 -41 2372 0
-146 -353 51 2373 0
2 389 -371 2374 0
28 -119 -360 2375 0
309 63 -98 2376 0
106 -437 -333 2377 0
250 221 -8 2378 0
-70 61 -432 2379 0
294 -221 -338 2380 0
145 477 17 2381 0
-106 -333 -72 2382 0
-120 -463 -107 2383 0
247 -81 399 2384 0
-7 -15 389 2385 0
166 259 215 2386 0
-433 120 -498 2387 0
341 108 -453 2388 0
-304 -388 -81 2389 0
388 230 -299 2390 0
-362 -91 -74 2391 0
-378 -18 -383 2392 0
-393 61 339 2393 0
-152 304 428 2394 0
-210 -324 -170 2395 0
397 -440 -23 2396 0
-349 -120 -216 2397 0
-6 -292 -252 2398 0
-282 196 -436 2399 0
184 -416 62 2400 0
129 -343 -164 2401 0
242 -135 -221 2402 0
-347 -142 45 2403 0
366 292 480 2404 0
288 -16 -274 2405 0
426 189 -474 2406 0
-213 170 479 2407 0
-285 300 -476 2408 0
236 -211 24 2409 0
-164 -135 -435 2410 0
306 218 -408 2411 0
126 -394 499 2412 0
-258 236 173 2413 0
-299 -174 -44 2414 0
115 380 178 2415 0
31 -275 482 2416 0
-463 391 233 2417 0
-210 -381 -264 2418 0
366 -17 386 2419 0
-426 -445 447 2420 0
443 442 77 2421 0
414 -461 178 2422 0
211 -452 212 2423 0
-450 101 -342 2424 0
30 481 -186 2425 0
168 266 -178 2426 0
230 -415 15 2427 0
464 -273 284 2428 0
85 464 408 2429 0
-50 92 310 2430 0
-229 128 -414 2431 0
430 276 195 2432 0
-179 488 445 2433 0
257 10 357 2434 0
407 264 -336 2435 0
163 399 -79 2436 0
55 -223 262 2437 0
52 34 341 2438 0
-44 -177 338 2439 0
-82 -252 -433 2440 0
326 132 45 2441 0
391 -415 343 2442 0
-376 421 98 2443 0
-25 -271 -235 2444 0
-187 50 -293 2445 0
268 168 -351 2446 0
24 -171 -156 2447 0
-8 -486 -437 2448 0
-268 68 -228 2449 0
162 -252 -382 2450 0
-179 -11 260 2451 0
-91 141 362 2452 0
-216 92 336 2453 0
-76 -303 -472 2454 0
181 -86 368 2455 0
383 -387 -174 2456 0
-280 -58 -17 2457 0
-315 62 -71 2458 0
-287 -153 -49 2459 0
129 307 -336 2460 0
273 -9 440 2461 0
-221 -339 -447 2462 0
105 498 339 2463 0
3 419 -257 2464 0
392 -169 -268 2465 0
-216 402 185 2466 0
457 137 99 2467 0
289 -273 363 2468 0
-23 -314 -52 2469 0
112 238 -33 2470 0
-167 -384 -148 2471 0
494 -479 205 2472 0
206 -23 -15 2473 0
88 420 -131 2474 0
-415 77 -236 2475 0
-441 129 -39 2476 0
-290 -23 -296 2477 0
151 80 -394 2478 0
-342 -305 -486 2479 0
131 13 -216 2480 0
-437 355 -94 2481 0
154 187 384 2482 0
-250 -8 -411 2483 0
208 222 246 2484 0
378 -350 -194 2485 0
262 291 -417 2486 0
171 -346 61 2487 0
-310 -35 260 2488 0
-456 300 150 2489 0
266 -270 404 2490 0
4 13 -274 2491 0
-47 79 -446 2492 0
135 -61 88 2493 0
-25 -109 -189 2494 0
-326 498 -288 2495 0
-464 444 216 2496 0
335 116 255 2497 0
195 306 485 2498 0
-55 260 -342 2499 0
-233 397 -62 2500 0
-335 74 167 2501 0
-1 9 140 2502 0
5 478 -193 2503 0
-330 -420 -273 2504 0
337 312 -403 2505 0
145 -91 4 2506 0
-406 -111 -158 2507 0
251 89 -142 2508 0
-343 -373 320 2509 0
-253 145 447 2510 0
97 -307 -264 2511 0
-472 22 336 2512 0
257 -183 203 2513 0
-251 -30 491 2514 0
125 302 425 2515 0
-217 -22 -391 2516 0
-8 -222 -40 2517 0
-417 -98 195 2518 0
39 83 337 2519 0
327 98 40 2520 0
398 223 -125 2521 0
-210 41 -108 2522 0
138 414 -491 2523 0
-360 -391 222 2524 0
307 -295 -455 2525 0
317 -148 460 2526 0
-30 -262 184 2527 0
261 427 459 2528 0
274 -134 -246 2529 0
-262 419 -217 2530 0
436 -141 -261 2531 0
-488 222 -408 2532 0
-357 105 -16 2533 0
36 -397 78 2534 0
-40 269 -428 2535 0
-236 -106 90 2536 0
40 293 -435 2537 0
232 -260 -79 2538 0
260 248 373 2539 0
402 318 -12 2540 0
-124 -331 140 2541 0
-97 -244 490 2542 0
278 -82 228 2543 0
-164 312 -232 2544 0
-412 -194 -466 2545 0
-372 14 416 2546 0
399 -365 434 2547 0
-237 -198 349 2548 0
229 51 141 2549 0
-395 61 309 2550 0
-481 406 -445 2551 0
-238 88 -15 2552 0
495 -190 263 2553 0
50 452 55 2554 0
-109 -118 132 2555 0
-68 -219 214 2556 0
-206 -83 -201 2557 0
-131 78 -151 2558 0
-472 -311 168 2559 0
-320 419 178 2560 0
218 34 446 2561 0
-214 -1 -438 2562 0
73 -38 189 2563 0
-398 377 -47 2564 0
-322 128 316 2565 0
-144 360 100 2566 0
-465 -258 259 2567 0
424 229 -356 2568 0
227 -340 180 2569 0
-173 -389 -411 2570 0
290 411 442 2571 0
-270 33 -208 2572 0
146 97 -461 2573 0
91 138 -491 2574 0
-53 142 -244 2575 0
321 209 -426 2576 0
39 375 28 2577 0
212 -407 25 2578 0
158 -466 298 2579 0
-302 -316 -376 2580 0
-415 -64 -213 2581 0
106 -456 238 2582 0
28 26 329 2583 0
195 217 -366 2584 0
74 267 370 2585 0
310 384 -205 2586 0
-369 445 -209 2587 0
120 191 -311 2588 0
-241 185 -308 2589 0
-225 -270 -274 2590 0
133 -106 -414 2591 0
169 342 466 2592 0
-366 6 -401 2593 0
155 476 314 2594 0
-158 198 -20 2595 0
-399 186 5 2596 0
-163 -349 343 2597 0
-395 -13 -254 2598 0
460 26 -120 2599 0
-49 -77 -4 2600 0
-147 -350 98 2601 0
483 -353 -467 2602 0
-415 -441 337 2603 0
-80 117 -254 2604 0
-215 48 -70 2605 0
227 12 -467 2606 0
-62 146 29 2607 0
-138 231 -28 2608 0
-296 -86 439 2609 0
468 -445 -51 2610 0
260 499 -211 2611 0
-123 -134 -75 2612 0
-35 -29 415 2613 0
-421 267 165 2614 0
365 16 54 2615 0
-233 -264 -14 2616 0
124 161 81 2617 0
414 -168 -345 2618 0
134 -398 393 2619 0
84 480 260 2620 0
485 391 -455 2621 0
-270 415 -499 2622 0
354 479 474 2623 0
-195 -358 -405 2624 0
-125 23 -398 2625 0
-478 -257 -98 2626 0
-397 -226 434 2627 0
450 224 400 2628 0
-28 160 397 2629 0
-359 471 210 2630 0
-500 -268 -491 2631 0
34 -138 104 2632 0
-494 -27 438 2633 0
491 396 392 2634 0
66 -318 -264 2635 0
-295 196 221 2636 0
-272 244 113 2637 0
-209 -353 16 2638 0
231 -428 216 2639 0
-24 100 14 2640 0
347 -469 173 2641 0
-91 -377 390 2642 0
-232 266 147 2643 0
66 296 -359 2644 0
278 456 435 2645 0
408 297 -375 2646 0
-426 116 189 2647 0
-78 -317 245 2648 0
459 144 291 2649 0
458 -151 -27 2650 0
