p cnf 2650 2150
-448 -137 -72 501 0
455 314 187 502 0
-82 341 290 503 0
-263 474 126 504 0
-159 232 -279 505 0
-337 263 86 506 0
112 -234 242 507 0
-495 -445 -150 508 0
-463 -11 137 509 0
-206 190 210 510 0
-373 -257 -344 511 0
315 -373 -134 512 0
-326 436 -409 513 0
-461 1 410 514 0
290 -447 -354 515 0
93 271 430 516 0
-50 419 54 517 0
-351 61 378 518 0
355 410 -136 519 0
260 -271 -201 520 0
-160 240 -93 521 0
327 -76 300 522 0
-496 198 -453 523 0
-209 427 77 524 0
415 91 474 525 0
252 -375 -387 526 0
302 -147 -181 527 0
-207 -423 55 528 0
-458 -352 114 529 0
-57 378 343 530 0
296 -357 -221 531 0
309 46 -271 532 0
-415 348 396 533 0
-424 402 -373 534 0
-96 174 -113 535 0
-133 395 -135 536 0
-493 -394 379 537 0
54 113 421 538 0
-477 437 347 539 0
256 -196 -99 540 0
126 441 478 541 0
-375 -307 286 542 0
411 -315 -233 543 0
371 -78 130 544 0
437 363 469 545 0
-4 359 -318 546 0
61 -441 43 547 0
216 -251 -305 548 0
-398 488 379 549 0
-64 -66 -75 550 0
110 386 -498 551 0
-43 83 265 552 0
-212 -125 32 553 0
401 31 338 554 0
64 304 19 555 0
224 -314 -365 556 0
68 -435 180 557 0
-483 302 145 558 0
105 -296 114 559 0
467 374 412 560 0
168 -195 366 561 0
318 -313 292 562 0
482 -255 324 563 0
-267 61 -381 564 0
198 441 -346 565 0
466 488 -436 566 0
497 -392 69 567 0
-386 266 448 568 0
84 285 451 569 0
230 452 171 570 0
213 246 -264 571 0
-299 74 -105 572 0
277 -339 150 573 0
92 76 -262 574 0
45 408 -391 575 0
226 422 383 576 0
134 -202 -222 577 0
469 -203 -354 578 0
19 -196 468 579 0
-241 433 441 580 0
-168 -121 9 581 0
-358 -120 200 582 0
-303 -430 426 583 0
305 -260 283 584 0
290 -370 -449 585 0
280 -84 33 586 0
-37 409 433 587 0
-248 298 -407 588 0
326 -55 -115 589 0
360 -337 -392 590 0
113 -23 -111 591 0
156 58 66 592 0
485 59 -223 593 0
-336 9 -36 594 0
1 -387 188 595 0
-232 -480 -10 596 0
419 5 476 597 0
471 -105 -468 598 0
365 133 -202 599 0
352 -494 219 600 0
-271 -234 405 601 0
-170 277 134 602 0
-497 384 308 603 0
322 -453 -82 604 0
-295 -275 -100 605 0
-102 482 338 606 0
235 491 222 607 0
473 282 -276 608 0
-261 186 -155 609 0
-189 -36 -432 610 0
55 -259 -438 611 0
-448 -487 315 612 0
6 12 -294 613 0
-202 -112 483 614 0
-64 253 46 615 0
-61 236 141 616 0
320 126 462 617 0
402 -452 -451 618 0
-465 -409 -353 619 0
323 -409 113 620 0
82 -115 354 621 0
170 169 219 622 0
397 -383 68 623 0
-137 493 -102 624 0
96 360 295 625 0
215 285 381 626 0
-316 -191 228 627 0
-440 181 -226 628 0
410 110 2 629 0
1 100 -356 630 0
266 298 -271 631 0
62 -357 476 632 0
-136 -437 158 633 0
-252 46 266 634 0
148 198 -265 635 0
-226 269 -85 636 0
345 195 -425 637 0
236 374 -260 638 0
442 165 -103 639 0
329 -327 -376 640 0
486 -137 58 641 0
161 384 49 642 0
-481 90 164 643 0
-317 294 409 644 0
-209 71 -153 645 0
12 -234 -470 646 0
-55 -54 -306 647 0
-129 -259 280 648 0
438 282 352 649 0
-177 328 87 650 0
-368 308 -152 651 0
6 -242 -80 652 0
203 -54 -43 653 0
-10 143 -209 654 0
232 362 -108 655 0
27 -146 -139 656 0
30 324 484 657 0
-487 174 140 658 0
-201 53 -422 659 0
-186 -205 324 660 0
-318 -323 35 661 0
80 99 -359 662 0
208 -267 -481 663 0
115 243 -161 664 0
-242 283 -453 665 0
166 54 301 666 0
-26 437 463 667 0
402 -68 226 668 0
-228 -346 -265 669 0
310 224 -452 670 0
-461 -219 6 671 0
-273 -87 -312 672 0
-462 -59 19 673 0
121 207 -98 674 0
-493 -398 -10 675 0
-270 -154 -338 676 0
-251 -396 -292 677 0
-368 416 493 678 0
-354 -407 185 679 0
-414 -213 443 680 0
440 154 -294 681 0
95 -462 210 682 0
-481 -446 232 683 0
-410 -244 153 684 0
-443 210 65 685 0
-208 313 478 686 0
-357 -25 -330 687 0
1 -121 91 688 0
15 435 177 689 0
-363 485 -271 690 0
-472 307 -259 691 0
-493 -416 -462 692 0
315 -220 -439 693 0
304 435 -230 694 0
121 143 -360 695 0
-208 80 54 696 0
47 -226 -83 697 0
161 223 352 698 0
145 439 -471 699 0
304 -456 43 700 0
231 385 -214 701 0
-40 -328 201 702 0
-164 107 349 703 0
-427 218 -479 704 0
208 -133 486 705 0
284 -235 -357 706 0
-349 -147 -414 707 0
-384 -26 -418 708 0
369 407 13 709 0
490 -314 477 710 0
361 142 -295 711 0
132 28 -356 712 0
-377 301 330 713 0
-290 220 -297 714 0
-401 35 -84 715 0
-155 -268 363 716 0
-8 -434 397 717 0
120 -296 -494 718 0
-98 477 164 719 0
-11 -44 422 720 0
423 -2 -302 721 0
-462 -258 -46 722 0
-51 -135 -431 723 0
-258 -79 9 724 0
-310 -342 420 725 0
318 381 192 726 0
406 -472 -462 727 0
-216 -468 320 728 0
-52 -456 417 729 0
53 237 -294 730 0
423 -427 -391 731 0
-318 -400 -119 732 0
-243 406 81 733 0
274 306 473 734 0
68 78 -483 735 0
-207 378 414 736 0
278 -348 -471 737 0
161 -362 -97 738 0
300 -389 463 739 0
-200 440 403 740 0
-193 -235 -453 741 0
-326 497 78 742 0
-37 77 10 743 0
-385 -248 489 744 0
-375 68 470 745 0
-45 -6 -385 746 0
-367 475 188 747 0
320 200 -485 748 0
-109 313 -151 749 0
140 -325 437 750 0
-276 463 349 751 0
-106 72 209 752 0
169 274 -357 753 0
-464 5 290 754 0
5 -10 -437 755 0
-10 63 89 756 0
193 467 -88 757 0
-167 -264 -466 758 0
104 -216 -302 759 0
17 -260 47 760 0
485 -328 91 761 0
359 59 14 762 0
-67 112 -380 763 0
419 70 461 764 0
458 101 -358 765 0
-101 -174 -71 766 0
381 226 -254 767 0
-133 204 -74 768 0
-440 104 174 769 0
243 233 314 770 0
272 31 -119 771 0
256 309 -16 772 0
452 -10 -153 773 0
-439 144 -357 774 0
10 -254 357 775 0
-295 369 47 776 0
204 -413 285 777 0
446 4 2 778 0
-323 -54 -107 779 0
-332 -327 -385 780 0
440 4 -375 781 0
-116 -41 -117 782 0
-286 -162 257 783 0
15 220 362 784 0
247 144 -1 785 0
-358 -407 371 786 0
60 -47 -19 787 0
-157 44 123 788 0
-460 250 76 789 0
-293 -379 124 790 0
-179 -2 322 791 0
-489 -100 261 792 0
-31 -277 -62 793 0
-17 153 266 794 0
298 -495 325 795 0
174 194 -95 796 0
-448 279 -143 797 0
71 -292 111 798 0
130 -241 -88 799 0
405 -156 -231 800 0
199 -142 279 801 0
-461 284 -338 802 0
71 -429 171 803 0
-250 453 -416 804 0
173 341 -142 805 0
360 -281 209 806 0
49 -315 11 807 0
107 -163 -483 808 0
86 442 329 809 0
287 64 -408 810 0
112 496 -22 811 0
468 419 -379 812 0
-255 28 -134 813 0
53 194 56 814 0
105 -410 -219 815 0
138 248 81 816 0
172 -297 454 817 0
455 -194 -196 818 0
-128 208 179 819 0
-405 -99 -308 820 0
19 168 -274 821 0
-257 -43 389 822 0
-164 477 426 823 0
-288 -479 -63 824 0
-481 -84 69 825 0
-385 -361 -36 826 0
-390 230 -248 827 0
398 315 487 828 0
-301 352 -9 829 0
450 -16 427 830 0
435 197 174 831 0
-19 -298 41 832 0
29 336 -215 833 0
-476 9 -193 834 0
4 440 -147 835 0
251 -434 -293 836 0
265 493 -16 837 0
-326 -160 -156 838 0
-52 468 101 839 0
-386 18 -319 840 0
117 -456 -350 841 0
-157 -78 264 842 0
27 -425 -260 843 0
8 -413 -146 844 0
-306 -156 13 845 0
394 134 -474 846 0
-416 145 -250 847 0
69 90 408 848 0
198 -148 -439 849 0
131 -168 123 850 0
-210 -281 35 851 0
-40 248 358 852 0
-326 -40 -169 853 0
-463 198 -324 854 0
446 -392 50 855 0
-223 179 316 856 0
18 -489 183 857 0
-338 -491 -399 858 0
500 494 228 859 0
81 -173 -456 860 0
131 -374 153 861 0
147 323 -199 862 0
269 -435 -178 863 0
-260 132 365 864 0
-195 261 -73 865 0
-63 151 477 866 0
-266 -144 315 867 0
-301 296 135 868 0
-307 -402 200 869 0
-80 216 254 870 0
88 204 175 871 0
109 143 -367 872 0
246 -386 -50 873 0
214 -153 347 874 0
244 -303 279 875 0
286 328 90 876 0
42 319 190 877 0
-95 227 -283 878 0
-35 -111 120 879 0
-146 123 326 880 0
-205 -332 147 881 0
-368 -263 95 882 0
-102 -140 -18 883 0
-282 439 -222 884 0
190 91 114 885 0
93 -456 478 886 0
-190 -328 -431 887 0
379 123 20 888 0
245 253 403 889 0
-160 355 458 890 0
-288 -5 395 891 0
-483 -45 -253 892 0
235 69 487 893 0
214 127 333 894 0
-171 459 73 895 0
-474 17 42 896 0
381 137 326 897 0
-444 -122 -265 898 0
497 -194 -363 899 0
-22 33 -202 900 0
387 299 -303 901 0
23 -50 -96 902 0
-41 250 -196 903 0
-59 8 354 904 0
-280 -452 462 905 0
-233 -70 150 906 0
54 -141 -364 907 0
-20 82 387 908 0
-62 -84 328 909 0
-444 98 -309 910 0
-23 197 -205 911 0
140 -291 -52 912 0
-281 -434 226 913 0
-82 -331 262 914 0
216 -455 298 915 0
429 234 -201 916 0
298 117 491 917 0
-196 -450 454 918 0
-295 269 -368 919 0
-410 483 337 920 0
110 220 -361 921 0
421 17 -92 922 0
-7 189 -328 923 0
271 145 439 924 0
414 193 -203 925 0
218 303 255 926 0
419 -305 253 927 0
-486 158 200 928 0
-180 456 117 929 0
-473 -110 -323 930 0
334 -93 -286 931 0
-291 335 -202 932 0
160 311 -32 933 0
-287 -237 434 934 0
25 -275 -348 935 0
174 118 -451 936 0
-281 -323 -51 937 0
-79 393 -453 938 0
168 -439 -353 939 0
194 364 137 940 0
161 172 -493 941 0
-46 136 -296 942 0
-412 162 -78 943 0
276 430 -285 944 0
-184 -385 103 945 0
-391 -397 -436 946 0
-268 474 427 947 0
-130 359 52 948 0
325 -321 -391 949 0
311 -333 -462 950 0
-149 -450 62 951 0
-468 -105 202 952 0
209 -246 -164 953 0
-1 -46 -131 954 0
318 -71 151 955 0
-21 174 -445 956 0
-10 22 -293 957 0
-408 -222 -394 958 0
485 -36 -10 959 0
-54 -220 440 960 0
-28 156 127 961 0
-192 -265 373 962 0
356 -352 -48 963 0
-444 -364 201 964 0
257 -496 480 965 0
104 62 148 966 0
-249 80 -64 967 0
-443 22 -245 968 0
-427 -61 218 969 0
-131 -353 349 970 0
162 319 385 971 0
140 85 -320 972 0
-498 -43 -433 973 0
51 117 281 974 0
389 348 26 975 0
407 89 -11 976 0
309 211 392 977 0
108 -222 -142 978 0
108 83 -44 979 0
441 -103 -257 980 0
25 -374 -15 981 0
342 290 446 982 0
44 95 -239 983 0
-301 122 -373 984 0
147 -90 -66 985 0
-422 -364 209 986 0
-189 322 -83 987 0
139 307 -202 988 0
355 380 81 989 0
-217 -152 255 990 0
-233 485 384 991 0
-130 -115 -353 992 0
-342 467 -435 993 0
457 -199 -56 994 0
230 461 169 995 0
107 215 240 996 0
-459 458 -396 997 0
463 -175 -417 998 0
-17 9 297 999 0
-63 35 401 1000 0
333 259 4 1001 0
313 481 -471 1002 0
-259 -369 -133 1003 0
496 -47 490 1004 0
-395 223 64 1005 0
138 -493 -300 1006 0
446 161 400 1007 0
-97 -247 452 1008 0
283 -205 -241 1009 0
140 21 127 1010 0
482 -466 -487 1011 0
-238 -97 -482 1012 0
224 318 78 1013 0
464 476 215 1014 0
227 196 186 1015 0
-322 -47 58 1016 0
249 62 -81 1017 0
-125 361 -310 1018 0
-250 -319 91 1019 0
-206 415 -498 1020 0
-62 106 -83 1021 0
-283 -150 176 1022 0
123 66 -122 1023 0
126 309 -197 1024 0
-402 422 444 1025 0
-463 195 169 1026 0
56 -34 -292 1027 0
-15 -304 -11 1028 0
110 100 -411 1029 0
394 -27 -167 1030 0
74 278 451 1031 0
-339 371 33 1032 0
-251 320 396 1033 0
-6 73 417 1034 0
-308 150 184 1035 0
-498 74 -276 1036 0
-24 82 -388 1037 0
-302 422 424 1038 0
102 -79 -198 1039 0
404 271 -318 1040 0
381 292 231 1041 0
-10 319 -333 1042 0
281 340 -19 1043 0
-209 -10 -103 1044 0
-90 67 -122 1045 0
-96 -411 -83 1046 0
-19 136 -112 1047 0
499 -71 -424 1048 0
361 -328 356 1049 0
204 254 347 1050 0
-14 468 -65 1051 0
452 170 46 1052 0
139 -279 54 1053 0
255 273 126 1054 0
-289 -188 237 1055 0
-223 -203 159 1056 0
26 395 -443 1057 0
347 -413 285 1058 0
201 369 -279 1059 0
319 -30 -204 1060 0
-363 191 -488 1061 0
389 119 145 1062 0
-236 68 -99 1063 0
339 -11 -68 1064 0
-145 178 183 1065 0
-102 428 -306 1066 0
-289 28 -391 1067 0
178 229 -259 1068 0
424 -389 -436 1069 0
426 -106 195 1070 0
-96 56 -26 1071 0
207 -227 183 1072 0
-52 -12 -419 1073 0
-108 25 333 1074 0
-33 -412 -99 1075 0
290 103 31 1076 0
40 93 -184 1077 0
314 100 -472 1078 0
-450 375 -235 1079 0
175 -279 406 1080 0
280 -320 -246 1081 0
-169 -186 -218 1082 0
82 -407 -48 1083 0
-94 170 200 1084 0
-433 -326 234 1085 0
-337 97 8 1086 0
336 -73 352 1087 0
-246 181 -321 1088 0
85 179 -264 1089 0
78 68 -42 1090 0
-276 177 316 1091 0
-226 -385 72 1092 0
-445 -55 -323 1093 0
95 -338 -370 1094 0
-137 388 -203 1095 0
-289 456 476 1096 0
-412 11 -485 1097 0
-373 183 -197 1098 0
-416 -252 207 1099 0
378 -451 31 1100 0
499 495 -178 1101 0
-279 305 -475 1102 0
279 -205 -159 1103 0
-355 404 -47 1104 0
446 -243 -210 1105 0
-348 231 153 1106 0
72 -372 -19 1107 0
-40 -239 -377 1108 0
48 310 423 1109 0
-270 464 -313 1110 0
-426 347 240 1111 0
169 400 391 1112 0
195 -10 -126 1113 0
-76 -399 -301 1114 0
-499 -76 246 1115 0
264 -369 72 1116 0
-109 339 -86 1117 0
-353 229 -94 1118 0
-366 249 219 1119 0
142 363 -394 1120 0
-462 -381 430 1121 0
-470 -103 -287 1122 0
-228 470 248 1123 0
-47 271 208 1124 0
109 261 300 1125 0
268 -264 259 1126 0
-244 299 -15 1127 0
488 -427 224 1128 0
-213 251 327 1129 0
426 345 141 1130 0
224 240 -37 1131 0
356 406 127 1132 0
-51 265 -3 1133 0
-393 102 176 1134 0
40 442 -357 1135 0
-199 -273 67 1136 0
497 347 226 1137 0
194 -146 -62 1138 0
438 150 384 1139 0
-405 110 156 1140 0
114 -52 -161 1141 0
340 -38 -443 1142 0
433 -483 426 1143 0
259 65 -369 1144 0
-374 -185 -133 1145 0
-431 -471 376 1146 0
411 108 444 1147 0
159 431 197 1148 0
-134 -60 -406 1149 0
-27 -114 -495 1150 0
-17 187 -304 1151 0
-337 410 77 1152 0
494 -282 378 1153 0
468 264 456 1154 0
-102 156 490 1155 0
-213 376 101 1156 0
406 320 -54 1157 0
215 -61 -77 1158 0
-361 101 94 1159 0
-471 336 122 1160 0
-109 468 486 1161 0
405 -102 -485 1162 0
-32 -123 -350 1163 0
-494 370 153 1164 0
398 21 58 1165 0
-496 25 -431 1166 0
-104 274 -335 1167 0
-34 -494 200 1168 0
-46 297 -488 1169 0
405 -240 253 1170 0
-338 -265 73 1171 0
429 206 -433 1172 0
208 -264 241 1173 0
330 -44 150 1174 0
331 -288 -130 1175 0
390 273 -68 1176 0
83 -88 183 1177 0
110 179 252 1178 0
310 484 -469 1179 0
-109 126 348 1180 0
489 45 422 1181 0
-416 20 -368 1182 0
-73 31 -72 1183 0
286 -446 -198 1184 0
319 453 131 1185 0
-347 -468 -225 1186 0
346 -189 -164 1187 0
-168 495 -413 1188 0
-488 249 -47 1189 0
-304 -220 253 1190 0
223 -111 -353 1191 0
-429 232 -103 1192 0
4 -28 201 1193 0
-448 180 297 1194 0
-474 105 -53 1195 0
75 -24 -279 1196 0
123 -74 45 1197 0
35 -374 163 1198 0
-267 -445 105 1199 0
-231 -119 162 1200 0
-159 65 306 1201 0
290 48 308 1202 0
-255 -492 -143 1203 0
415 78 -374 1204 0
-455 -490 397 1205 0
-388 260 -59 1206 0
-275 -325 390 1207 0
-80 313 -370 1208 0
-32 -471 315 1209 0
51 385 -444 1210 0
469 -319 459 1211 0
-462 274 156 1212 0
-108 -322 -281 1213 0
-105 -498 -285 1214 0
-356 161 369 1215 0
-440 -53 -62 1216 0
278 379 120 1217 0
-226 303 494 1218 0
342 -323 -480 1219 0
-378 -125 -476 1220 0
-174 21 -244 1221 0
-133 50 440 1222 0
253 -221 -97 1223 0
181 -332 224 1224 0
6 72 195 1225 0
128 229 -307 1226 0
94 259 -50 1227 0
177 73 455 1228 0
245 216 -189 1229 0
-409 -469 -202 1230 0
-396 461 225 1231 0
109 21 344 1232 0
-349 -61 368 1233 0
-14 454 -407 1234 0
51 -484 -413 1235 0
307 -170 358 1236 0
-356 -247 61 1237 0
-200 -463 482 1238 0
438 235 354 1239 0
-104 284 -298 1240 0
461 -421 452 1241 0
-480 328 210 1242 0
-139 404 202 1243 0
18 399 -127 1244 0
-10 368 -27 1245 0
-226 -375 145 1246 0
-113 450 37 1247 0
227 92 -256 1248 0
200 -17 -337 1249 0
-129 183 -347 1250 0
425 194 -278 1251 0
-218 -479 -474 1252 0
472 -10 -165 1253 0
287 122 210 1254 0
-176 206 -445 1255 0
-409 84 199 1256 0
163 -128 -243 1257 0
-415 25 -174 1258 0
335 -34 216 1259 0
212 75 -439 1260 0
-266 10 -113 1261 0
59 -152 281 1262 0
248 -95 -437 1263 0
-1 417 -94 1264 0
275 -172 -125 1265 0
-110 -33 490 1266 0
-470 221 -26 1267 0
-347 -423 419 1268 0
334 391 -46 1269 0
-88 -147 129 1270 0
-123 85 -121 1271 0
-476 249 -258 1272 0
295 268 376 1273 0
-247 452 -385 1274 0
-172 -468 263 1275 0
-307 249 429 1276 0
-470 233 79 1277 0
-109 -96 404 1278 0
-3 -449 -468 1279 0
334 -300 -298 1280 0
-165 -387 421 1281 0
-129 -425 135 1282 0
-437 -418 56 1283 0
-466 5 39 1284 0
-397 211 -98 1285 0
164 -443 107 1286 0
-145 -351 -20 1287 0
-95 179 -313 1288 0
431 -396 -93 1289 0
258 -47 406 1290 0
-337 -452 500 1291 0
104 -344 339 1292 0
132 359 338 1293 0
-124 132 82 1294 0
-422 -449 437 1295 0
178 -239 403 1296 0
-408 -104 -209 1297 0
392 -268 282 1298 0
68 -375 149 1299 0
-163 98 -110 1300 0
271 -396 430 1301 0
319 -415 464 1302 0
-37 187 -391 1303 0
-43 -137 376 1304 0
-425 -168 454 1305 0
-480 -110 -237 1306 0
220 -488 106 1307 0
-128 -242 355 1308 0
202 52 117 1309 0
-90 217 -158 1310 0
492 -495 34 1311 0
-325 -430 -458 1312 0
-113 -187 188 1313 0
-28 -325 -441 1314 0
356 -480 129 1315 0
330 202 303 1316 0
-311 -497 379 1317 0
498 239 271 1318 0
101 355 -339 1319 0
83 -465 219 1320 0
221 273 308 1321 0
-292 107 375 1322 0
200 331 -297 1323 0
-186 444 119 1324 0
-165 454 336 1325 0
5 210 82 1326 0
429 -408 -50 1327 0
-181 -90 -30 1328 0
467 229 170 1329 0
-229 322 -69 1330 0
-141 27 490 1331 0
232 -221 -299 1332 0
36 -61 -306 1333 0
-496 -167 95 1334 0
469 370 -376 1335 0
-227 -342 454 1336 0
-138 41 249 1337 0
-71 -278 123 1338 0
80 336 -396 1339 0
-345 85 264 1340 0
279 -466 -29 1341 0
-305 100 442 1342 0
64 -30 -24 1343 0
42 50 357 1344 0
374 -28 145 1345 0
360 -287 -238 1346 0
-6 -329 -449 1347 0
-173 -235 -396 1348 0
-278 365 -67 1349 0
-179 -323 218 1350 0
-446 199 -135 1351 0
426 465 -365 1352 0
-398 291 -302 1353 0
-465 -120 -161 1354 0
-320 305 -431 1355 0
310 157 41 1356 0
-437 -157 20 1357 0
-292 312 73 1358 0
477 -386 -86 1359 0
36 -216 -326 1360 0
-163 7 239 1361 0
-270 291 -189 1362 0
-220 -219 377 1363 0
-399 -50 -231 1364 0
-232 36 -132 1365 0
330 373 437 1366 0
-183 -404 389 1367 0
33 -108 -434 1368 0
199 -481 468 1369 0
186 295 397 1370 0
-313 -180 294 1371 0
495 -465 339 1372 0
234 -1 -299 1373 0
-91 276 -482 1374 0
7 -424 78 1375 0
88 318 -428 1376 0
-43 498 393 1377 0
-489 284 268 1378 0
45 241 48 1379 0
-360 133 -253 1380 0
-206 -317 491 1381 0
-204 17 -94 1382 0
341 -443 -320 1383 0
26 24 101 1384 0
425 -382 372 1385 0
310 19 -332 1386 0
261 469 227 1387 0
109 -8 213 1388 0
-323 53 -11 1389 0
-459 388 -408 1390 0
-71 -328 144 1391 0
-372 409 399 1392 0
-392 -186 84 1393 0
383 -328 -91 1394 0
429 -205 128 1395 0
472 54 -464 1396 0
227 353 -240 1397 0
-324 -160 -263 1398 0
366 -59 -40 1399 0
69 -289 77 1400 0
165 -10 -468 1401 0
428 -112 389 1402 0
209 -168 -278 1403 0
467 185 -281 1404 0
109 -48 -103 1405 0
-42 444 -305 1406 0
-387 -128 -214 1407 0
-441 -69 141 1408 0
-317 488 -110 1409 0
175 396 -36 1410 0
458 314 405 1411 0
277 -371 42 1412 0
-266 -265 -87 1413 0
3 428 -237 1414 0
-192 -477 -23 1415 0
-266 -421 -159 1416 0
311 250 -301 1417 0
-312 187 -287 1418 0
491 -409 -410 1419 0
435 -22 -285 1420 0
456 464 -350 1421 0
-411 458 388 1422 0
-413 97 174 1423 0
-96 -267 381 1424 0
-299 475 -291 1425 0
-479 470 -193 1426 0
-346 357 249 1427 0
-440 313 -406 1428 0
64 -104 -62 1429 0
211 -132 257 1430 0
420 -115 108 1431 0
270 -355 -351 1432 0
-183 -135 -493 1433 0
484 -257 -465 1434 0
267 193 -201 1435 0
47 123 71 1436 0
-424 -334 -433 1437 0
79 -451 135 1438 0
113 397 31 1439 0
-406 -185 -149 1440 0
390 341 183 1441 0
-457 406 467 1442 0
215 -474 410 1443 0
-1 -474 -122 1444 0
-364 90 -3 1445 0
37 306 104 1446 0
278 -234 -200 1447 0
173 337 -31 1448 0
135 166 180 1449 0
216 -289 -281 1450 0
425 -161 -355 1451 0
-359 -230 200 1452 0
-291 -93 478 1453 0
-469 30 -56 1454 0
490 -217 284 1455 0
479 17 -233 1456 0
-160 321 -203 1457 0
-243 -404 -220 1458 0
13 386 -75 1459 0
-201 194 -314 1460 0
302 264 377 1461 0
-459 366 -98 1462 0
274 290 -307 1463 0
-7 159 -119 1464 0
-290 -429 402 1465 0
-113 -394 111 1466 0
-399 -76 386 1467 0
-405 351 467 1468 0
386 155 -334 1469 0
126 344 -47 1470 0
-489 184 482 1471 0
154 -277 301 1472 0
-320 256 -136 1473 0
-36 25 24 1474 0
-335 -433 50 1475 0
-367 -103 -336 1476 0
-289 482 -2 1477 0
352 150 -203 1478 0
347 -250 -497 1479 0
1 151 72 1480 0
-129 398 390 1481 0
404 306 194 1482 0
-300 34 377 1483 0
-178 -423 435 1484 0
225 410 -457 1485 0
-94 10 -122 1486 0
-69 192 -284 1487 0
478 -160 26 1488 0
244 -113 -57 1489 0
283 -276 161 1490 0
-441 -185 -427 1491 0
444 303 187 1492 0
109 477 323 1493 0
-376 -179 -311 1494 0
-277 -309 -164 1495 0
370 257 -279 1496 0
67 289 308 1497 0
67 221 -12 1498 0
404 -113 139 1499 0
-357 328 -353 1500 0
-255 -95 192 1501 0
224 282 187 1502 0
41 -147 -283 1503 0
158 -228 406 1504 0
-367 141 -89 1505 0
-146 -121 -315 1506 0
45 -390 -387 1507 0
398 148 -266 1508 0
389 -338 -64 1509 0
291 -137 48 1510 0
-425 143 451 1511 0
-183 -385 193 1512 0
-291 35 -118 1513 0
374 31 -65 1514 0
-200 -241 -289 1515 0
-65 -383 94 1516 0
-199 -319 294 1517 0
-73 -107 280 1518 0
341 -119 -146 1519 0
-394 25 193 1520 0
6 490 -38 1521 0
190 -184 -169 1522 0
101 481 -487 1523 0
-240 -456 306 1524 0
321 -493 -366 1525 0
-143 412 2 1526 0
332 -109 -146 1527 0
-266 -228 -457 1528 0
-182 -190 258 1529 0
18 -314 -220 1530 0
358 -53 -339 1531 0
-141 337 444 1532 0
-172 363 -154 1533 0
144 -169 271 1534 0
-234 306 213 1535 0
-77 -69 286 1536 0
-162 70 -355 1537 0
-109 419 134 1538 0
115 278 261 1539 0
-97 -491 -243 1540 0
451 144 31 1541 0
493 177 395 1542 0
-23 297 53 1543 0
275 -173 373 1544 0
-277 -3 -248 1545 0
474 -458 -266 1546 0
163 -65 -296 1547 0
-27 -473 263 1548 0
195 -286 -144 1549 0
162 -46 -201 1550 0
363 -379 362 1551 0
89 226 -108 1552 0
428 -35 438 1553 0
-34 83 -493 1554 0
-473 322 -185 1555 0
287 -449 380 1556 0
91 77 38 1557 0
-37 10 198 1558 0
-222 -169 -277 1559 0
222 -495 459 1560 0
-276 -461 222 1561 0
-86 -95 394 1562 0
425 238 24 1563 0
430 61 -217 1564 0
46 -406 57 1565 0
-376 -468 -250 1566 0
-143 -50 -152 1567 0
-419 -229 239 1568 0
370 195 -391 1569 0
-92 -417 -150 1570 0
180 499 -381 1571 0
-199 -209 21 1572 0
198 14 -420 1573 0
234 13 491 1574 0
332 -235 -4 1575 0
-244 162 96 1576 0
74 2 -145 1577 0
-190 -381 270 1578 0
99 -480 -432 1579 0
-2 -484 141 1580 0
-12 -293 116 1581 0
269 -322 -343 1582 0
36 409 17 1583 0
-177 150 -322 1584 0
-272 463 -219 1585 0
-88 258 -463 1586 0
137 -136 80 1587 0
-196 188 -218 1588 0
-61 236 -307 1589 0
85 -387 431 1590 0
-266 -223 -460 1591 0
245 33 213 1592 0
13 -102 -431 1593 0
-229 -405 389 1594 0
-63 -497 391 1595 0
151 -227 211 1596 0
115 -91 413 1597 0
-131 -315 321 1598 0
128 191 66 1599 0
-492 33 175 1600 0
-380 426 422 1601 0
-204 14 446 1602 0
291 381 -141 1603 0
457 326 300 1604 0
366 -471 -158 1605 0
-440 374 415 1606 0
12 143 -61 1607 0
419 392 -89 1608 0
-339 -187 153 1609 0
233 -215 82 1610 0
79 -233 -106 1611 0
-470 -117 -400 1612 0
164 107 170 1613 0
-412 39 -65 1614 0
71 -216 -369 1615 0
154 -343 -200 1616 0
314 240 -290 1617 0
-225 206 48 1618 0
422 -297 159 1619 0
176 119 -234 1620 0
-80 466 -302 1621 0
-496 82 265 1622 0
151 36 -132 1623 0
-10 448 355 1624 0
-129 377 -352 1625 0
-16 248 240 1626 0
-280 -70 51 1627 0
411 433 262 1628 0
130 158 -182 1629 0
384 185 -440 1630 0
-165 -476 -150 1631 0
-13 40 -142 1632 0
67 -288 425 1633 0
268 -417 265 1634 0
240 -23 -318 1635 0
147 488 -140 1636 0
150 445 -233 1637 0
-440 -10 -182 1638 0
135 222 297 1639 0
-468 247 -370 1640 0
8 -75 416 1641 0
85 -279 -388 1642 0
-33 -145 -119 1643 0
-229 440 -262 1644 0
-210 -320 -385 1645 0
461 455 -233 1646 0
77 -358 380 1647 0
98 325 -114 1648 0
-25 -127 18 1649 0
-415 447 -483 1650 0
-262 -433 431 1651 0
22 128 -97 1652 0
-179 -78 -1 1653 0
-211 32 -423 1654 0
407 240 -70 1655 0
212 159 253 1656 0
-309 68 -280 1657 0
65 13 220 1658 0
-82 -334 127 1659 0
-202 -347 -67 1660 0
-437 -116 -9 1661 0
-126 -262 -100 1662 0
248 125 328 1663 0
471 -60 339 1664 0
-181 -1 -380 1665 0
-420 -158 207 1666 0
-287 306 -325 1667 0
-150 260 159 1668 0
-361 -238 -298 1669 0
-149 -351 235 1670 0
131 -464 117 1671 0
-90 198 -12 1672 0
-401 -19 -319 1673 0
-104 -486 -287 1674 0
-16 -348 -276 1675 0
-344 88 -67 1676 0
102 367 -160 1677 0
251 381 254 1678 0
75 188 172 1679 0
284 88 -243 1680 0
-162 -439 483 1681 0
-227 -16 290 1682 0
-193 -438 -397 1683 0
327 -23 -15 1684 0
-243 -402 305 1685 0
13 -18 -99 1686 0
-43 332 271 1687 0
-428 -370 88 1688 0
-61 174 180 1689 0
-368 -452 -162 1690 0
79 -299 -241 1691 0
-33 496 336 1692 0
-497 -489 -186 1693 0
29 108 348 1694 0
193 164 -239 1695 0
-37 -70 371 1696 0
427 348 -147 1697 0
391 81 214 1698 0
497 -139 -17 1699 0
477 121 -94 1700 0
-52 36 134 1701 0
24 389 -189 1702 0
495 261 -157 1703 0
-181 265 80 1704 0
-87 40 236 1705 0
78 439 77 1706 0
123 395 144 1707 0
16 -296 -72 1708 0
119 414 81 1709 0
185 -240 -412 1710 0
243 -332 211 1711 0
209 -476 381 1712 0
202 335 6 1713 0
222 363 -488 1714 0
489 -130 -320 1715 0
141 158 269 1716 0
120 496 444 1717 0
12 -81 107 1718 0
-264 -46 -2 1719 0
401 -64 -36 1720 0
495 403 484 1721 0
426 -32 246 1722 0
441 -271 -80 1723 0
-332 -403 -276 1724 0
402 -266 -378 1725 0
313 72 487 1726 0
82 69 234 1727 0
-34 378 239 1728 0
256 -52 -310 1729 0
186 -254 80 1730 0
-100 391 -349 1731 0
134 487 -140 1732 0
-251 106 491 1733 0
-352 349 444 1734 0
-430 -83 -226 1735 0
-49 327 -134 1736 0
-145 -210 -52 1737 0
394 127 -171 1738 0
335 -320 -220 1739 0
-74 34 -165 1740 0
115 36 272 1741 0
-83 -374 -443 1742 0
-76 260 -441 1743 0
-454 95 -153 1744 0
205 -105 -492 1745 0
50 397 -2 1746 0
-88 443 148 1747 0
-412 -462 -422 1748 0
175 -294 -272 1749 0
37 189 48 1750 0
500 -105 190 1751 0
338 -425 -197 1752 0
326 36 -122 1753 0
-230 -389 287 1754 0
-30 477 203 1755 0
-140 -41 257 1756 0
-431 454 -426 1757 0
-143 -471 -172 1758 0
409 443 146 1759 0
-238 -13 -101 1760 0
60 88 -379 1761 0
448 348 -314 1762 0
-58 -244 -370 1763 0
456 -198 -233 1764 0
213 -220 50 1765 0
487 -271 -356 1766 0
32 -8 -134 1767 0
293 331 299 1768 0
450 270 441 1769 0
-341 -275 -228 1770 0
246 -254 249 1771 0
201 116 1 1772 0
15 -113 -68 1773 0
-327 123 412 1774 0
-265 281 -353 1775 0
-467 315 -265 1776 0
195 30 -203 1777 0
-458 262 -232 1778 0
-410 -431 -182 1779 0
-103 91 -298 1780 0
123 -198 -409 1781 0
-275 55 -322 1782 0
393 225 -332 1783 0
438 -132 182 1784 0
-27 -471 281 1785 0
171 -170 -184 1786 0
330 301 159 1787 0
128 -18 -70 1788 0
-432 330 321 1789 0
-349 315 438 1790 0
-355 252 -201 1791 0
-222 333 401 1792 0
364 -198 495 1793 0
-450 -179 -389 1794 0
-22 -156 120 1795 0
-253 139 246 1796 0
248 216 -316 1797 0
-434 -490 -99 1798 0
110 481 113 1799 0
-235 -441 -422 1800 0
183 -443 360 1801 0
376 130 68 1802 0
307 474 -16 1803 0
368 -432 269 1804 0
313 385 -85 1805 0
16 4 -414 1806 0
28 487 -64 1807 0
300 -441 462 1808 0
-225 240 -473 1809 0
137 72 -206 1810 0
-54 -437 353 1811 0
296 -7 -144 1812 0
-141 162 451 1813 0
466 -309 -20 1814 0
-263 -396 276 1815 0
310 -241 -23 1816 0
-401 -313 386 1817 0
-6 -199 227 1818 0
-232 328 -83 1819 0
-459 -83 -326 1820 0
200 -257 -10 1821 0
-395 -195 -38 1822 0
168 216 121 1823 0
-84 -209 126 1824 0
-339 -154 -73 1825 0
3 389 362 1826 0
-188 471 79 1827 0
-378 -177 -479 1828 0
148 -396 -351 1829 0
342 417 -283 1830 0
-341 -27 -140 1831 0
-229 183 -449 1832 0
-477 -94 -197 1833 0
64 312 394 1834 0
-287 86 461 1835 0
-356 288 -413 1836 0
-105 295 -49 1837 0
-360 -150 208 1838 0
448 -22 -487 1839 0
-377 485 -131 1840 0
162 185 -366 1841 0
-47 -193 -481 1842 0
485 -232 271 1843 0
346 497 -467 1844 0
313 68 58 1845 0
128 442 -358 1846 0
-28 383 321 1847 0
184 61 -19 1848 0
416 449 -343 1849 0
-103 420 -370 1850 0
356 49 -344 1851 0
127 -497 -173 1852 0
262 -52 -176 1853 0
-145 18 -102 1854 0
-475 -382 -117 1855 0
-227 94 -160 1856 0
-105 187 439 1857 0
-310 -303 -463 1858 0
-30 -380 155 1859 0
-132 375 9 1860 0
192 -142 -337 1861 0
-154 -409 -500 1862 0
191 -167 -70 1863 0
363 -161 422 1864 0
56 -226 -119 1865 0
-47 -155 416 1866 0
348 -72 -263 1867 0
411 5 44 1868 0
4 28 -452 1869 0
-457 -334 97 1870 0
92 -38 114 1871 0
-403 -294 292 1872 0
225 -221 264 1873 0
222 489 287 1874 0
367 375 -69 1875 0
386 52 270 1876 0
355 483 -314 1877 0
-25 444 -476 1878 0
-485 -231 -373 1879 0
42 168 294 1880 0
-472 -11 202 1881 0
148 -303 -157 1882 0
99 -32 200 1883 0
327 247 -300 1884 0
379 413 111 1885 0
-112 -70 331 1886 0
-147 148 -96 1887 0
432 94 349 1888 0
-64 377 -340 1889 0
133 -233 -200 1890 0
-243 366 -210 1891 0
-29 -494 -173 1892 0
319 12 -195 1893 0
416 -314 -127 1894 0
-166 -33 -450 1895 0
233 278 77 1896 0
21 13 157 1897 0
381 418 92 1898 0
-192 218 -280 1899 0
293 -193 117 1900 0
419 57 -238 1901 0
-385 297 105 1902 0
-216 323 90 1903 0
-298 -95 424 1904 0
-280 230 279 1905 0
482 283 -449 1906 0
-477 -321 -338 1907 0
-269 -493 -357 1908 0
151 389 494 1909 0
-9 -378 129 1910 0
-279 -97 176 1911 0
398 -455 -58 1912 0
-107 -241 -206 1913 0
420 77 446 1914 0
257 -229 452 1915 0
-434 140 239 1916 0
440 228 -461 1917 0
-71 365 332 1918 0
377 49 -480 1919 0
-34 473 -411 1920 0
47 444 -6 1921 0
-118 -370 160 1922 0
220 181 426 1923 0
-33 -133 -68 1924 0
-346 336 308 1925 0
-492 53 -406 1926 0
-460 301 -476 1927 0
247 -436 -24 1928 0
22 1 -160 1929 0
353 432 -434 1930 0
-347 93 -401 1931 0
410 -6 -457 1932 0
325 139 226 1933 0
81 -253 -432 1934 0
409 -351 91 1935 0
-67 -68 216 1936 0
379 -132 211 1937 0
-98 389 191 1938 0
-426 -255 -332 1939 0
334 335 18 1940 0
216 356 -261 1941 0
-107 5 111 1942 0
-114 -373 -308 1943 0
-251 -286 -35 1944 0
64 484 -227 1945 0
-296 -477 398 1946 0
-489 272 275 1947 0
-445 7 342 1948 0
-15 399 129 1949 0
-104 -378 71 1950 0
-408 198 119 1951 0
-458 455 -279 1952 0
430 -170 384 1953 0
468 404 258 1954 0
164 371 -188 1955 0
-137 -357 450 1956 0
92 -83 419 1957 0
155 180 267 1958 0
-133 328 -497 1959 0
325 -20 -294 1960 0
-401 317 -474 1961 0
183 -106 113 1962 0
477 -256 -260 1963 0
269 -257 487 1964 0
-201 78 -366 1965 0
-16 -117 360 1966 0
285 278 -341 1967 0
7 -455 101 1968 0
370 -55 180 1969 0
-89 491 42 1970 0
-450 -341 -59 1971 0
474 314 -171 1972 0
277 -291 16 1973 0
-48 -73 477 1974 0
208 175 261 1975 0
33 5 83 1976 0
-257 477 -220 1977 0
-440 -109 -396 1978 0
86 125 255 1979 0
31 492 -124 1980 0
171 -13 23 1981 0
-315 -395 8 1982 0
325 166 16 1983 0
-293 493 29 1984 0
480 451 -178 1985 0
-217 -25 382 1986 0
-287 102 -406 1987 0
-82 278 2 1988 0
105 -465 337 1989 0
-487 332 -92 1990 0
185 -116 -492 1991 0
477 292 -53 1992 0
252 -314 321 1993 0
20 -192 455 1994 0
-378 -125 -370 1995 0
471 416 499 1996 0
-107 -173 -392 1997 0
16 420 178 1998 0
397 -319 -253 1999 0
85 89 198 2000 0
382 162 14 2001 0
-129 480 426 2002 0
-385 228 -380 2003 0
463 279 -445 2004 0
255 -479 469 2005 0
-81 201 -370 2006 0
29 -397 429 2007 0
247 -57 142 2008 0
-196 432 12 2009 0
-309 397 -222 2010 0
214 -454 313 2011 0
24 -271 -253 2012 0
485 289 401 2013 0
156 59 381 2014 0
-116 -384 127 2015 0
-257 -338 -173 2016 0
393 -202 -333 2017 0
-244 -434 -382 2018 0
98 386 484 2019 0
-453 -150 26 2020 0
-489 -417 -194 2021 0
-79 -296 446 2022 0
35 -491 68 2023 0
377 -440 89 2024 0
380 -367 87 2025 0
265 38 -458 2026 0
-93 57 -453 2027 0
2 -308 167 2028 0
-103 -237 -232 2029 0
29 -24 206 2030 0
306 -445 -397 2031 0
433 182 -3 2032 0
-31 -378 -439 2033 0
-278 87 99 2034 0
-466 487 -159 2035 0
-287 -340 -405 2036 0
256 -218 -269 2037 0
234 -398 15 2038 0
246 -188 -370 2039 0
431 438 -388 2040 0
-89 -491 224 2041 0
-16 -238 470 2042 0
-181 109 398 2043 0
86 -467 293 2044 0
-154 -235 122 2045 0
-52 -416 -149 2046 0
424 -73 -167 2047 0
302 -304 346 2048 0
472 -353 81 2049 0
-32 -403 -361 2050 0
-236 -253 171 2051 0
-221 427 181 2052 0
480 -371 -185 2053 0
129 364 489 2054 0
124 485 -79 2055 0
283 -259 221 2056 0
429 -327 61 2057 0
156 -359 277 2058 0
137 -38 500 2059 0
-418 -495 -494 2060 0
-42 93 -202 2061 0
-121 263 453 2062 0
-370 -139 -496 2063 0
-304 469 -158 2064 0
9 75 45 2065 0
-474 268 458 2066 0
437 461 -140 2067 0
-232 -256 -159 2068 0
-498 -271 -200 2069 0
462 306 293 2070 0
-37 254 454 2071 0
-309 -180 421 2072 0
-455 218 -319 2073 0
243 200 -455 2074 0
214 -197 393 2075 0
321 -16 98 2076 0
-138 -171 326 2077 0
455 159 1 2078 0
-51 429 -337 2079 0
421 -453 -419 2080 0
-393 311 282 2081 0
-54 -129 -482 2082 0
204 -357 299 2083 0
-485 84 -164 2084 0
-260 249 12 2085 0
-219 -206 327 2086 0
367 -195 -77 2087 0
220 -346 -286 2088 0
64 412 493 2089 0
-144 246 -343 2090 0
-484 -224 387 2091 0
233 275 -107 2092 0
53 -163 50 2093 0
479 152 -172 2094 0
-337 -199 -285 2095 0
-217 -247 -127 2096 0
166 -457 232 2097 0
-25 144 90 2098 0
356 64 28 2099 0
-153 -282 -398 2100 0
-13 63 -129 2101 0
-183 -33 171 2102 0
435 58 -113 2103 0
-71 -35 -357 2104 0
-58 -409 -468 2105 0
-374 -292 -50 2106 0
-318 -224 -157 2107 0
-13 189 -255 2108 0
254 -309 -14 2109 0
139 63 -383 2110 0
347 -410 -137 2111 0
175 208 -266 2112 0
-46 -235 395 2113 0
26 -392 255 2114 0
344 -98 -37 2115 0
392 27 -308 2116 0
337 -6 164 2117 0
-496 -69 494 2118 0
-128 337 345 2119 0
-433 254 -278 2120 0
366 91 87 2121 0
86 283 -300 2122 0
367 30 -326 2123 0
-256 -484 337 2124 0
385 -446 -145 2125 0
-394 -141 -388 2126 0
155 -198 -305 2127 0
-72 22 -187 2128 0
-198 441 -239 2129 0
-148 177 -57 2130 0
-72 189 -87 2131 0
78 357 126 2132 0
-65 -481 -286 2133 0
-426 128 -267 2134 0
-149 -473 -386 2135 0
134 -186 266 2136 0
185 121 -246 2137 0
108 70 493 2138 0
178 -276 337 2139 0
-422 52 -492 2140 0
454 -486 293 2141 0
-206 -278 -77 2142 0
-305 -13 -33 2143 0
-460 -232 331 2144 0
-138 418 -351 2145 0
-433 -248 410 2146 0
164 -101 -325 2147 0
-327 352 -105 2148 0
116 448 -58 2149 0
40 -305 431 2150 0
-102 110 -13 2151 0
-273 -188 -16 2152 0
-101 -452 -259 2153 0
-276 189 -248 2154 0
-57 200 -335 2155 0
216 -256 473 2156 0
360 -91 -24 2157 0
420 192 232 2158 0
-465 281 464 2159 0
96 137 -20 2160 0
-264 -311 -381 2161 0
384 459 245 2162 0
471 -324 -446 2163 0
103 356 52 2164 0
-290 74 32 2165 0
-389 -195 161 2166 0
-464 -207 301 2167 0
176 251 -497 2168 0
287 -159 194 2169 0
336 -318 -444 2170 0
332 283 -452 2171 0
-13 469 127 2172 0
309 429 431 2173 0
-279 -443 -272 2174 0
-193 49 -464 2175 0
394 -213 207 2176 0
-365 -69 18 2177 0
-376 41 -42 2178 0
-250 -201 -110 2179 0
155 -285 42 2180 0
-385 -288 -220 2181 0
177 391 456 2182 0
388 -270 47 2183 0
-315 -209 -67 2184 0
-399 319 498 2185 0
20 -15 365 2186 0
137 23 219 2187 0
292 -304 -232 2188 0
166 225 -491 2189 0
88 -482 -181 2190 0
-226 -64 -358 2191 0
-154 321 -63 2192 0
-235 31 -298 2193 0
-199 -257 82 2194 0
351 438 408 2195 0
-164 -8 6 2196 0
92 -488 -392 2197 0
127 -478 -424 2198 0
-315 156 134 2199 0
402 -232 362 2200 0
9 201 480 2201 0
179 -72 364 2202 0
-480 471 -459 2203 0
-129 193 372 2204 0
-244 377 -358 2205 0
-334 333 -135 2206 0
381 -474 375 2207 0
160 -166 382 2208 0
32 -75 113 2209 0
-461 450 336 2210 0
435 -28 164 2211 0
-343 244 185 2212 0
72 452 -73 2213 0
-348 -90 232 2214 0
313 466 -420 2215 0
495 211 -268 2216 0
-191 -492 -243 2217 0
452 -357 -159 2218 0
-395 72 4 2219 0
480 -392 -46 2220 0
-284 -2 212 2221 0
274 12 -54 2222 0
-273 -187 -41 2223 0
-452 -198 343 2224 0
-26 353 331 2225 0
440 -484 -204 2226 0
274 180 -385 2227 0
-88 172 256 2228 0
-155 -491 -107 2229 0
-180 376 7 2230 0
231 80 235 2231 0
240 33 157 2232 0
-31 -479 100 2233 0
-22 3 -249 2234 0
371 20 145 2235 0
-250 -23 185 2236 0
129 79 -30 2237 0
316 395 71 2238 0
493 -179 242 2239 0
-441 -198 361 2240 0
-220 -376 389 2241 0
-74 -366 127 2242 0
355 378 -95 2243 0
405 128 119 2244 0
-476 -140 62 2245 0
-366 457 -249 2246 0
303 355 157 2247 0
100 -103 -191 2248 0
-337 340 -116 2249 0
93 -391 431 2250 0
-417 215 241 2251 0
-334 -63 -244 2252 0
-493 -10 -214 2253 0
-368 -430 -439 2254 0
84 296 -430 2255 0
486 -371 -177 2256 0
349 -489 284 2257 0
142 160 152 2258 0
303 181 -455 2259 0
307 454 -57 2260 0
209 114 321 2261 0
416 -106 -415 2262 0
167 -311 -458 2263 0
461 135 493 2264 0
-218 -309 361 2265 0
-293 -427 94 2266 0
-197 256 251 2267 0
329 -136 -108 2268 0
199 295 -160 2269 0
-249 -180 384 2270 0
-271 -453 348 2271 0
-238 295 290 2272 0
197 14 -122 2273 0
259 -479 -339 2274 0
149 318 388 2275 0
-354 91 16 2276 0
184 268 -128 2277 0
-339 258 -106 2278 0
337 240 217 2279 0
-414 -440 382 2280 0
-341 -224 -468 2281 0
317 289 -466 2282 0
-360 404 -156 2283 0
-4 -350 280 2284 0
-157 88 344 2285 0
442 47 -46 2286 0
327 -458 -85 2287 0
-288 39 268 2288 0
298 265 -440 2289 0
-298 -123 316 2290 0
-494 340 -233 2291 0
-473 291 -16 2292 0
-346 245 446 2293 0
340 195 360 2294 0
-199 -269 164 2295 0
420 -73 55 2296 0
-272 125 -225 2297 0
91 378 50 2298 0
255 -321 8 2299 0
-174 148 -471 2300 0
295 -60 -196 2301 0
98 208 122 2302 0
351 -119 -493 2303 0
318 208 222 2304 0
471 -261 464 2305 0
154 -269 -138 2306 0
-208 -78 305 2307 0
334 -414 -181 2308 0
-3 406 421 2309 0
-74 -356 -215 2310 0
356 35 482 2311 0
465 163 238 2312 0
-420 -265 454 2313 0
-478 416 -179 2314 0
-259 -82 -260 2315 0
-444 -457 -392 2316 0
456 -396 161 2317 0
15 372 -341 2318 0
407 -123 -396 2319 0
-117 -270 230 2320 0
-430 305 167 2321 0
-124 120 40 2322 0
424 92 171 2323 0
-216 -210 340 2324 0
463 58 40 2325 0
474 334 -500 2326 0
-338 240 -257 2327 0
-382 86 -70 2328 0
-458 -255 12 2329 0
-259 89 268 2330 0
404 -21 -439 2331 0
-26 43 162 2332 0
326 -245 -92 2333 0
-144 -51 244 2334 0
164 -403 343 2335 0
458 -183 -402 2336 0
90 -277 -252 2337 0
-372 56 -397 2338 0
-493 -30 -185 2339 0
-129 -359 157 2340 0
185 -163 -451 2341 0
260 78 -240 2342 0
-184 -237 -409 2343 0
151 57 405 2344 0
178 -25 -244 2345 0
12 347 -495 2346 0
-420 150 -90 2347 0
-121 437 -465 2348 0
-195 -20 141 2349 0
80 -319 -250 2350 0
-481 -227 343 2351 0
25 374 -169 2352 0
235 245 344 2353 0
-212 -303 -300 2354 0
-122 -114 112 2355 0
-195 -452 -240 2356 0
-147 -133 -98 2357 0
125 310 119 2358 0
-181 429 -94 2359 0
-14 89 -47 2360 0
139 273 -248 2361 0
-47 169 252 2362 0
-326 -188 293 2363 0
-155 -198 398 2364 0
325 -247 481 2365 0
-90 283 -295 2366 0
-463 -13 356 2367 0
-258 356 -52 2368 0
494 235 275 2369 0
-464 63 104 2370 0
104 -74 441 2371 0
311 -321 -278 2372 0
-126 -35 85 2373 0
-64 -173 404 2374 0
275 331 203 2375 0
413 285 479 2376 0
-27 56 293 2377 0
-247 -134 -230 2378 0
-361 -53 -144 2379 0
413 -437 -458 2380 0
-292 487 481 2381 0
218 292 -51 2382 0
-482 313 -335 2383 0
-205 -466 -210 2384 0
-246 -437 274 2385 0
331 -102 -411 2386 0
98 128 389 2387 0
-59 -75 470 2388 0
-356 366 207 2389 0
349 308 304 2390 0
135 -324 39 2391 0
198 236 -336 2392 0
-76 361 160 2393 0
190 -376 -46 2394 0
-441 -116 -367 2395 0
-436 -324 -255 2396 0
-122 -202 328 2397 0
449 29 368 2398 0
470 -361 -5 2399 0
-135 -466 -34 2400 0
-221 14 49 2401 0
432 330 -328 2402 0
-46 -374 -156 2403 0
-42 -68 -218 2404 0
-1 -326 232 2405 0
80 81 -396 2406 0
107 330 -142 2407 0
-300 378 -384 2408 0
-248 63 1 2409 0
494 315 318 2410 0
170 167 350 2411 0
-191 -468 -439 2412 0
-370 243 -135 2413 0
345 267 -187 2414 0
452 -491 251 2415 0
-422 323 241 2416 0
-494 154 -106 2417 0
-13 -362 -430 2418 0
-491 -177 -228 2419 0
332 -14 218 2420 0
30 -491 484 2421 0
426 -398 -217 2422 0
-447 -212 397 2423 0
275 -150 429 2424 0
-45 -297 276 2425 0
110 -234 -464 2426 0
52 -251 209 2427 0
250 66 12 2428 0
-19 -53 161 2429 0
-153 19 377 2430 0
308 27 -310 2431 0
439 178 -428 2432 0
-159 128 181 2433 0
-384 -122 -313 2434 0
-286 213 -71 2435 0
-267 -358 -73 2436 0
-41 -100 -150 2437 0
-491 -31 119 2438 0
-330 -109 -334 2439 0
-143 -183 159 2440 0
128 191 -123 2441 0
-222 244 -174 2442 0
-86 245 -290 2443 0
224 30 196 2444 0
231 57 -169 2445 0
200 -74 -414 2446 0
211 31 -451 2447 0
28 128 -190 2448 0
158 480 -199 2449 0
108 486 99 2450 0
-110 89 137 2451 0
312 -127 427 2452 0
383 2 -225 2453 0
271 160 260 2454 0
400 -245 -380 2455 0
126 89 403 2456 0
369 -31 -394 2457 0
-82 283 -226 2458 0
137 446 -1 2459 0
110 -423 390 2460 0
172 152 498 2461 0
394 94 -139 2462 0
152 -212 -254 2463 0
-342 -101 -111 2464 0
6 249 -392 2465 0
185 -247 -237 2466 0
212 223 -60 2467 0
277 418 -155 2468 0
322 -318 458 2469 0
-186 -381 324 2470 0
-371 368 -31 2471 0
-173 -484 -410 2472 0
195 -490 -282 2473 0
109 187 -318 2474 0
-273 -21 -93 2475 0
225 -343 -349 2476 0
-271 229 413 2477 0
415 -499 -15 2478 0
-334 465 196 2479 0
-244 -146 387 2480 0
-251 -372 16 2481 0
-126 -277 -293 2482 0
-87 472 453 2483 0
-421 18 293 2484 0
-199 -345 311 2485 0
-205 431 -357 2486 0
-494 -8 -147 2487 0
-445 -74 -241 2488 0
182 68 -21 2489 0
-66 -476 -303 2490 0
286 -485 151 2491 0
-302 -500 -52 2492 0
93 -54 134 2493 0
-392 97 434 2494 0
391 -20 -43 2495 0
249 177 -203 2496 0
317 -93 -433 2497 0
-483 46 -141 2498 0
208 469 -351 2499 0
17 195 179 2500 0
374 398 71 2501 0
-468 -277 -322 2502 0
46 -385 -420 2503 0
272 411 240 2504 0
-11 316 400 2505 0
-281 136 -260 2506 0
-248 -186 185 2507 0
229 -468 497 2508 0
-439 400 -352 2509 0
155 28 322 2510 0
50 -195 272 2511 0
-359 409 496 2512 0
29 114 -195 2513 0
452 -424 300 2514 0
218 -445 -265 2515 0
63 61 302 2516 0
195 108 497 2517 0
-2 344 485 2518 0
473 -490 287 2519 0
-429 487 -129 2520 0
293 329 292 2521 0
477 -466 308 2522 0
94 -367 -187 2523 0
481 -103 -272 2524 0
-203 171 480 2525 0
223 -39 155 2526 0
-27 -222 105 2527 0
325 -58 313 2528 0
-169 -298 267 2529 0
-268 -455 -79 2530 0
-133 420 -306 2531 0
-133 -186 -161 2532 0
430 -21 -360 2533 0
-6 -363 -62 2534 0
-495 -190 -341 2535 0
-467 302 -364 2536 0
-86 412 328 2537 0
276 -334 -278 2538 0
-142 260 35 2539 0
461 -337 82 2540 0
-423 -99 4 2541 0
-357 -462 -106 2542 0
-305 -326 -291 2543 0
-193 367 -4 2544 0
76 265 -132 2545 0
275 -343 308 2546 0
-187 200 198 2547 0
345 -185 -474 2548 0
127 253 -97 2549 0
-75 -449 -130 2550 0
-230 160 290 2551 0
116 -45 398 2552 0
-492 58 -136 2553 0
-120 344 -478 2554 0
-173 377 212 2555 0
-274 -228 123 2556 0
434 148 375 2557 0
-423 186 -162 2558 0
-44 -436 -195 2559 0
93 -233 205 2560 0
380 269 -167 2561 0
239 376 -333 2562 0
460 -67 -416 2563 0
-419 -36 258 2564 0
482 188 173 2565 0
236 -26 396 2566 0
104 169 67 2567 0
54 197 -284 2568 0
-247 -359 -184 2569 0
-451 -9 45 2570 0
37 -338 97 2571 0
369 461 83 2572 0
8 -212 -441 2573 0
-118 327 169 2574 0
-150 181 353 2575 0
-242 -382 -476 2576 0
-499 -152 228 2577 0
493 469 -156 2578 0
299 -387 442 2579 0
396 -401 453 2580 0
-363 170 -196 2581 0
350 409 -119 2582 0
430 -4 500 2583 0
-391 386 256 2584 0
391 11 -445 2585 0
-72 188 -141 2586 0
-117 361 -192 2587 0
-327 -353 447 2588 0
42 -221 361 2589 0
-480 93 -255 2590 0
389 -479 -248 2591 0
28 -128 148 2592 0
348 -484 -48 2593 0
420 -163 -215 2594 0
317 -310 -138 2595 0
373 141 -307 2596 0
-262 388 101 2597 0
129 -96 102 2598 0
304 -321 -451 2599 0
137 394 -493 2600 0
-431 -85 376 2601 0
289 -456 282 2602 0
-48 -45 377 2603 0
-443 -388 -310 2604 0
-392 272 461 2605 0
-483 -137 -14 2606 0
259 -267 -232 2607 0
-208 188 169 2608 0
310 -314 179 2609 0
158 258 174 2610 0
-137 293 -446 2611 0
103 372 308 2612 0
-44 356 474 2613 0
305 112 481 2614 0
122 -77 113 2615 0
-96 206 259 2616 0
402 242 -389 2617 0
132 -231 30 2618 0
232 -22 200 2619 0
478 497 -49 2620 0
182 48 -188 2621 0
-49 -486 -311 2622 0
-309 494 292 2623 0
-333 -1 -460 2624 0
-341 -115 93 2625 0
187 -14 -320 2626 0
-433 386 174 2627 0
418 -100 292 2628 0
-283 -150 72 2629 0
-500 -262 155 2630 0
38 -290 -286 2631 0
92 -417 -78 2632 0
-280 -476 315 2633 0
53 -221 -296 2634 0
459 -188 181 2635 0
-345 -26 384 2636 0
-456 75 -386 2637 0
474 -337 63 2638 0
257 334 194 2639 0
237 321 386 2640 0
-150 166 -17 2641 0
72 45 291 2642 0
-85 -181 399 2643 0
130 -326 348 2644 0
354 -357 244 2645 0
104 -371 143 2646 0
49 -474 189 2647 0
-488 -395 191 2648 0
382 75 -9 2649 0
270 -277 -105 2650 0
