p cnf 2650 2150
-121 435 420 501 0
213 -271 131 502 0
111 354 300 503 0
233 166 -58 504 0
-400 -452 98 505 0
-294 -117 -422 506 0
43 -349 -186 507 0
-419 -19 -121 508 0
-15 101 388 509 0
222 -342 -124 510 0
-84 194 -404 511 0
111 334 -79 512 0
186 -343 -402 513 0
-358 182 -99 514 0
-218 -335 -358 515 0
57 293 138 516 0
414 -50 2 517 0
-76 464 -116 518 0
-442 -331 270 519 0
-216 -159 133 520 0
-335 -165 354 521 0
-24 461 267 522 0
-138 91 -322 523 0
-371 -176 295 524 0
403 482 -81 525 0
142 127 30 526 0
251 346 -264 527 0
-116 32 -107 528 0
-250 493 169 529 0
-22 -175 -439 530 0
481 -8 -449 531 0
410 -160 441 532 0
481 192 51 533 0
431 171 -39 534 0
437 -429 401 535 0
-161 -125 26 536 0
-450 -419 183 537 0
-27 -425 -391 538 0
-410 -469 233 539 0
145 -386 216 540 0
-37 -302 431 541 0
434 -214 193 542 0
-406 -297 -371 543 0
-173 292 36 544 0
-271 66 127 545 0
-311 -230 -499 546 0
-426 -203 -500 547 0
125 449 394 548 0
-385 -196 208 549 0
185 -382 -117 550 0
-395 -458 -214 551 0
250 -375 129 552 0
-165 327 140 553 0
327 -57 -385 554 0
285 -85 -204 555 0
188 -69 121 556 0
-311 86 7 557 0
191 129 387 558 0
-308 451 -433 559 0
273 61 375 560 0
222 116 400 561 0
97 -115 445 562 0
-448 304 283 563 0
69 38 391 564 0
256 -127 -323 565 0
-4 -209 136 566 0
-234 -40 -187 567 0
-475 -50 -194 568 0
228 188 400 569 0
-310 80 10 570 0
314 497 95 571 0
-492 -336 -371 572 0
-214 399 -403 573 0
-27 -78 -363 574 0
421 -410 -394 575 0
-74 19 312 576 0
-37 86 197 577 0
-1 -292 -6 578 0
-312 -247 48 579 0
489 -197 -52 580 0
388 -201 -311 581 0
-266 149 -210 582 0
73 -362 -133 583 0
-15 -401 -329 584 0
-490 215 -38 585 0
330 324 179 586 0
-347 172 -22 587 0
319 397 -499 588 0
147 -289 -25 589 0
183 -263 75 590 0
219 -335 339 591 0
-44 -180 -308 592 0
215 -281 353 593 0
-463 251 -312 594 0
-143 24 -189 595 0
251 -483 316 596 0
390 182 184 597 0
-29 225 -400 598 0
-299 500 -382 599 0
-110 -425 82 600 0
119 -358 253 601 0
17 286 -177 602 0
10 103 286 603 0
341 -331 161 604 0
454 150 452 605 0
-69 168 79 606 0
-216 -275 234 607 0
26 -467 365 608 0
365 -195 -224 609 0
-451 281 -380 610 0
284 19 -123 611 0
345 -480 391 612 0
94 -222 -372 613 0
49 -370 3 614 0
102 185 -184 615 0
413 -343 1 616 0
163 72 -356 617 0
-72 -140 412 618 0
408 -211 -457 619 0
-276 445 -173 620 0
374 197 -346 621 0
-50 432 462 622 0
-455 24 196 623 0
417 117 -314 624 0
423 -70 -245 625 0
442 3 75 626 0
432 276 281 627 0
295 424 121 628 0
-409 80 -156 629 0
319 -394 -390 630 0
81 339 -279 631 0
-16 -318 125 632 0
-151 -304 161 633 0
-212 55 122 634 0
-281 268 -63 635 0
417 -299 -241 636 0
347 -388 201 637 0
-170 130 387 638 0
361 -4 -321 639 0
-466 220 -455 640 0
-463 -224 -274 641 0
-321 -106 138 642 0
-485 191 489 643 0
146 37 74 644 0
-211 -269 311 645 0
-292 140 79 646 0
498 -315 385 647 0
-26 197 -492 648 0
41 191 286 649 0
-338 17 -90 650 0
197 -233 49 651 0
-435 -215 269 652 0
270 138 -118 653 0
-155 145 302 654 0
213 -59 288 655 0
18 -254 166 656 0
-107 153 -500 657 0
24 -482 464 658 0
-96 91 177 659 0
-29 258 -282 660 0
72 -128 285 661 0
-260 -183 -496 662 0
361 183 -266 663 0
342 -370 12 664 0
185 -312 -74 665 0
460 434 -423 666 0
475 -264 -238 667 0
-392 -292 117 668 0
81 -50 472 669 0
183 -405 337 670 0
145 313 64 671 0
425 -131 128 672 0
-310 361 -35 673 0
119 55 399 674 0
-435 203 297 675 0
-232 -226 -248 676 0
360 -395 381 677 0
-464 -6 -371 678 0
-153 -181 -37 679 0
-375 354 -479 680 0
-192 -120 -30 681 0
-323 -320 -277 682 0
-436 -15 -118 683 0
381 -450 -47 684 0
-371 -61 186 685 0
16 -22 218 686 0
-403 -277 -30 687 0
-288 49 78 688 0
-344 52 458 689 0
380 -455 -38 690 0
-481 363 -126 691 0
-189 343 -57 692 0
247 495 399 693 0
-100 -195 -421 694 0
82 225 -345 695 0
-176 -258 454 696 0
-258 349 -183 697 0
240 -311 -419 698 0
328 279 278 699 0
-401 -122 -105 700 0
315 150 -140 701 0
-470 -326 384 702 0
95 278 -412 703 0
-460 -359 497 704 0
-324 -279 -186 705 0
266 94 -269 706 0
130 -242 -28 707 0
50 -272 -34 708 0
335 56 -334 709 0
111 -374 361 710 0
-93 12 -454 711 0
-91 139 299 712 0
-135 450 46 713 0
309 93 -240 714 0
-139 -300 395 715 0
204 -63 -114 716 0
-21 260 331 717 0
38 429 162 718 0
-328 76 275 719 0
187 -112 -432 720 0
346 -33 -455 721 0
-139 441 -10 722 0
-151 162 -122 723 0
156 -193 459 724 0
440 -149 -351 725 0
-447 169 332 726 0
-366 467 223 727 0
-117 372 -168 728 0
149 167 216 729 0
323 191 -436 730 0
-475 -438 -227 731 0
500 -212 76 732 0
473 -85 20 733 0
121 -297 -186 734 0
28 -139 316 735 0
-467 -285 339 736 0
-267 321 -279 737 0
-86 -12 -40 738 0
1 300 144 739 0
310 318 -191 740 0
-136 -161 410 741 0
-215 -54 -132 742 0
472 263 452 743 0
66 -120 -494 744 0
358 -294 471 745 0
-57 -449 224 746 0
-204 115 -442 747 0
309 -10 195 748 0
72 474 -182 749 0
433 275 -254 750 0
168 -429 187 751 0
-216 380 136 752 0
159 -12 -192 753 0
420 327 313 754 0
232 -286 287 755 0
114 328 17 756 0
117 428 -127 757 0
-448 247 314 758 0
-254 -21 -304 759 0
-492 -375 299 760 0
-228 -203 -305 761 0
-146 192 -427 762 0
490 -404 -258 763 0
-371 225 334 764 0
321 174 -246 765 0
15 104 223 766 0
-105 -146 -490 767 0
209 -315 -313 768 0
-343 -322 -103 769 0
488 382 204 770 0
28 215 -379 771 0
8 380 218 772 0
-416 187 383 773 0
326 219 103 774 0
-27 -433 462 775 0
-433 449 427 776 0
461 -341 -289 777 0
443 102 -117 778 0
369 -463 293 779 0
-471 118 495 780 0
426 -29 -134 781 0
-472 485 -418 782 0
-133 -83 -313 783 0
118 255 340 784 0
-180 -379 -199 785 0
-172 331 -11 786 0
384 362 -80 787 0
-493 -205 433 788 0
-403 205 -155 789 0
212 62 -497 790 0
456 -373 -162 791 0
-403 238 -335 792 0
462 -26 -418 793 0
-382 -273 -345 794 0
264 376 477 795 0
276 292 -35 796 0
-287 499 -195 797 0
469 80 -133 798 0
-34 -214 -497 799 0
-416 263 256 800 0
283 474 407 801 0
145 127 -332 802 0
4 -356 288 803 0
-203 -4 379 804 0
342 -52 189 805 0
-249 390 358 806 0
255 171 183 807 0
387 293 131 808 0
-314 -456 -106 809 0
-110 301 -55 810 0
197 177 -213 811 0
-250 -444 126 812 0
-12 98 -63 813 0
142 -294 -229 814 0
336 469 182 815 0
-91 -358 221 816 0
-194 32 240 817 0
-111 -163 23 818 0
495 -387 348 819 0
-215 -146 66 820 0
-328 313 254 821 0
132 143 439 822 0
-70 -263 -431 823 0
-39 161 439 824 0
27 -435 37 825 0
301 496 -494 826 0
497 167 88 827 0
478 157 116 828 0
114 296 494 829 0
-257 66 218 830 0
155 237 -483 831 0
-292 40 199 832 0
-393 97 -450 833 0
-313 406 397 834 0
387 -427 108 835 0
138 -168 -438 836 0
112 413 177 837 0
118 100 155 838 0
132 -145 -293 839 0
57 -69 108 840 0
194 245 368 841 0
236 230 73 842 0
464 334 -232 843 0
-400 -378 -303 844 0
-323 -403 195 845 0
-498 106 427 846 0
-442 -144 -339 847 0
2 -392 -281 848 0
374 6 -22 849 0
-213 -334 -192 850 0
-325 363 -393 851 0
-228 -415 392 852 0
32 314 -57 853 0
-451 -165 -105 854 0
-234 224 472 855 0
-352 190 34 856 0
-379 -30 -56 857 0
-77 -29 -34 858 0
-146 279 -182 859 0
-489 -317 272 860 0
-125 -276 282 861 0
-3 -498 129 862 0
228 -124 -111 863 0
-348 -165 -275 864 0
-250 64 364 865 0
-238 -188 -89 866 0
-141 -66 477 867 0
-337 140 -234 868 0
410 392 43 869 0
-424 50 234 870 0
-367 280 21 871 0
-254 -309 219 872 0
374 314 188 873 0
243 284 279 874 0
-134 306 -14 875 0
-20 424 264 876 0
448 365 -313 877 0
361 -327 -433 878 0
92 -475 -257 879 0
464 -82 -197 880 0
58 399 233 881 0
495 71 425 882 0
56 -206 -347 883 0
-18 394 -377 884 0
255 -496 170 885 0
424 -251 -451 886 0
165 -28 90 887 0
-85 189 -210 888 0
324 345 26 889 0
-325 -52 228 890 0
-376 307 -233 891 0
-85 -164 -286 892 0
-127 -220 304 893 0
-440 -425 99 894 0
-170 -395 -173 895 0
50 -254 -183 896 0
369 327 147 897 0
-230 -486 381 898 0
10 -129 90 899 0
211 -461 286 900 0
416 -22 216 901 0
-307 -394 220 902 0
457 394 161 903 0
456 -465 390 904 0
-381 -365 -22 905 0
90 108 -84 906 0
-405 401 85 907 0
-489 50 446 908 0
-221 -271 290 909 0
-403 -400 393 910 0
88 111 225 911 0
71 -279 81 912 0
-270 -187 379 913 0
-415 18 12 914 0
-464 151 347 915 0
307 -10 162 916 0
134 414 -249 917 0
-395 404 416 918 0
-499 -449 -105 919 0
-230 -59 326 920 0
-390 -227 477 921 0
-472 -182 -254 922 0
60 43 -89 923 0
381 225 453 924 0
-490 -370 -418 925 0
208 252 -255 926 0
228 -396 -103 927 0
-73 -336 439 928 0
1 -492 53 929 0
268 -57 -331 930 0
-413 -228 -296 931 0
-57 -354 -202 932 0
-440 -199 162 933 0
-293 84 -481 934 0
3 -90 392 935 0
-317 488 128 936 0
-384 -120 16 937 0
285 154 -416 938 0
72 230 -85 939 0
473 53 361 940 0
-178 376 -391 941 0
-445 -249 469 942 0
68 -359 107 943 0
155 -419 -401 944 0
-220 -209 -484 945 0
-439 131 -490 946 0
234 -459 82 947 0
-174 360 -318 948 0
-123 162 478 949 0
-229 196 -403 950 0
44 399 -379 951 0
136 400 -382 952 0
111 35 -351 953 0
455 158 215 954 0
-450 -181 -270 955 0
-1 29 273 956 0
442 -164 328 957 0
-483 330 -306 958 0
147 408 474 959 0
453 127 -5 960 0
453 249 18 961 0
-3 -258 -273 962 0
132 -438 -92 963 0
127 227 379 964 0
-94 -467 408 965 0
-375 306 103 966 0
-93 110 144 967 0
-53 363 -318 968 0
-92 169 -86 969 0
424 81 362 970 0
-322 -450 241 971 0
373 -415 -119 972 0
326 -384 -198 973 0
-134 265 451 974 0
266 -385 -340 975 0
-331 500 149 976 0
212 -18 4 977 0
-269 193 465 978 0
403 -421 -58 979 0
235 456 -233 980 0
16 -363 185 981 0
-412 312 -253 982 0
-386 199 -66 983 0
-114 368 -42 984 0
293 -232 -114 985 0
-20 -356 162 986 0
-391 -145 4 987 0
-425 62 368 988 0
-264 332 -63 989 0
419 -48 380 990 0
347 -453 -423 991 0
278 22 358 992 0
-213 46 8 993 0
-335 246 465 994 0
-225 2 -444 995 0
-156 171 -370 996 0
190 -287 -493 997 0
4 -326 78 998 0
-14 -305 -324 999 0
259 174 2 1000 0
23 479 362 1001 0
-95 -12 -410 1002 0
-355 29 467 1003 0
-423 198 -499 1004 0
74 -189 366 1005 0
116 234 -307 1006 0
-414 426 354 1007 0
106 -322 -417 1008 0
324 55 370 1009 0
233 397 296 1010 0
393 96 -279 1011 0
126 390 476 1012 0
249 -328 -42 1013 0
-263 -172 458 1014 0
-308 180 393 1015 0
158 -124 463 1016 0
232 439 -328 1017 0
432 65 -193 1018 0
33 402 -485 1019 0
410 228 160 1020 0
-187 32 -254 1021 0
-280 -371 -313 1022 0
266 240 -483 1023 0
-130 164 428 1024 0
-300 -1 233 1025 0
-348 354 -143 1026 0
253 404 -195 1027 0
340 194 458 1028 0
366 -26 243 1029 0
-109 341 448 1030 0
375 -472 20 1031 0
48 -471 -284 1032 0
-209 -307 -129 1033 0
226 -318 73 1034 0
433 170 -466 1035 0
190 324 171 1036 0
-182 -176 -124 1037 0
-432 -92 318 1038 0
123 -94 -70 1039 0
-353 -410 -11 1040 0
117 375 16 1041 0
374 -400 119 1042 0
-265 215 -200 1043 0
-450 -260 33 1044 0
49 -314 151 1045 0
253 -420 -293 1046 0
-175 358 365 1047 0
-130 376 318 1048 0
278 15 -445 1049 0
489 -375 53 1050 0
-445 -286 424 1051 0
-350 272 -483 1052 0
-164 -177 36 1053 0
-427 303 -223 1054 0
-194 39 226 1055 0
-80 -380 99 1056 0
366 -100 230 1057 0
378 109 264 1058 0
9 -87 473 1059 0
-437 64 398 1060 0
395 -418 194 1061 0
-131 -200 -162 1062 0
-355 163 -298 1063 0
9 -140 256 1064 0
352 452 256 1065 0
-305 147 453 1066 0
-316 -159 265 1067 0
267 -316 -149 1068 0
-123 -351 65 1069 0
-248 6 156 1070 0
-301 63 333 1071 0
-400 311 -498 1072 0
47 319 -347 1073 0
136 372 -83 1074 0
-118 256 73 1075 0
-470 153 69 1076 0
-29 -371 60 1077 0
-120 230 -394 1078 0
454 66 201 1079 0
79 6 74 1080 0
-151 16 -268 1081 0
-473 247 -468 1082 0
-331 323 -322 1083 0
-120 369 -265 1084 0
101 352 -19 1085 0
196 -388 -173 1086 0
-68 140 451 1087 0
109 124 15 1088 0
362 -224 147 1089 0
-309 -200 17 1090 0
143 -92 221 1091 0
-399 112 304 1092 0
-304 -448 -4 1093 0
-68 151 -36 1094 0
499 53 -492 1095 0
494 -242 -187 1096 0
-98 49 348 1097 0
200 -10 -166 1098 0
-102 -130 36 1099 0
-199 197 450 1100 0
-188 457 469 1101 0
335 -147 -86 1102 0
12 286 438 1103 0
-424 -157 -32 1104 0
-40 446 -94 1105 0
375 323 -209 1106 0
-58 338 489 1107 0
381 -372 123 1108 0
41 364 -240 1109 0
21 -241 390 1110 0
-273 -260 -419 1111 0
-145 95 274 1112 0
87 471 -243 1113 0
57 244 367 1114 0
249 -345 -286 1115 0
9 168 271 1116 0
-353 380 -419 1117 0
-175 -67 225 1118 0
-54 -390 -421 1119 0
-141 100 -282 1120 0
82 71 -288 1121 0
180 321 -367 1122 0
381 -488 88 1123 0
-153 305 215 1124 0
458 -350 261 1125 0
-93 279 490 1126 0
-390 118 -417 1127 0
376 70 474 1128 0
351 221 -373 1129 0
393 -437 201 1130 0
284 370 242 1131 0
453 -185 -186 1132 0
-18 -118 -158 1133 0
-293 -163 145 1134 0
218 229 61 1135 0
117 -78 135 1136 0
-212 177 151 1137 0
-223 429 -293 1138 0
-499 370 270 1139 0
428 -438 -191 1140 0
-4 -132 -201 1141 0
355 3 -106 1142 0
-416 -124 -436 1143 0
33 223 252 1144 0
388 -161 -225 1145 0
-173 -53 -116 1146 0
-305 396 -280 1147 0
254 303 222 1148 0
350 -360 247 1149 0
-215 -190 -355 1150 0
-177 -26 472 1151 0
71 -147 -86 1152 0
-56 -137 -321 1153 0
-219 116 233 1154 0
-17 139 160 1155 0
-390 162 -131 1156 0
133 368 91 1157 0
-376 55 -130 1158 0
197 215 -267 1159 0
226 -468 -188 1160 0
-175 46 -147 1161 0
-349 385 -414 1162 0
52 -246 499 1163 0
-35 -378 -459 1164 0
-169 8 -25 1165 0
-293 63 -419 1166 0
137 22 344 1167 0
29 3 -312 1168 0
113 -197 -62 1169 0
-10 -287 -56 1170 0
-424 470 -230 1171 0
-43 -325 444 1172 0
-166 26 237 1173 0
-491 349 403 1174 0
209 -215 -472 1175 0
-101 -469 470 1176 0
387 -42 -125 1177 0
214 -49 -102 1178 0
30 77 -380 1179 0
-369 -69 82 1180 0
-240 -346 -425 1181 0
284 -388 387 1182 0
67 326 168 1183 0
108 419 345 1184 0
326 297 167 1185 0
236 -201 468 1186 0
-384 401 218 1187 0
-489 487 111 1188 0
366 150 200 1189 0
352 116 15 1190 0
-312 -191 -110 1191 0
132 -269 384 1192 0
357 -326 -436 1193 0
313 -88 -135 1194 0
149 -276 -267 1195 0
-344 -79 170 1196 0
-108 -487 -413 1197 0
254 -201 -115 1198 0
-275 267 191 1199 0
-382 -77 110 1200 0
-182 71 -289 1201 0
470 30 -75 1202 0
-117 -406 -212 1203 0
-115 344 313 1204 0
19 440 322 1205 0
389 385 -279 1206 0
-172 33 35 1207 0
-261 -500 258 1208 0
-464 8 493 1209 0
-443 253 -322 1210 0
250 169 -176 1211 0
-309 449 -243 1212 0
-409 -125 -466 1213 0
-358 -37 324 1214 0
-227 -60 -274 1215 0
-109 251 -245 1216 0
-241 49 -182 1217 0
-415 455 312 1218 0
-490 -204 319 1219 0
450 -221 65 1220 0
263 -56 376 1221 0
-234 205 31 1222 0
-460 129 227 1223 0
-192 119 234 1224 0
-270 -156 186 1225 0
420 301 251 1226 0
-422 167 -61 1227 0
-108 384 469 1228 0
479 229 -344 1229 0
93 -43 -471 1230 0
-183 -405 -492 1231 0
-462 -441 -220 1232 0
6 -169 -4 1233 0
-7 409 294 1234 0
230 -385 479 1235 0
178 -100 187 1236 0
-18 49 62 1237 0
330 474 -264 1238 0
-110 -340 122 1239 0
366 -5 -97 1240 0
-300 -257 -396 1241 0
-289 371 347 1242 0
-200 -382 144 1243 0
-133 249 174 1244 0
-448 -101 187 1245 0
133 -168 -134 1246 0
-153 -86 447 1247 0
339 323 107 1248 0
-125 -465 -26 1249 0
-287 -463 -204 1250 0
-443 -440 300 1251 0
119 -91 333 1252 0
164 473 434 1253 0
-337 -241 291 1254 0
-412 -491 -378 1255 0
-100 -348 -389 1256 0
-375 -415 -413 1257 0
27 -464 145 1258 0
-397 236 368 1259 0
225 432 -380 1260 0
63 -259 -449 1261 0
52 474 344 1262 0
470 380 -431 1263 0
219 485 433 1264 0
166 158 -442 1265 0
446 -391 408 1266 0
-129 214 -114 1267 0
-37 442 218 1268 0
-24 87 405 1269 0
323 -3 83 1270 0
237 338 262 1271 0
-55 318 -469 1272 0
299 134 24 1273 0
214 -228 -10 1274 0
303 363 -42 1275 0
288 417 82 1276 0
-139 236 388 1277 0
-379 146 426 1278 0
-284 -472 -125 1279 0
391 -347 304 1280 0
275 467 273 1281 0
53 -38 317 1282 0
-249 363 -148 1283 0
-55 52 -246 1284 0
-460 -139 -153 1285 0
-257 -369 52 1286 0
213 249 -24 1287 0
-492 469 107 1288 0
452 59 101 1289 0
445 -195 -331 1290 0
11 -462 152 1291 0
431 -135 481 1292 0
-393 171 443 1293 0
-389 115 -470 1294 0
343 49 426 1295 0
122 398 -322 1296 0
-88 -158 358 1297 0
438 -348 177 1298 0
224 -136 -432 1299 0
409 235 -287 1300 0
269 -396 -387 1301 0
-482 146 327 1302 0
-95 384 255 1303 0
83 -311 98 1304 0
-83 91 -391 1305 0
116 -255 300 1306 0
260 198 -484 1307 0
-8 395 146 1308 0
284 -136 473 1309 0
-362 27 486 1310 0
-227 -192 402 1311 0
176 -204 -253 1312 0
-324 -104 459 1313 0
-332 -53 -138 1314 0
-268 -126 -208 1315 0
-134 385 76 1316 0
-180 -190 -91 1317 0
469 33 110 1318 0
-221 58 -302 1319 0
213 -444 389 1320 0
246 143 -312 1321 0
385 -415 -30 1322 0
-190 24 35 1323 0
258 40 -188 1324 0
7 212 -499 1325 0
-176 -388 -315 1326 0
428 458 249 1327 0
269 -390 -168 1328 0
20 -5 172 1329 0
65 -386 -320 1330 0
-102 -365 250 1331 0
-312 477 -418 1332 0
-22 -164 112 1333 0
369 -376 372 1334 0
461 122 245 1335 0
465 -245 -374 1336 0
241 -144 -297 1337 0
474 408 347 1338 0
457 228 223 1339 0
8 178 -341 1340 0
170 -13 327 1341 0
-289 157 -123 1342 0
274 200 -262 1343 0
-10 -273 86 1344 0
25 -150 365 1345 0
195 -393 -356 1346 0
-455 94 91 1347 0
276 177 266 1348 0
449 -97 -369 1349 0
-372 -243 -275 1350 0
-494 479 -364 1351 0
-430 -328 212 1352 0
307 -80 112 1353 0
-230 417 376 1354 0
-53 -164 364 1355 0
-243 -188 388 1356 0
235 -99 -295 1357 0
-145 -303 422 1358 0
283 47 -424 1359 0
-274 -335 -395 1360 0
134 309 360 1361 0
-190 45 -342 1362 0
206 -18 -117 1363 0
427 -331 -409 1364 0
-302 -181 381 1365 0
480 -443 487 1366 0
160 -15 150 1367 0
421 323 245 1368 0
280 -38 -378 1369 0
447 415 91 1370 0
312 -323 -384 1371 0
304 493 66 1372 0
98 120 -142 1373 0
71 -230 -341 1374 0
-313 183 414 1375 0
255 -95 238 1376 0
388 -23 495 1377 0
-214 358 135 1378 0
-31 484 180 1379 0
-35 -41 -59 1380 0
-139 -84 377 1381 0
-230 26 -342 1382 0
-373 461 -363 1383 0
-291 241 35 1384 0
463 -331 -352 1385 0
-135 359 -211 1386 0
-273 -437 -413 1387 0
26 -381 -40 1388 0
156 -467 -263 1389 0
235 -270 236 1390 0
-94 281 96 1391 0
310 129 -77 1392 0
-191 -376 110 1393 0
-427 360 -164 1394 0
306 261 -345 1395 0
-293 -54 205 1396 0
-125 -200 299 1397 0
-327 440 194 1398 0
455 93 155 1399 0
-125 -149 361 1400 0
313 95 -194 1401 0
130 -417 -468 1402 0
42 -34 191 1403 0
43 -404 262 1404 0
-354 301 -130 1405 0
-279 326 246 1406 0
-402 366 -110 1407 0
392 295 -348 1408 0
358 76 197 1409 0
-223 -357 -180 1410 0
-178 376 -191 1411 0
410 -19 438 1412 0
449 -62 164 1413 0
-91 -436 -488 1414 0
407 465 -244 1415 0
352 295 -495 1416 0
-135 171 -56 1417 0
112 -123 -415 1418 0
-202 -496 493 1419 0
-233 232 -104 1420 0
444 63 16 1421 0
-182 -399 147 1422 0
-6 -484 -336 1423 0
183 -152 205 1424 0
93 120 309 1425 0
-435 445 -24 1426 0
-157 -481 7 1427 0
-74 -426 133 1428 0
352 -171 -438 1429 0
-338 391 268 1430 0
-121 360 -278 1431 0
305 -228 263 1432 0
76 408 -215 1433 0
-467 232 372 1434 0
12 -52 -187 1435 0
124 291 -185 1436 0
311 217 395 1437 0
123 149 -480 1438 0
270 -194 -384 1439 0
-251 450 24 1440 0
-237 41 -483 1441 0
340 -117 -413 1442 0
179 -285 307 1443 0
-152 316 -495 1444 0
-233 -242 -278 1445 0
-43 215 -115 1446 0
-133 277 352 1447 0
-148 407 125 1448 0
230 94 348 1449 0
-455 -412 343 1450 0
492 126 440 1451 0
-225 -446 338 1452 0
432 -452 -372 1453 0
-87 -332 78 1454 0
-416 -459 211 1455 0
254 -60 -338 1456 0
483 -263 -258 1457 0
-303 -106 -37 1458 0
500 416 -324 1459 0
157 130 -230 1460 0
349 -70 266 1461 0
-123 -2 221 1462 0
-153 430 81 1463 0
-168 7 316 1464 0
177 297 -63 1465 0
157 -35 -79 1466 0
-485 -484 -60 1467 0
491 370 -197 1468 0
448 119 199 1469 0
-385 -422 -474 1470 0
252 116 -139 1471 0
-235 -370 483 1472 0
341 -146 -407 1473 0
-189 -214 36 1474 0
-142 164 297 1475 0
179 195 155 1476 0
436 25 -60 1477 0
-57 89 287 1478 0
-261 -361 -439 1479 0
-30 174 176 1480 0
-468 34 51 1481 0
111 410 -366 1482 0
-392 -314 -284 1483 0
238 -327 -169 1484 0
-422 187 192 1485 0
248 76 363 1486 0
341 -53 191 1487 0
113 -380 454 1488 0
140 -151 89 1489 0
306 -103 221 1490 0
260 411 116 1491 0
-112 -480 -103 1492 0
-101 -467 133 1493 0
47 2 230 1494 0
-47 32 80 1495 0
149 -100 110 1496 0
-72 -49 336 1497 0
-238 -358 -61 1498 0
-248 301 33 1499 0
-139 -441 -214 1500 0
132 -291 -46 1501 0
-98 -101 -176 1502 0
-385 113 -243 1503 0
62 66 290 1504 0
-369 -28 346 1505 0
302 -138 433 1506 0
-76 312 222 1507 0
-183 292 -176 1508 0
492 302 -417 1509 0
-474 -11 -242 1510 0
398 500 117 1511 0
-22 -145 463 1512 0
58 397 -498 1513 0
17 -403 -168 1514 0
-420 482 -390 1515 0
-281 -274 188 1516 0
-177 456 -145 1517 0
362 -317 -380 1518 0
-264 -241 -222 1519 0
138 370 263 1520 0
-497 157 90 1521 0
-456 -294 -328 1522 0
33 -72 -31 1523 0
236 -31 455 1524 0
140 -385 392 1525 0
415 170 -44 1526 0
-226 -104 488 1527 0
147 -18 -494 1528 0
222 65 140 1529 0
-37 -117 133 1530 0
-354 -40 469 1531 0
234 222 142 1532 0
131 -144 254 1533 0
86 -52 240 1534 0
-39 313 -355 1535 0
251 390 96 1536 0
204 -344 -173 1537 0
-83 455 82 1538 0
-293 317 -182 1539 0
211 194 -15 1540 0
220 -399 316 1541 0
-319 -426 46 1542 0
459 -197 464 1543 0
-71 -202 -228 1544 0
304 122 -96 1545 0
151 414 187 1546 0
-75 -146 -451 1547 0
-195 -440 -460 1548 0
255 85 -461 1549 0
221 -479 -362 1550 0
-64 -153 440 1551 0
-302 -146 -225 1552 0
-110 26 244 1553 0
440 83 266 1554 0
285 -43 -468 1555 0
-131 314 159 1556 0
-100 417 159 1557 0
354 437 -190 1558 0
411 465 187 1559 0
145 -136 -270 1560 0
18 -323 21 1561 0
17 -467 272 1562 0
-253 287 -250 1563 0
42 -84 298 1564 0
113 -404 -478 1565 0
121 208 60 1566 0
336 -18 -181 1567 0
337 264 110 1568 0
354 53 452 1569 0
-477 -180 -288 1570 0
192 355 97 1571 0
422 119 460 1572 0
51 29 208 1573 0
414 421 399 1574 0
-292 74 -43 1575 0
-292 99 56 1576 0
-181 302 -427 1577 0
-488 251 -353 1578 0
272 -241 -421 1579 0
-390 -480 -83 1580 0
125 -404 -487 1581 0
157 218 -62 1582 0
-349 321 -312 1583 0
-150 446 -255 1584 0
312 137 269 1585 0
-278 132 82 1586 0
-323 258 -482 1587 0
-67 -288 173 1588 0
200 -298 -418 1589 0
268 477 57 1590 0
-230 150 -131 1591 0
-126 299 98 1592 0
-256 -108 -35 1593 0
301 -209 288 1594 0
210 -266 299 1595 0
-473 -146 -400 1596 0
249 499 -75 1597 0
-477 -320 -367 1598 0
302 -400 -451 1599 0
-103 333 14 1600 0
-62 84 48 1601 0
-423 -237 -201 1602 0
-493 -49 393 1603 0
158 468 202 1604 0
-33 349 407 1605 0
487 101 -19 1606 0
-26 -169 327 1607 0
149 327 346 1608 0
-79 -360 -4 1609 0
-79 121 246 1610 0
-467 390 -417 1611 0
-115 -334 299 1612 0
-292 378 -460 1613 0
287 383 60 1614 0
-382 -19 -172 1615 0
465 242 -148 1616 0
58 427 144 1617 0
-108 131 -466 1618 0
-421 -273 -26 1619 0
-393 -195 -157 1620 0
-134 -283 262 1621 0
-365 -280 -259 1622 0
132 56 98 1623 0
226 402 -85 1624 0
142 -413 -102 1625 0
-308 -269 353 1626 0
-85 -246 -369 1627 0
453 -131 378 1628 0
260 -359 -242 1629 0
-327 -215 -278 1630 0
18 -416 -91 1631 0
113 -276 -319 1632 0
261 104 113 1633 0
298 -179 27 1634 0
-26 169 420 1635 0
490 -101 -366 1636 0
238 -466 84 1637 0
436 211 240 1638 0
-303 -98 -414 1639 0
282 191 153 1640 0
383 -13 -441 1641 0
86 -218 254 1642 0
328 -437 239 1643 0
-147 476 -174 1644 0
-277 7 -179 1645 0
426 -97 111 1646 0
302 327 -315 1647 0
-47 295 492 1648 0
-472 -166 -345 1649 0
30 322 -61 1650 0
405 38 59 1651 0
442 -226 299 1652 0
-465 215 139 1653 0
365 202 -247 1654 0
-466 -11 405 1655 0
-165 194 -498 1656 0
448 22 67 1657 0
218 -19 -364 1658 0
-395 47 206 1659 0
-152 -184 451 1660 0
-487 395 -206 1661 0
-473 158 -200 1662 0
-167 270 45 1663 0
-164 227 425 1664 0
-296 -461 255 1665 0
190 180 158 1666 0
-398 58 326 1667 0
-202 493 3 1668 0
82 484 337 1669 0
-198 32 -491 1670 0
492 -15 289 1671 0
-326 -135 366 1672 0
457 -122 -315 1673 0
397 93 -324 1674 0
400 -59 -388 1675 0
295 60 462 1676 0
-41 -381 209 1677 0
8 278 -233 1678 0
338 -77 -242 1679 0
393 184 -166 1680 0
-359 -120 114 1681 0
107 -417 226 1682 0
-400 234 -105 1683 0
317 -229 -75 1684 0
-272 -173 -450 1685 0
143 403 215 1686 0
37 -214 -404 1687 0
468 -218 -108 1688 0
-29 458 -248 1689 0
239 6 -85 1690 0
-115 -172 393 1691 0
-264 366 -265 1692 0
260 -115 33 1693 0
-68 -466 234 1694 0
335 -69 436 1695 0
146 -432 447 1696 0
230 352 -416 1697 0
-182 361 356 1698 0
443 -388 181 1699 0
-56 -247 249 1700 0
381 439 -330 1701 0
454 478 348 1702 0
38 24 -105 1703 0
-430 -271 -479 1704 0
-289 -117 304 1705 0
322 49 270 1706 0
-329 16 -449 1707 0
-328 -342 -102 1708 0
347 441 -209 1709 0
-1 451 493 1710 0
-106 -274 -476 1711 0
234 -298 -330 1712 0
-452 234 411 1713 0
360 370 427 1714 0
-11 -31 -227 1715 0
142 -81 28 1716 0
247 384 -329 1717 0
-38 -216 -199 1718 0
-92 -234 -478 1719 0
171 -167 307 1720 0
-134 400 -71 1721 0
-42 -232 420 1722 0
-341 390 220 1723 0
103 389 -353 1724 0
-72 105 70 1725 0
197 -161 -118 1726 0
-13 401 235 1727 0
300 -372 441 1728 0
290 13 328 1729 0
-248 -23 -344 1730 0
-95 130 -381 1731 0
438 -399 218 1732 0
456 -70 -485 1733 0
-178 -143 -320 1734 0
-37 238 -344 1735 0
-442 -95 -498 1736 0
-64 -216 -354 1737 0
432 -16 -243 1738 0
-215 -473 486 1739 0
70 191 276 1740 0
-292 -37 138 1741 0
360 42 -173 1742 0
54 400 -83 1743 0
-432 112 152 1744 0
-368 147 -335 1745 0
-92 -235 7 1746 0
102 100 112 1747 0
378 83 -403 1748 0
403 297 393 1749 0
-247 324 -389 1750 0
-209 -464 148 1751 0
363 126 -109 1752 0
-462 -353 -114 1753 0
3 -13 -204 1754 0
163 -111 -267 1755 0
131 -425 -292 1756 0
493 -408 424 1757 0
-396 -276 -279 1758 0
-98 247 12 1759 0
415 500 204 1760 0
140 -250 -195 1761 0
-77 -315 438 1762 0
-329 -247 -124 1763 0
138 -220 -299 1764 0
-276 -476 -241 1765 0
-404 -67 66 1766 0
-217 277 354 1767 0
-356 402 -322 1768 0
343 -47 -472 1769 0
118 355 377 1770 0
-402 -411 -14 1771 0
212 -275 299 1772 0
174 -41 -161 1773 0
45 -175 -42 1774 0
297 -282 -485 1775 0
-240 -308 -203 1776 0
295 -493 268 1777 0
486 173 -253 1778 0
-456 -405 304 1779 0
-325 -316 324 1780 0
-439 419 357 1781 0
142 -191 299 1782 0
173 90 -102 1783 0
67 456 54 1784 0
-111 -65 -99 1785 0
384 -240 -482 1786 0
-38 138 -136 1787 0
466 446 353 1788 0
315 -290 483 1789 0
145 26 -303 1790 0
-272 293 312 1791 0
258 -437 270 1792 0
-140 -445 -176 1793 0
419 -53 395 1794 0
-111 -69 266 1795 0
-498 -415 -376 1796 0
288 126 -247 1797 0
-69 -228 -429 1798 0
232 -490 -486 1799 0
-335 202 -214 1800 0
-446 -91 48 1801 0
436 -479 -360 1802 0
-326 370 8 1803 0
-25 -156 -129 1804 0
-159 -424 70 1805 0
90 -12 265 1806 0
331 -266 46 1807 0
87 -53 304 1808 0
-85 -324 430 1809 0
28 75 314 1810 0
-494 405 88 1811 0
287 -353 209 1812 0
330 57 -418 1813 0
-128 -382 -406 1814 0
249 362 -305 1815 0
-439 -415 236 1816 0
69 323 -135 1817 0
124 -380 189 1818 0
-456 -439 378 1819 0
282 -240 208 1820 0
398 -55 309 1821 0
393 143 -70 1822 0
207 39 -415 1823 0
396 -123 -368 1824 0
342 350 233 1825 0
120 148 1 1826 0
-333 243 73 1827 0
458 35 -186 1828 0
-383 43 479 1829 0
-395 -134 -469 1830 0
-66 -404 -40 1831 0
-135 -130 -51 1832 0
91 126 -69 1833 0
-45 -78 -183 1834 0
-139 168 8 1835 0
494 -382 237 1836 0
371 -478 -375 1837 0
-34 428 -49 1838 0
-472 -384 7 1839 0
-240 -263 -238 1840 0
-388 124 -299 1841 0
-316 228 30 1842 0
-168 -7 -67 1843 0
318 500 -476 1844 0
228 286 273 1845 0
95 -363 436 1846 0
57 -304 -265 1847 0
-476 91 -46 1848 0
-129 -422 405 1849 0
-319 445 -7 1850 0
-367 -439 -190 1851 0
-346 491 293 1852 0
254 283 -54 1853 0
166 -348 3 1854 0
266 -233 238 1855 0
375 -338 -219 1856 0
-150 -138 324 1857 0
255 106 -45 1858 0
-36 -103 271 1859 0
-74 324 486 1860 0
-143 -487 1 1861 0
17 -405 111 1862 0
-437 -283 386 1863 0
95 -87 173 1864 0
-471 -237 496 1865 0
-58 -291 461 1866 0
-394 113 -351 1867 0
458 -264 -28 1868 0
302 -450 -168 1869 0
433 -307 9 1870 0
217 474 200 1871 0
-496 -230 -168 1872 0
-213 -211 -318 1873 0
-170 487 333 1874 0
-469 -386 -491 1875 0
-383 -304 -213 1876 0
232 -132 55 1877 0
50 -179 323 1878 0
142 339 -374 1879 0
237 -220 4 1880 0
222 -434 -72 1881 0
-276 -224 -23 1882 0
455 282 3 1883 0
-90 430 -343 1884 0
-304 -119 -438 1885 0
-41 -28 75 1886 0
416 406 -23 1887 0
251 -177 104 1888 0
171 262 93 1889 0
-346 87 -21 1890 0
-44 149 441 1891 0
8 -286 -123 1892 0
-49 -490 474 1893 0
177 -290 8 1894 0
-184 183 336 1895 0
303 -127 85 1896 0
-416 141 333 1897 0
-282 163 -34 1898 0
-64 -25 -283 1899 0
-211 101 -30 1900 0
-109 368 -296 1901 0
185 449 187 1902 0
-159 458 -8 1903 0
-399 378 -356 1904 0
277 132 149 1905 0
104 405 299 1906 0
318 -57 -445 1907 0
-276 60 -385 1908 0
194 256 71 1909 0
468 210 -269 1910 0
187 -196 99 1911 0
-9 89 -367 1912 0
229 -106 495 1913 0
-442 -351 -47 1914 0
417 -46 466 1915 0
-498 325 -221 1916 0
-328 147 225 1917 0
291 -24 -405 1918 0
224 290 261 1919 0
360 -263 -300 1920 0
245 208 -298 1921 0
425 92 433 1922 0
-343 195 441 1923 0
-441 295 -78 1924 0
-235 204 -144 1925 0
-352 -160 220 1926 0
-8 181 -74 1927 0
-4 468 323 1928 0
195 21 -54 1929 0
84 487 68 1930 0
116 199 417 1931 0
-363 220 368 1932 0
-385 -45 -302 1933 0
-91 -203 -269 1934 0
217 151 -96 1935 0
-375 -479 29 1936 0
76 352 -354 1937 0
58 305 -15 1938 0
53 -164 -118 1939 0
-147 -181 -121 1940 0
378 173 -413 1941 0
-81 83 -123 1942 0
-100 -320 421 1943 0
221 365 6 1944 0
444 323 116 1945 0
443 44 -384 1946 0
3 66 428 1947 0
227 204 90 1948 0
374 261 -108 1949 0
-152 254 -72 1950 0
-191 472 -170 1951 0
-119 -234 -57 1952 0
-263 -215 127 1953 0
-490 -362 261 1954 0
-8 -353 247 1955 0
482 177 418 1956 0
300 -294 -54 1957 0
81 -341 -93 1958 0
-192 190 494 1959 0
227 494 70 1960 0
-404 -36 9 1961 0
188 -39 330 1962 0
-416 494 121 1963 0
72 404 -450 1964 0
370 -433 -135 1965 0
468 55 -223 1966 0
125 -145 403 1967 0
210 340 128 1968 0
-155 -452 -290 1969 0
-212 385 -434 1970 0
446 186 -125 1971 0
-67 -291 314 1972 0
-428 -222 -289 1973 0
-22 124 163 1974 0
-297 482 229 1975 0
500 -48 445 1976 0
397 496 326 1977 0
-457 210 55 1978 0
-231 -475 -294 1979 0
86 -418 -411 1980 0
-47 492 -407 1981 0
-400 -261 -345 1982 0
371 493 407 1983 0
-173 -266 478 1984 0
-435 -84 -413 1985 0
-325 478 -415 1986 0
284 -73 -177 1987 0
412 -379 392 1988 0
-393 182 -342 1989 0
-67 -265 446 1990 0
-42 -395 33 1991 0
75 369 95 1992 0
454 -230 213 1993 0
-207 452 236 1994 0
-57 -16 -291 1995 0
-374 309 -74 1996 0
-340 -62 357 1997 0
152 -102 -243 1998 0
255 -130 409 1999 0
173 30 -298 2000 0
-429 102 266 2001 0
-204 -340 -428 2002 0
81 4 -84 2003 0
-401 -262 319 2004 0
-418 183 113 2005 0
364 -258 -63 2006 0
-229 6 368 2007 0
-233 20 22 2008 0
-431 169 444 2009 0
326 223 447 2010 0
-211 407 -111 2011 0
306 366 -181 2012 0
333 276 -335 2013 0
341 -137 101 2014 0
426 198 -58 2015 0
87 175 280 2016 0
-107 443 446 2017 0
76 -276 -244 2018 0
97 53 -104 2019 0
-169 -375 -98 2020 0
-256 337 -160 2021 0
416 -337 182 2022 0
-390 19 -349 2023 0
38 -117 -217 2024 0
-116 488 150 2025 0
211 -252 -457 2026 0
458 19 -48 2027 0
35 183 -452 2028 0
329 -317 120 2029 0
-301 -192 364 2030 0
426 -274 432 2031 0
-489 392 -363 2032 0
59 341 -29 2033 0
173 11 -57 2034 0
6 -252 -40 2035 0
348 -149 -65 2036 0
-331 -413 393 2037 0
295 -250 -142 2038 0
224 169 70 2039 0
379 165 -466 2040 0
189 -30 334 2041 0
-454 294 -188 2042 0
283 452 182 2043 0
411 -414 468 2044 0
-446 472 230 2045 0
-245 308 479 2046 0
-292 -278 328 2047 0
366 251 489 2048 0
-444 -398 350 2049 0
-438 8 176 2050 0
-475 -171 311 2051 0
132 437 -379 2052 0
-417 -215 211 2053 0
-208 14 -103 2054 0
267 419 -493 2055 0
-178 -133 239 2056 0
139 -101 155 2057 0
-266 268 -393 2058 0
351 416 -176 2059 0
193 268 387 2060 0
207 -181 42 2061 0
101 -163 -112 2062 0
-228 -38 256 2063 0
-196 -371 -264 2064 0
-20 -448 -282 2065 0
280 262 329 2066 0
-425 -323 -336 2067 0
6 40 -389 2068 0
-258 399 -303 2069 0
82 -29 -253 2070 0
-354 -195 419 2071 0
-102 447 -175 2072 0
-113 183 473 2073 0
-124 -384 41 2074 0
-483 201 224 2075 0
272 152 41 2076 0
125 -348 317 2077 0
-201 -212 -304 2078 0
-47 18 141 2079 0
-104 397 279 2080 0
-105 489 439 2081 0
-469 -205 409 2082 0
-45 285 500 2083 0
-158 116 -120 2084 0
-16 141 175 2085 0
285 -487 -201 2086 0
312 -361 -87 2087 0
-176 164 -144 2088 0
476 415 -297 2089 0
173 368 260 2090 0
-383 -367 22 2091 0
296 -14 211 2092 0
-380 460 -46 2093 0
-7 109 -405 2094 0
255 -282 -283 2095 0
-281 -65 -24 2096 0
-415 -466 234 2097 0
352 -236 -204 2098 0
457 336 -100 2099 0
253 120 455 2100 0
-283 -163 -87 2101 0
-129 -343 -108 2102 0
289 430 272 2103 0
238 149 -439 2104 0
472 -197 -133 2105 0
-362 33 -402 2106 0
-140 -88 90 2107 0
497 -221 -340 2108 0
169 -317 -431 2109 0
311 62 175 2110 0
-319 65 285 2111 0
208 273 487 2112 0
244 -109 422 2113 0
-245 -499 -68 2114 0
-246 -55 -434 2115 0
343 -273 -138 2116 0
-27 304 -279 2117 0
-251 171 -121 2118 0
97 490 151 2119 0
278 -133 -367 2120 0
-337 380 270 2121 0
-336 445 419 2122 0
-362 -104 66 2123 0
-494 -4 -347 2124 0
427 56 377 2125 0
58 -239 -240 2126 0
-487 -99 -188 2127 0
1 107 346 2128 0
-47 -349 -4 2129 0
281 120 -310 2130 0
-262 -122 -482 2131 0
236 450 179 2132 0
168 -308 -390 2133 0
198 408 128 2134 0
-136 287 -394 2135 0
364 493 236 2136 0
382 476 351 2137 0
-25 -438 241 2138 0
34 148 -359 2139 0
147 -327 459 2140 0
88 -107 -76 2141 0
-457 -405 217 2142 0
-475 436 -129 2143 0
-408 354 360 2144 0
132 478 154 2145 0
-85 -213 -409 2146 0
112 400 -163 2147 0
-138 27 -259 2148 0
264 -470 -166 2149 0
-138 -380 19 2150 0
-198 373 -311 2151 0
242 -362 -156 2152 0
-424 -135 490 2153 0
-34 -169 434 2154 0
164 -139 -383 2155 0
224 271 -181 2156 0
159 -310 146 2157 0
53 -54 -9 2158 0
476 -166 274 2159 0
207 -440 -396 2160 0
23 59 418 2161 0
-57 231 179 2162 0
-333 294 499 2163 0
139 41 -10 2164 0
296 63 -300 2165 0
188 5 404 2166 0
484 477 -29 2167 0
-452 -338 174 2168 0
-192 -39 102 2169 0
-204 229 138 2170 0
18 448 -257 2171 0
-355 195 -63 2172 0
-231 -189 297 2173 0
407 -148 -162 2174 0
109 -376 -239 2175 0
225 185 327 2176 0
-148 347 -229 2177 0
-462 6 279 2178 0
346 -233 237 2179 0
-304 -104 134 2180 0
54 -212 6 2181 0
212 -404 188 2182 0
-39 67 -15 2183 0
424 -470 120 2184 0
-353 195 -207 2185 0
-102 -163 -431 2186 0
-475 -65 -428 2187 0
-238 -128 285 2188 0
-364 -170 500 2189 0
-468 -486 -55 2190 0
-128 246 288 2191 0
402 230 429 2192 0
-32 382 281 2193 0
-167 114 -175 2194 0
-169 247 251 2195 0
184 -444 -113 2196 0
-209 -410 -73 2197 0
-406 337 124 2198 0
-365 254 398 2199 0
-114 -312 398 2200 0
-193 4 -351 2201 0
470 91 432 2202 0
-497 -279 433 2203 0
-489 30 93 2204 0
430 -179 -471 2205 0
126 -293 291 2206 0
209 -93 -439 2207 0
-307 -167 361 2208 0
-454 59 -335 2209 0
413 419 463 2210 0
343 -452 428 2211 0
-475 18 281 2212 0
209 473 289 2213 0
231 -316 383 2214 0
-314 413 -302 2215 0
-374 -243 376 2216 0
444 -479 -103 2217 0
63 373 -42 2218 0
-320 166 -374 2219 0
70 -3 -80 2220 0
-429 -152 -217 2221 0
-415 257 417 2222 0
151 221 447 2223 0
363 73 200 2224 0
-11 372 428 2225 0
-236 332 -298 2226 0
-228 -242 -496 2227 0
52 242 152 2228 0
-355 -196 433 2229 0
-143 317 385 2230 0
65 419 90 2231 0
-191 119 312 2232 0
-215 -332 491 2233 0
-45 -79 -416 2234 0
330 -5 286 2235 0
-125 302 -358 2236 0
-405 212 56 2237 0
185 17 -361 2238 0
-133 -234 449 2239 0
106 -495 -267 2240 0
25 57 -403 2241 0
391 -88 -340 2242 0
192 -188 -318 2243 0
-145 -366 336 2244 0
242 445 -97 2245 0
-472 185 30 2246 0
-251 301 -43 2247 0
433 117 -298 2248 0
-13 56 373 2249 0
144 -95 246 2250 0
-334 -309 49 2251 0
-288 455 222 2252 0
-275 327 -119 2253 0
-402 127 128 2254 0
292 439 -250 2255 0
94 -333 98 2256 0
318 405 -448 2257 0
-140 -222 415 2258 0
106 420 143 2259 0
-56 38 -326 2260 0
-225 276 39 2261 0
-402 -8 -14 2262 0
43 -173 166 2263 0
436 148 91 2264 0
-23 453 -301 2265 0
93 477 170 2266 0
-355 285 371 2267 0
-464 -348 -316 2268 0
-414 230 101 2269 0
-329 75 -265 2270 0
423 47 8 2271 0
282 6 -14 2272 0
-471 21 495 2273 0
1 330 171 2274 0
-101 -487 -346 2275 0
173 -108 74 2276 0
379 -356 120 2277 0
-434 -194 -371 2278 0
-435 169 -289 2279 0
-246 139 259 2280 0
-86 353 -404 2281 0
273 -289 78 2282 0
340 448 232 2283 0
-269 371 369 2284 0
419 352 315 2285 0
-109 -243 -439 2286 0
184 372 451 2287 0
473 -353 425 2288 0
-27 472 238 2289 0
377 212 -369 2290 0
146 -233 -172 2291 0
-308 -116 -214 2292 0
54 233 33 2293 0
280 -443 -430 2294 0
291 -42 -486 2295 0
100 -219 181 2296 0
-170 -267 -456 2297 0
126 112 -345 2298 0
-498 -166 -353 2299 0
67 -264 464 2300 0
228 -459 -325 2301 0
-257 59 -79 2302 0
-367 254 221 2303 0
-289 -26 213 2304 0
442 -15 180 2305 0
372 44 -361 2306 0
-194 -287 308 2307 0
-415 -182 103 2308 0
126 130 -144 2309 0
168 50 -486 2310 0
-169 233 278 2311 0
-176 16 400 2312 0
-190 125 -422 2313 0
-420 220 281 2314 0
-479 -407 -225 2315 0
428 442 -295 2316 0
-372 479 324 2317 0
-112 271 -159 2318 0
423 -283 428 2319 0
-52 371 262 2320 0
-364 -102 204 2321 0
42 -39 -192 2322 0
294 -94 333 2323 0
81 47 161 2324 0
-298 -206 423 2325 0
134 -159 400 2326 0
262 -498 339 2327 0
280 39 71 2328 0
410 142 310 2329 0
191 -329 -218 2330 0
-401 -239 418 2331 0
-445 152 406 2332 0
236 314 41 2333 0
-158 216 -125 2334 0
273 300 353 2335 0
-262 -381 144 2336 0
-233 174 346 2337 0
-252 308 -394 2338 0
457 -22 429 2339 0
-140 388 73 2340 0
-423 -64 498 2341 0
-39 -315 -328 2342 0
409 -45 34 2343 0
462 -404 183 2344 0
-94 -456 -236 2345 0
-142 -460 65 2346 0
439 -398 431 2347 0
234 4 -145 2348 0
-244 -256 -343 2349 0
1 448 178 2350 0
-469 131 57 2351 0
280 355 -371 2352 0
487 319 152 2353 0
14 -408 482 2354 0
-87 486 410 2355 0
-281 33 -439 2356 0
-57 467 -282 2357 0
360 -218 17 2358 0
495 401 166 2359 0
-261 -379 -144 2360 0
-423 309 -302 2361 0
-484 -399 408 2362 0
378 -10 -235 2363 0
302 210 -439 2364 0
-468 118 -205 2365 0
-53 -235 332 2366 0
-311 126 236 2367 0
-54 363 -156 2368 0
445 178 194 2369 0
-220 43 477 2370 0
137 242 -159 2371 0
-241 -368 -249 2372 0
-171 -497 -389 2373 0
-366 337 -71 2374 0
-64 249 32 2375 0
-386 -20 440 2376 0
-398 -210 -33 2377 0
-55 186 -10 2378 0
303 267 356 2379 0
352 -380 -229 2380 0
81 -409 102 2381 0
224 -148 -27 2382 0
478 -23 -66 2383 0
-379 323 264 2384 0
-45 226 -280 2385 0
7 57 66 2386 0
-376 211 -145 2387 0
326 403 -130 2388 0
-478 469 -48 2389 0
98 65 -278 2390 0
58 -373 -147 2391 0
-297 -414 -95 2392 0
305 -280 -227 2393 0
487 -370 -243 2394 0
-292 -262 -410 2395 0
-401 255 -452 2396 0
210 -106 303 2397 0
304 -438 367 2398 0
344 35 245 2399 0
-91 -455 270 2400 0
-445 -157 261 2401 0
129 45 -67 2402 0
412 -47 255 2403 0
328 -221 -371 2404 0
98 -219 412 2405 0
207 -256 136 2406 0
-196 -139 -371 2407 0
-395 495 429 2408 0
340 -376 56 2409 0
308 -19 -141 2410 0
212 462 -53 2411 0
-191 19 -481 2412 0
136 -157 394 2413 0
-395 -218 74 2414 0
-330 421 280 2415 0
-6 -245 -461 2416 0
167 -378 -14 2417 0
-252 -273 -361 2418 0
417 316 -419 2419 0
-278 159 378 2420 0
-482 312 -329 2421 0
78 188 -299 2422 0
426 -389 -386 2423 0
33 330 493 2424 0
-94 -183 -441 2425 0
193 140 -230 2426 0
-244 149 337 2427 0
-333 -107 -264 2428 0
177 -102 -105 2429 0
13 -317 237 2430 0
-85 -122 375 2431 0
-378 270 22 2432 0
-435 -380 -138 2433 0
114 -120 -422 2434 0
-443 106 466 2435 0
-194 55 151 2436 0
451 -71 413 2437 0
-351 -308 399 2438 0
-123 -442 -422 2439 0
-469 383 132 2440 0
15 445 -38 2441 0
33 91 -183 2442 0
-231 -138 139 2443 0
-376 417 -40 2444 0
303 -474 312 2445 0
-256 -221 -39 2446 0
39 468 104 2447 0
359 -67 80 2448 0
13 -114 -423 2449 0
175 -195 207 2450 0
472 -237 9 2451 0
-334 397 -189 2452 0
-147 -274 316 2453 0
-275 -224 -346 2454 0
-456 132 -413 2455 0
-316 210 -455 2456 0
-411 125 -141 2457 0
5 368 131 2458 0
42 420 389 2459 0
-109 -488 67 2460 0
-344 -100 -231 2461 0
-144 -299 447 2462 0
88 -288 -186 2463 0
-470 -408 10 2464 0
-24 -387 -206 2465 0
259 195 -170 2466 0
-256 428 451 2467 0
288 229 129 2468 0
-278 414 -121 2469 0
481 -271 -458 2470 0
403 237 390 2471 0
-305 -426 -159 2472 0
-244 254 469 2473 0
-461 220 -245 2474 0
68 -456 -72 2475 0
-364 249 421 2476 0
127 230 -488 2477 0
-186 -392 -361 2478 0
-97 -156 -247 2479 0
175 220 -210 2480 0
322 318 228 2481 0
-179 -121 -449 2482 0
235 193 240 2483 0
-354 220 -461 2484 0
351 -313 152 2485 0
177 -190 -266 2486 0
11 -376 499 2487 0
-312 172 9 2488 0
245 114 -257 2489 0
-195 347 -8 2490 0
176 -129 433 2491 0
-162 -443 -293 2492 0
496 -87 -440 2493 0
413 -159 -43 2494 0
312 355 -61 2495 0
332 336 -304 2496 0
332 144 -465 2497 0
-151 -91 -344 2498 0
115 -497 341 2499 0
389 182 -166 2500 0
-429 495 -102 2501 0
98 -309 139 2502 0
184 6 434 2503 0
-279 -230 344 2504 0
-263 144 153 2505 0
-423 359 117 2506 0
485 -280 -43 2507 0
345 -275 398 2508 0
-45 499 -77 2509 0
-285 -381 9 2510 0
330 102 398 2511 0
189 186 -225 2512 0
-159 101 13 2513 0
-320 119 422 2514 0
16 -218 146 2515 0
-155 -316 156 2516 0
-255 -260 -402 2517 0
-311 -466 145 2518 0
-476 352 -156 2519 0
279 391 -200 2520 0
440 -278 16 2521 0
-135 -45 311 2522 0
366 284 429 2523 0
410 -339 266 2524 0
-175 -205 238 2525 0
-118 306 343 2526 0
-231 -98 162 2527 0
469 484 -423 2528 0
268 412 -122 2529 0
80 -196 -371 2530 0
479 278 -63 2531 0
426 -474 -417 2532 0
-356 -124 466 2533 0
3 -422 71 2534 0
256 -59 -284 2535 0
-222 -234 -152 2536 0
-65 -442 -341 2537 0
-213 -6 -181 2538 0
-382 94 -405 2539 0
160 -70 368 2540 0
-160 19 -128 2541 0
-181 227 348 2542 0
282 -221 -223 2543 0
33 152 226 2544 0
-135 -308 -317 2545 0
-394 -220 -292 2546 0
413 266 302 2547 0
-122 -199 -128 2548 0
60 -24 -165 2549 0
-224 -151 -284 2550 0
-92 471 248 2551 0
-477 182 399 2552 0
409 492 -143 2553 0
-74 -446 303 2554 0
-219 -167 231 2555 0
-379 85 305 2556 0
152 -63 -79 2557 0
-354 443 479 2558 0
-341 -89 -123 2559 0
-402 -72 106 2560 0
364 -336 482 2561 0
157 -395 -220 2562 0
-446 -344 -284 2563 0
332 471 -207 2564 0
-119 369 -247 2565 0
234 49 368 2566 0
-25 36 -317 2567 0
12 -457 -334 2568 0
-6 -365 -304 2569 0
440 -280 -44 2570 0
27 -379 35 2571 0
90 482 -340 2572 0
460 204 -157 2573 0
-392 -292 -60 2574 0
118 -8 -463 2575 0
-434 287 -101 2576 0
178 18 -346 2577 0
199 -214 351 2578 0
-248 -158 18 2579 0
259 -1 470 2580 0
-447 307 102 2581 0
-7 37 -381 2582 0
331 78 -146 2583 0
-159 -413 490 2584 0
97 277 -200 2585 0
481 375 388 2586 0
285 419 301 2587 0
-114 251 268 2588 0
-267 194 -379 2589 0
220 -51 -164 2590 0
335 229 -55 2591 0
364 -377 -31 2592 0
426 182 310 2593 0
-211 -412 -388 2594 0
-366 159 195 2595 0
173 384 -470 2596 0
-205 94 297 2597 0
150 -54 -103 2598 0
-398 -262 197 2599 0
129 414 -425 2600 0
428 -485 -267 2601 0
-490 184 -125 2602 0
82 -270 194 2603 0
-59 -199 2 2604 0
420 330 361 2605 0
437 -463 434 2606 0
332 191 -276 2607 0
352 -160 225 2608 0
-45 223 347 2609 0
-41 385 415 2610 0
480 158 -382 2611 0
366 325 -202 2612 0
68 149 -100 2613 0
-197 -476 -95 2614 0
-394 345 -159 2615 0
-234 193 -308 2616 0
-264 138 163 2617 0
463 443 160 2618 0
-414 -3 -181 2619 0
-161 -361 -227 2620 0
88 -14 -423 2621 0
186 386 -73 2622 0
-307 -235 205 2623 0
-110 281 -32 2624 0
-218 -197 460 2625 0
211 141 -450 2626 0
-190 -69 362 2627 0
79 -453 460 2628 0
-248 230 498 2629 0
-456 -111 67 2630 0
-66 55 388 2631 0
114 -410 -143 2632 0
-345 156 112 2633 0
345 -430 -405 2634 0
185 -365 -352 2635 0
44 294 -427 2636 0
-454 -467 -266 2637 0
360 376 -26 2638 0
437 -449 266 2639 0
195 -116 229 2640 0
-30 234 233 2641 0
-51 309 449 2642 0
401 -266 11 2643 0
-431 -135 -391 2644 0
166 403 352 2645 0
-273 361 224 2646 0
-187 457 -173 2647 0
-430 459 341 2648 0
-308 -16 417 2649 0
145 -237 376 2650 0
