p cnf 2650 2150
-264 428 307 501 0
-103 174 125 502 0
-141 334 84 503 0
403 422 -314 504 0
-157 -159 438 505 0
-117 395 -216 506 0
488 480 -497 507 0
311 -440 349 508 0
-390 -168 -79 509 0
-89 -125 -54 510 0
112 -305 170 511 0
119 430 -357 512 0
334 -390 457 513 0
52 -481 -254 514 0
-65 -384 -428 515 0
293 -208 -29 516 0
388 454 -84 517 0
169 -164 -85 518 0
-235 379 292 519 0
-388 10 419 520 0
435 391 238 521 0
-222 385 468 522 0
-446 135 384 523 0
200 375 122 524 0
-52 -137 -422 525 0
427 69 -126 526 0
389 -133 -22 527 0
10 411 336 528 0
13 248 -402 529 0
288 -485 370 530 0
127 -167 408 531 0
474 413 278 532 0
-122 -403 197 533 0
-297 349 305 534 0
-123 -335 106 535 0
-307 -154 -41 536 0
73 31 65 537 0
-420 -16 -179 538 0
-339 -329 449 539 0
-17 -113 -140 540 0
219 3 -105 541 0
-397 393 -80 542 0
499 -265 221 543 0
346 -99 448 544 0
127 -336 -418 545 0
83 -23 -331 546 0
219 -474 237 547 0
-265 95 270 548 0
150 -497 414 549 0
-116 -287 392 550 0
236 189 330 551 0
491 372 377 552 0
441 470 -137 553 0
393 -389 467 554 0
364 128 -18 555 0
-60 326 -95 556 0
370 -255 332 557 0
435 -432 113 558 0
-444 -460 66 559 0
-452 354 -426 560 0
338 415 29 561 0
425 -341 42 562 0
-284 -269 -158 563 0
178 -88 368 564 0
434 -178 311 565 0
300 -334 -215 566 0
228 -209 112 567 0
-384 -248 105 568 0
494 -372 62 569 0
320 43 160 570 0
-143 -103 -96 571 0
139 201 -320 572 0
248 76 -51 573 0
-260 214 -411 574 0
259 -113 -313 575 0
389 -210 -86 576 0
308 149 129 577 0
-172 -160 486 578 0
350 448 290 579 0
-352 452 7 580 0
263 -10 22 581 0
-73 260 451 582 0
227 -412 317 583 0
31 -141 225 584 0
-56 90 342 585 0
45 -463 145 586 0
382 -211 -37 587 0
39 58 333 588 0
490 126 254 589 0
-362 404 -179 590 0
-474 -398 -228 591 0
41 84 49 592 0
131 -6 -281 593 0
-122 31 105 594 0
114 -464 9 595 0
376 -399 289 596 0
318 -399 402 597 0
-221 254 291 598 0
15 -144 317 599 0
-295 -45 -30 600 0
104 215 144 601 0
231 -215 27 602 0
-353 -223 -240 603 0
-375 276 -228 604 0
-109 -256 426 605 0
407 365 383 606 0
-28 385 460 607 0
495 476 222 608 0
387 447 -347 609 0
-322 -333 -321 610 0
-290 -392 151 611 0
-148 -495 26 612 0
330 431 -123 613 0
456 126 79 614 0
279 160 406 615 0
420 -441 246 616 0
-395 440 -287 617 0
439 129 205 618 0
-304 272 -136 619 0
-393 -27 322 620 0
290 492 -87 621 0
128 136 82 622 0
264 60 -369 623 0
-461 -341 -54 624 0
251 -262 -140 625 0
3 378 24 626 0
288 119 -92 627 0
-279 228 428 628 0
454 -345 -2 629 0
-469 36 -312 630 0
116 -354 -383 631 0
-47 -459 -375 632 0
-353 -459 -192 633 0
-272 9 89 634 0
145 -257 -9 635 0
-499 7 -449 636 0
68 145 74 637 0
372 -174 -276 638 0
60 53 405 639 0
87 -64 419 640 0
-438 419 -154 641 0
-246 -194 -382 642 0
141 402 245 643 0
-242 -394 345 644 0
342 -418 353 645 0
-496 416 -261 646 0
178 59 149 647 0
45 234 -333 648 0
-45 -477 -241 649 0
46 175 340 650 0
387 -344 -225 651 0
-292 -249 2 652 0
270 327 -331 653 0
-295 -303 -129 654 0
465 353 -95 655 0
355 -415 156 656 0
-441 203 269 657 0
-186 423 14 658 0
436 49 331 659 0
-21 492 144 660 0
-79 -451 72 661 0
-482 -212 234 662 0
-170 182 88 663 0
-178 -58 -124 664 0
-320 274 -195 665 0
-358 -285 472 666 0
33 91 -131 667 0
-157 -93 232 668 0
-26 272 276 669 0
-471 39 -321 670 0
189 -463 299 671 0
397 -211 296 672 0
387 -358 -48 673 0
211 -368 -310 674 0
15 -422 -31 675 0
-162 -468 -409 676 0
168 -209 14 677 0
-180 -453 478 678 0
182 -242 149 679 0
-216 396 353 680 0
-95 -269 296 681 0
-492 451 97 682 0
85 -348 -34 683 0
-39 -314 447 684 0
394 241 -123 685 0
-22 -49 187 686 0
272 276 -294 687 0
306 -456 95 688 0
-128 -209 336 689 0
488 190 469 690 0
-168 230 -189 691 0
-265 10 -342 692 0
-459 -210 -333 693 0
10 458 -202 694 0
-23 -13 -30 695 0
323 -103 11 696 0
172 125 246 697 0
-189 -155 112 698 0
-376 5 -118 699 0
-431 -27 54 700 0
133 -56 -249 701 0
-160 439 -287 702 0
207 156 -332 703 0
320 351 347 704 0
-412 99 -18 705 0
271 207 230 706 0
-301 167 -241 707 0
-96 -13 -391 708 0
-242 316 435 709 0
-441 400 -284 710 0
-69 329 461 711 0
-448 -81 -73 712 0
-493 -222 363 713 0
-223 -374 -365 714 0
157 487 204 715 0
375 123 -174 716 0
-443 76 113 717 0
249 -268 -68 718 0
-156 138 -420 719 0
-335 -374 -389 720 0
154 279 193 721 0
378 -90 399 722 0
-276 223 -376 723 0
-302 377 289 724 0
-6 91 297 725 0
-277 205 181 726 0
382 -260 306 727 0
40 -177 -312 728 0
-352 -306 -109 729 0
-419 -179 -273 730 0
450 425 261 731 0
-454 -388 -286 732 0
-185 198 25 733 0
-181 182 -393 734 0
160 -472 58 735 0
101 -471 -408 736 0
-397 -258 239 737 0
-151 -242 -139 738 0
368 -57 426 739 0
-182 -41 -348 740 0
138 245 199 741 0
-232 52 489 742 0
-361 -379 -342 743 0
-388 435 470 744 0
-97 -104 -114 745 0
491 178 -346 746 0
-369 -498 -433 747 0
-417 86 -87 748 0
381 -359 -344 749 0
444 480 -487 750 0
-118 -37 -211 751 0
-387 227 21 752 0
433 -115 320 753 0
-500 -208 -20 754 0
-44 -331 -69 755 0
-109 -69 -131 756 0
347 168 250 757 0
258 11 -415 758 0
316 -257 -307 759 0
-367 -94 230 760 0
354 388 -344 761 0
-150 169 20 762 0
-110 309 -423 763 0
-129 168 -134 764 0
-293 -347 -285 765 0
238 -486 -188 766 0
-470 297 435 767 0
120 -285 98 768 0
-403 -274 366 769 0
-65 74 489 770 0
33 220 43 771 0
384 170 -427 772 0
-129 -66 273 773 0
476 -42 466 774 0
351 -48 94 775 0
265 47 74 776 0
-221 -404 340 777 0
353 -158 -246 778 0
-299 -21 -434 779 0
234 467 173 780 0
164 68 94 781 0
110 -473 -43 782 0
126 -17 -270 783 0
-454 -486 -356 784 0
-225 9 -85 785 0
226 148 -339 786 0
-410 -231 -494 787 0
-301 25 -489 788 0
-475 288 316 789 0
-76 -233 -207 790 0
-280 -20 379 791 0
-147 21 25 792 0
186 100 -243 793 0
15 243 8 794 0
214 47 119 795 0
285 -392 -295 796 0
239 -209 272 797 0
422 190 -131 798 0
-339 -394 277 799 0
-119 425 20 800 0
16 361 202 801 0
-202 390 60 802 0
310 -376 -302 803 0
-133 -265 -242 804 0
-340 388 327 805 0
212 57 245 806 0
480 -421 -381 807 0
66 -261 -242 808 0
-451 -365 -446 809 0
97 -357 144 810 0
113 159 275 811 0
-173 339 216 812 0
-127 244 64 813 0
-152 -321 278 814 0
264 80 275 815 0
-81 322 330 816 0
488 132 261 817 0
-109 -322 -380 818 0
202 -260 -227 819 0
-163 -161 -222 820 0
-292 -486 -229 821 0
457 160 -440 822 0
-147 46 -396 823 0
-228 130 121 824 0
-35 -473 -212 825 0
478 387 -442 826 0
23 72 266 827 0
-328 -33 -274 828 0
-178 231 476 829 0
239 452 -267 830 0
148 -300 -483 831 0
-275 -302 -39 832 0
-211 266 285 833 0
-127 -316 43 834 0
316 160 -179 835 0
428 -202 175 836 0
-163 179 -476 837 0
-214 -455 25 838 0
22 71 -481 839 0
226 -84 8 840 0
-380 436 -400 841 0
-350 232 -308 842 0
255 -8 -273 843 0
-307 -117 283 844 0
316 432 106 845 0
452 -459 -284 846 0
-477 -284 286 847 0
-276 -393 430 848 0
62 -273 -436 849 0
-132 -142 -431 850 0
407 -321 94 851 0
-107 -298 -413 852 0
-354 17 -347 853 0
242 112 264 854 0
-189 76 287 855 0
284 88 67 856 0
-466 -67 267 857 0
-200 405 -183 858 0
490 -422 428 859 0
330 212 39 860 0
-305 229 -192 861 0
-67 271 -341 862 0
298 -266 -454 863 0
227 247 -411 864 0
-82 -142 472 865 0
398 -385 406 866 0
-364 88 -140 867 0
-392 20 191 868 0
-304 -147 70 869 0
370 217 277 870 0
365 499 -192 871 0
310 -304 -296 872 0
61 -325 -118 873 0
44 -38 354 874 0
-395 -258 -358 875 0
-135 -324 63 876 0
-61 463 -457 877 0
49 458 317 878 0
-135 -329 -70 879 0
460 -141 -276 880 0
-494 209 104 881 0
43 -38 171 882 0
466 65 -345 883 0
425 270 328 884 0
19 -289 462 885 0
244 -279 51 886 0
-235 172 127 887 0
-240 -301 -34 888 0
-106 210 -167 889 0
-86 -285 97 890 0
469 140 446 891 0
-91 111 30 892 0
173 107 360 893 0
-94 34 -13 894 0
-117 120 450 895 0
220 205 39 896 0
-105 -134 140 897 0
-290 310 247 898 0
197 59 -426 899 0
215 -494 -453 900 0
284 316 -264 901 0
453 -164 -301 902 0
-390 447 242 903 0
-413 -219 -188 904 0
-2 316 -386 905 0
466 166 336 906 0
79 -272 210 907 0
-465 500 -30 908 0
-204 -178 234 909 0
460 -273 -193 910 0
401 -269 -408 911 0
299 -214 317 912 0
-211 -218 187 913 0
404 -393 -284 914 0
141 192 -161 915 0
-243 472 400 916 0
-349 414 -75 917 0
-153 -185 426 918 0
-462 334 -15 919 0
-270 -287 123 920 0
-42 -485 -347 921 0
248 481 70 922 0
-269 -435 -190 923 0
-443 -105 158 924 0
-270 -473 426 925 0
278 -52 283 926 0
-47 2 91 927 0
424 -341 -71 928 0
89 -416 -381 929 0
-188 471 392 930 0
199 -488 -172 931 0
6 123 79 932 0
162 169 463 933 0
353 -402 -153 934 0
42 -202 -451 935 0
-381 218 -268 936 0
-216 297 -415 937 0
-395 -450 415 938 0
-343 -98 19 939 0
-252 190 -367 940 0
-311 -268 425 941 0
239 392 74 942 0
407 452 49 943 0
177 -456 -280 944 0
-13 -387 67 945 0
263 74 107 946 0
-421 -11 -279 947 0
341 -75 12 948 0
144 109 19 949 0
405 -474 197 950 0
248 -48 271 951 0
-411 146 209 952 0
390 -228 453 953 0
224 -391 104 954 0
-126 107 428 955 0
-494 -198 406 956 0
-331 -106 161 957 0
293 -358 -417 958 0
-169 -251 248 959 0
-64 -215 -82 960 0
-167 -23 -478 961 0
470 490 -111 962 0
-66 277 -458 963 0
82 8 -1 964 0
-243 -432 335 965 0
358 212 -428 966 0
478 99 -287 967 0
-116 346 134 968 0
232 124 -32 969 0
255 -457 83 970 0
-359 -79 -18 971 0
-314 303 -34 972 0
454 -235 -368 973 0
109 70 58 974 0
292 -5 56 975 0
307 190 -439 976 0
-422 -120 356 977 0
30 -352 -285 978 0
-9 -390 310 979 0
157 -359 303 980 0
-291 -218 154 981 0
-156 123 -455 982 0
-123 -223 -162 983 0
-190 -239 -262 984 0
-118 -166 361 985 0
-227 112 470 986 0
39 -119 439 987 0
-140 226 -192 988 0
-204 -267 69 989 0
-104 -320 326 990 0
-336 -159 167 991 0
359 170 104 992 0
360 -254 -206 993 0
-260 -225 305 994 0
-279 -201 305 995 0
-317 -188 205 996 0
335 484 -320 997 0
138 -499 204 998 0
431 31 158 999 0
-11 337 218 1000 0
-75 -315 193 1001 0
33 -272 184 1002 0
-385 -446 -152 1003 0
-95 382 -264 1004 0
-157 -420 -209 1005 0
-174 -368 -364 1006 0
-385 -293 -166 1007 0
-295 250 -314 1008 0
148 -414 262 1009 0
100 -184 -2 1010 0
81 409 -423 1011 0
-18 -304 58 1012 0
-202 383 -22 1013 0
-27 316 439 1014 0
-45 317 -194 1015 0
-334 70 221 1016 0
-275 -181 222 1017 0
-237 79 -195 1018 0
-215 117 343 1019 0
-112 -456 62 1020 0
201 -346 339 1021 0
305 26 -203 1022 0
-120 16 -62 1023 0
161 -297 -263 1024 0
-74 326 67 1025 0
-260 -495 -440 1026 0
72 80 360 1027 0
-64 -338 -174 1028 0
453 310 218 1029 0
-395 367 -163 1030 0
-484 71 151 1031 0
414 200 -91 1032 0
48 -1 91 1033 0
399 125 94 1034 0
286 274 99 1035 0
273 209 319 1036 0
-446 -450 149 1037 0
-318 90 38 1038 0
477 -405 386 1039 0
-117 -318 359 1040 0
-266 -454 -111 1041 0
-281 366 -263 1042 0
-16 -447 -172 1043 0
472 240 333 1044 0
-246 137 -296 1045 0
-421 -149 166 1046 0
31 68 272 1047 0
-154 82 -153 1048 0
-331 304 -335 1049 0
414 366 459 1050 0
86 238 459 1051 0
62 89 -131 1052 0
192 299 11 1053 0
421 -352 208 1054 0
-124 -399 315 1055 0
175 -356 230 1056 0
-283 -163 -386 1057 0
-473 370 -291 1058 0
286 -76 354 1059 0
-404 250 -431 1060 0
-209 -109 131 1061 0
71 309 281 1062 0
38 472 464 1063 0
-279 -142 372 1064 0
329 183 362 1065 0
237 309 -376 1066 0
-208 -147 455 1067 0
467 -315 39 1068 0
-317 88 408 1069 0
101 -270 283 1070 0
417 -49 95 1071 0
-2 -9 347 1072 0
349 -476 65 1073 0
221 -24 263 1074 0
-308 56 -175 1075 0
413 364 226 1076 0
-186 -421 440 1077 0
10 467 67 1078 0
316 78 -300 1079 0
-215 -103 74 1080 0
25 347 60 1081 0
-15 246 289 1082 0
-89 123 -66 1083 0
321 341 34 1084 0
27 239 -42 1085 0
-180 -152 -364 1086 0
-248 -177 443 1087 0
394 -490 -322 1088 0
-436 -102 -248 1089 0
-258 -89 218 1090 0
-254 -306 -241 1091 0
220 178 305 1092 0
446 179 200 1093 0
34 489 231 1094 0
353 314 -379 1095 0
-83 -115 -393 1096 0
-478 26 57 1097 0
-78 330 91 1098 0
-424 -400 359 1099 0
137 434 264 1100 0
-334 -30 -459 1101 0
402 217 488 1102 0
-425 -452 -439 1103 0
-296 -285 39 1104 0
407 318 -36 1105 0
347 -389 -383 1106 0
-348 391 -452 1107 0
-106 151 256 1108 0
384 229 -174 1109 0
172 -285 -12 1110 0
110 43 -156 1111 0
175 -301 88 1112 0
93 303 -243 1113 0
-49 -349 142 1114 0
349 -375 -149 1115 0
14 178 -339 1116 0
-36 10 -305 1117 0
128 -224 -211 1118 0
440 -163 459 1119 0
199 -426 -67 1120 0
-110 371 410 1121 0
-309 -358 -235 1122 0
-390 153 -137 1123 0
-174 -416 -106 1124 0
-137 -177 420 1125 0
447 466 -248 1126 0
388 -136 -254 1127 0
91 102 -171 1128 0
437 -103 274 1129 0
-381 -260 2 1130 0
339 208 393 1131 0
264 355 -173 1132 0
49 16 148 1133 0
-21 457 -368 1134 0
-44 479 -420 1135 0
257 290 -171 1136 0
457 314 -371 1137 0
405 92 313 1138 0
371 -98 -108 1139 0
-316 -259 158 1140 0
212 -160 -122 1141 0
-77 384 232 1142 0
-231 249 -4 1143 0
-128 -486 452 1144 0
-200 265 131 1145 0
-286 203 -412 1146 0
204 -161 282 1147 0
-355 -370 -52 1148 0
-71 500 -22 1149 0
287 121 81 1150 0
-328 185 201 1151 0
-57 -225 -475 1152 0
383 -467 474 1153 0
-50 -187 -5 1154 0
-1 225 253 1155 0
79 307 166 1156 0
235 -232 -16 1157 0
126 -170 478 1158 0
373 96 -441 1159 0
291 423 14 1160 0
440 -216 -257 1161 0
280 -81 -277 1162 0
377 390 12 1163 0
123 96 -134 1164 0
95 -392 -70 1165 0
-314 -313 456 1166 0
-457 -139 -410 1167 0
121 -248 -417 1168 0
-175 -376 -497 1169 0
247 122 -27 1170 0
-315 319 234 1171 0
290 -231 -264 1172 0
358 446 274 1173 0
-144 -386 -494 1174 0
-156 222 -479 1175 0
279 228 -223 1176 0
-242 -112 96 1177 0
267 -282 -347 1178 0
-289 -16 8 1179 0
301 -178 498 1180 0
-435 -471 176 1181 0
460 239 156 1182 0
449 -91 476 1183 0
-112 358 -304 1184 0
351 -122 203 1185 0
29 -45 -35 1186 0
248 329 -359 1187 0
426 169 -195 1188 0
56 -148 -161 1189 0
200 -77 274 1190 0
312 -338 174 1191 0
103 -205 -461 1192 0
82 -155 -74 1193 0
129 253 -155 1194 0
-368 -399 -423 1195 0
213 -480 221 1196 0
244 470 474 1197 0
44 -268 -64 1198 0
-444 266 464 1199 0
-330 115 -7 1200 0
187 -241 -426 1201 0
8 -32 -90 1202 0
396 177 -285 1203 0
-301 177 -336 1204 0
452 -19 -359 1205 0
-470 -150 -265 1206 0
307 395 482 1207 0
157 284 -186 1208 0
315 159 -466 1209 0
-113 304 -160 1210 0
-140 -337 6 1211 0
-54 197 64 1212 0
-277 -152 116 1213 0
69 -288 223 1214 0
-315 -214 -338 1215 0
-90 -310 252 1216 0
292 202 -92 1217 0
177 457 390 1218 0
429 -271 -266 1219 0
138 212 99 1220 0
-310 253 -406 1221 0
-238 -459 -182 1222 0
383 23 -222 1223 0
-59 -221 -323 1224 0
-32 -363 405 1225 0
386 -201 -498 1226 0
274 373 123 1227 0
-397 -409 258 1228 0
375 -170 500 1229 0
147 130 426 1230 0
401 -258 146 1231 0
-240 73 -280 1232 0
410 61 -150 1233 0
-303 66 -211 1234 0
-122 178 -139 1235 0
-16 93 -194 1236 0
-364 -272 -315 1237 0
437 199 -219 1238 0
453 78 -400 1239 0
415 44 489 1240 0
317 55 346 1241 0
390 -212 78 1242 0
493 -292 34 1243 0
223 24 236 1244 0
-123 42 70 1245 0
55 283 -450 1246 0
134 234 -98 1247 0
269 166 167 1248 0
-156 -307 91 1249 0
-165 216 -14 1250 0
46 -452 446 1251 0
-202 78 -257 1252 0
-333 -109 24 1253 0
28 291 -370 1254 0
-160 -72 260 1255 0
108 171 -17 1256 0
-166 -338 369 1257 0
126 400 -290 1258 0
-144 -185 -124 1259 0
219 -58 -95 1260 0
-309 -270 -296 1261 0
306 370 -345 1262 0
-15 -383 218 1263 0
173 -374 -102 1264 0
-188 363 484 1265 0
-454 -117 -202 1266 0
72 205 252 1267 0
-497 -229 493 1268 0
-142 5 20 1269 0
15 6 -61 1270 0
-94 76 -389 1271 0
284 -424 479 1272 0
128 249 -157 1273 0
-102 405 121 1274 0
482 322 312 1275 0
69 420 1 1276 0
-68 -106 14 1277 0
-137 -41 -50 1278 0
-6 -204 345 1279 0
419 292 348 1280 0
-217 292 -267 1281 0
229 304 -498 1282 0
333 23 -181 1283 0
-1 268 -37 1284 0
-201 328 -72 1285 0
-480 -12 117 1286 0
-464 -393 6 1287 0
211 -147 -306 1288 0
151 368 -120 1289 0
398 231 400 1290 0
468 -264 29 1291 0
98 -146 451 1292 0
79 498 421 1293 0
-267 228 499 1294 0
-271 -488 240 1295 0
332 -264 -326 1296 0
-17 -272 293 1297 0
-22 29 404 1298 0
-470 -332 -237 1299 0
-443 -406 -355 1300 0
-442 181 297 1301 0
-272 109 412 1302 0
237 88 -474 1303 0
200 485 -401 1304 0
-481 456 451 1305 0
292 -321 -119 1306 0
60 445 382 1307 0
-258 -98 -266 1308 0
-30 -259 172 1309 0
-158 -76 -311 1310 0
468 425 463 1311 0
-39 -326 158 1312 0
-338 308 412 1313 0
-459 29 126 1314 0
-353 -285 242 1315 0
-239 -359 -186 1316 0
321 -353 -293 1317 0
394 173 -281 1318 0
165 25 -62 1319 0
-85 -100 -142 1320 0
170 177 173 1321 0
418 66 -376 1322 0
307 417 -348 1323 0
421 -156 118 1324 0
142 -187 -268 1325 0
330 159 -59 1326 0
482 151 132 1327 0
89 321 364 1328 0
-452 95 -29 1329 0
-390 366 476 1330 0
-258 -263 -110 1331 0
104 -354 -141 1332 0
214 -489 -68 1333 0
-126 -149 186 1334 0
-52 -397 377 1335 0
-388 307 25 1336 0
256 480 404 1337 0
112 -107 -375 1338 0
474 337 9 1339 0
-195 -66 387 1340 0
358 -143 -154 1341 0
-294 304 -253 1342 0
-492 -49 438 1343 0
-409 215 -81 1344 0
432 -450 293 1345 0
176 -74 -263 1346 0
-22 -362 75 1347 0
121 252 -448 1348 0
-14 102 399 1349 0
-164 61 -171 1350 0
488 196 253 1351 0
124 361 72 1352 0
-27 234 197 1353 0
-456 217 280 1354 0
-342 142 425 1355 0
264 -201 177 1356 0
274 -84 -467 1357 0
145 390 272 1358 0
459 -283 -414 1359 0
-182 148 53 1360 0
430 -64 -36 1361 0
-362 124 54 1362 0
2 105 334 1363 0
-145 -176 -263 1364 0
-284 371 -380 1365 0
357 -117 136 1366 0
387 129 497 1367 0
-62 244 389 1368 0
-359 347 175 1369 0
223 426 389 1370 0
384 253 -189 1371 0
-300 -253 22 1372 0
167 -387 -11 1373 0
-250 324 389 1374 0
-338 484 -482 1375 0
-156 -236 100 1376 0
-330 -169 -423 1377 0
220 -385 86 1378 0
-369 -292 -392 1379 0
-381 -6 -240 1380 0
13 445 153 1381 0
449 279 384 1382 0
-119 -360 -339 1383 0
-423 -135 397 1384 0
-254 -65 167 1385 0
-443 -156 -221 1386 0
-491 -172 394 1387 0
-438 70 -497 1388 0
-272 -17 364 1389 0
-54 -164 349 1390 0
58 497 -220 1391 0
410 -329 -292 1392 0
-183 385 -44 1393 0
-495 -472 -138 1394 0
167 -299 -486 1395 0
-157 -252 38 1396 0
454 101 -400 1397 0
446 246 -111 1398 0
-42 -105 183 1399 0
391 -44 -73 1400 0
426 28 -302 1401 0
-18 370 226 1402 0
-264 -234 -49 1403 0
488 118 165 1404 0
147 -191 9 1405 0
-350 494 320 1406 0
499 343 392 1407 0
-343 -139 -128 1408 0
15 415 -14 1409 0
495 -498 340 1410 0
-229 -246 -478 1411 0
-460 -176 -256 1412 0
355 342 175 1413 0
-428 355 -334 1414 0
371 -258 254 1415 0
-362 -419 181 1416 0
-271 90 132 1417 0
73 424 125 1418 0
46 -405 -82 1419 0
191 -302 340 1420 0
260 266 95 1421 0
-130 233 22 1422 0
-498 265 -457 1423 0
-242 70 -130 1424 0
273 -320 -487 1425 0
12 15 278 1426 0
96 -468 296 1427 0
-136 326 280 1428 0
-308 465 -339 1429 0
-341 250 199 1430 0
143 -211 -435 1431 0
345 -493 -106 1432 0
284 412 -207 1433 0
399 190 311 1434 0
335 214 218 1435 0
-35 -27 284 1436 0
500 14 74 1437 0
-411 -58 86 1438 0
433 -363 138 1439 0
-297 -41 470 1440 0
-324 258 -98 1441 0
391 -98 47 1442 0
399 68 -268 1443 0
-212 -356 -59 1444 0
-233 -302 102 1445 0
-159 417 499 1446 0
278 -328 -295 1447 0
-194 286 -441 1448 0
268 216 -390 1449 0
144 -94 -199 1450 0
409 489 187 1451 0
107 -437 -483 1452 0
-314 -361 164 1453 0
-409 -157 -284 1454 0
-65 -329 -268 1455 0
249 296 214 1456 0
18 85 -99 1457 0
31 249 -254 1458 0
477 -112 480 1459 0
266 454 289 1460 0
-32 -174 250 1461 0
487 158 -154 1462 0
-85 -309 -375 1463 0
484 -363 -150 1464 0
-141 -468 -472 1465 0
336 -210 416 1466 0
385 -173 -119 1467 0
-97 342 73 1468 0
441 -459 274 1469 0
346 192 -464 1470 0
54 97 189 1471 0
-186 -439 359 1472 0
74 470 -391 1473 0
222 -258 164 1474 0
-55 463 141 1475 0
-306 419 -235 1476 0
351 -323 -171 1477 0
-369 81 100 1478 0
312 451 47 1479 0
-145 -71 -354 1480 0
49 209 -481 1481 0
-145 -211 133 1482 0
-220 -321 402 1483 0
97 212 227 1484 0
-277 77 -493 1485 0
-128 -399 492 1486 0
-92 419 343 1487 0
-382 -376 255 1488 0
-18 -137 -315 1489 0
332 182 246 1490 0
-113 119 -11 1491 0
-11 -328 -207 1492 0
328 -343 166 1493 0
412 -7 -366 1494 0
-350 105 -39 1495 0
-223 -344 -225 1496 0
-207 490 116 1497 0
-186 471 -423 1498 0
-494 -313 -198 1499 0
-7 -91 -407 1500 0
235 371 -322 1501 0
-458 -69 -315 1502 0
153 243 -123 1503 0
-396 -57 -198 1504 0
22 494 -301 1505 0
-207 -225 493 1506 0
-476 -442 351 1507 0
13 -299 -466 1508 0
223 -282 -68 1509 0
-433 227 340 1510 0
-215 -473 20 1511 0
354 -307 -212 1512 0
-471 222 -61 1513 0
360 110 -248 1514 0
-188 193 -429 1515 0
-116 -425 174 1516 0
369 -260 35 1517 0
438 159 -83 1518 0
79 -260 336 1519 0
-213 411 170 1520 0
11 80 281 1521 0
434 90 236 1522 0
-402 118 140 1523 0
451 -234 65 1524 0
279 475 164 1525 0
346 28 -441 1526 0
-113 -58 -263 1527 0
-80 -48 -425 1528 0
-491 280 181 1529 0
-168 -6 -211 1530 0
246 -450 -94 1531 0
-320 119 458 1532 0
-102 -41 -11 1533 0
-335 -313 -477 1534 0
334 167 363 1535 0
94 302 59 1536 0
-83 316 443 1537 0
388 377 -154 1538 0
-351 217 163 1539 0
-13 -145 -190 1540 0
-22 12 134 1541 0
-237 117 -35 1542 0
-364 85 250 1543 0
497 339 -79 1544 0
8 369 486 1545 0
446 250 -259 1546 0
-419 -153 -340 1547 0
420 333 -230 1548 0
-59 -450 36 1549 0
-360 5 -49 1550 0
-281 -361 -437 1551 0
-346 -173 -234 1552 0
444 83 -106 1553 0
-412 -13 -373 1554 0
-4 -332 67 1555 0
228 301 205 1556 0
-120 -286 30 1557 0
-313 103 434 1558 0
-441 314 91 1559 0
-256 -368 400 1560 0
-198 -116 -162 1561 0
-213 460 -262 1562 0
-482 350 35 1563 0
-187 -68 -299 1564 0
38 27 -371 1565 0
370 -265 -79 1566 0
-170 -500 -166 1567 0
-480 470 -285 1568 0
-178 -442 20 1569 0
92 236 -437 1570 0
-164 349 434 1571 0
-325 -97 144 1572 0
401 -284 415 1573 0
289 103 -362 1574 0
-21 -491 -168 1575 0
-428 -16 -164 1576 0
149 -81 426 1577 0
-431 -246 133 1578 0
-102 -12 -369 1579 0
-446 -327 -457 1580 0
-248 -193 -111 1581 0
-139 481 438 1582 0
367 -36 399 1583 0
-79 -360 -271 1584 0
-423 -84 -183 1585 0
495 38 127 1586 0
154 -10 159 1587 0
-180 -182 -225 1588 0
115 24 108 1589 0
322 411 332 1590 0
490 -419 -348 1591 0
-271 -198 -202 1592 0
388 76 -405 1593 0
216 -54 -148 1594 0
181 18 -309 1595 0
-287 -152 456 1596 0
478 153 -282 1597 0
-317 88 55 1598 0
444 -334 252 1599 0
-162 -80 -166 1600 0
296 130 448 1601 0
-131 -227 213 1602 0
448 440 -204 1603 0
252 118 -86 1604 0
150 -47 -489 1605 0
440 -42 495 1606 0
97 -1 -181 1607 0
220 -442 -70 1608 0
177 181 376 1609 0
-395 -207 450 1610 0
-34 -85 -364 1611 0
367 222 246 1612 0
2 -104 393 1613 0
375 311 309 1614 0
446 287 341 1615 0
-157 -349 115 1616 0
-295 -342 -359 1617 0
-216 494 -347 1618 0
-300 4 3 1619 0
91 -493 484 1620 0
-202 -455 -103 1621 0
477 -444 372 1622 0
-158 28 -120 1623 0
-129 -6 94 1624 0
-124 388 353 1625 0
248 441 365 1626 0
461 -324 -103 1627 0
329 -478 -487 1628 0
351 -342 -388 1629 0
71 -67 381 1630 0
350 158 -26 1631 0
496 67 31 1632 0
-460 298 -253 1633 0
-18 308 -498 1634 0
172 -288 -134 1635 0
153 336 -357 1636 0
-329 297 -433 1637 0
493 201 159 1638 0
19 288 355 1639 0
266 341 -6 1640 0
-273 -55 -408 1641 0
-183 242 -350 1642 0
-4 -286 129 1643 0
-434 -472 440 1644 0
-476 -393 126 1645 0
2 -243 -100 1646 0
211 -194 -109 1647 0
100 131 198 1648 0
40 -471 283 1649 0
66 321 78 1650 0
74 -323 461 1651 0
-145 -67 74 1652 0
68 67 -98 1653 0
465 372 350 1654 0
-259 332 -6 1655 0
500 -65 -172 1656 0
283 -481 -331 1657 0
80 -191 -140 1658 0
96 220 -233 1659 0
100 -339 -111 1660 0
-145 235 24 1661 0
-53 -1 -313 1662 0
-498 -156 -449 1663 0
174 380 -226 1664 0
-135 396 24 1665 0
-100 -468 -124 1666 0
-241 -477 207 1667 0
377 -156 -26 1668 0
63 -471 102 1669 0
-209 29 -101 1670 0
-276 -294 95 1671 0
-70 4 -20 1672 0
321 -336 423 1673 0
-451 229 -137 1674 0
-360 -200 387 1675 0
-158 133 411 1676 0
-174 -395 -455 1677 0
204 -437 -57 1678 0
85 -233 -216 1679 0
477 -227 145 1680 0
392 -96 495 1681 0
-234 -319 62 1682 0
-380 127 -450 1683 0
388 -59 -66 1684 0
-481 429 250 1685 0
472 -278 -301 1686 0
243 71 -252 1687 0
119 -230 -53 1688 0
343 225 -256 1689 0
242 271 103 1690 0
-315 -476 -41 1691 0
-265 388 -187 1692 0
-36 81 144 1693 0
439 -261 -377 1694 0
279 -99 -387 1695 0
127 222 -285 1696 0
31 -94 336 1697 0
254 -83 -467 1698 0
483 -443 423 1699 0
103 -219 -455 1700 0
6 -108 228 1701 0
20 -424 -479 1702 0
-357 -443 463 1703 0
193 -383 -464 1704 0
472 256 417 1705 0
-259 500 -102 1706 0
144 156 83 1707 0
89 292 175 1708 0
30 -237 -203 1709 0
94 46 251 1710 0
127 -67 384 1711 0
-246 -414 47 1712 0
-67 234 43 1713 0
-353 420 290 1714 0
-294 219 125 1715 0
350 -459 -473 1716 0
291 -7 444 1717 0
-157 483 -445 1718 0
304 -473 209 1719 0
-476 256 161 1720 0
-142 -87 229 1721 0
-449 274 -113 1722 0
178 -134 323 1723 0
-180 -298 -347 1724 0
473 279 35 1725 0
3 355 13 1726 0
-3 350 65 1727 0
330 429 391 1728 0
104 163 381 1729 0
37 -34 2 1730 0
461 403 -125 1731 0
366 220 -431 1732 0
-376 38 208 1733 0
264 12 139 1734 0
-302 -500 -169 1735 0
430 11 397 1736 0
-456 29 -261 1737 0
-462 382 250 1738 0
197 -39 -44 1739 0
492 463 -12 1740 0
-239 87 416 1741 0
317 -52 468 1742 0
-244 -245 302 1743 0
-121 246 33 1744 0
419 -98 -106 1745 0
334 361 -479 1746 0
-354 -456 -162 1747 0
-412 429 371 1748 0
75 -147 -86 1749 0
-476 -55 -242 1750 0
-111 -109 -257 1751 0
-172 28 -100 1752 0
359 59 -431 1753 0
394 -336 151 1754 0
314 358 73 1755 0
85 47 -195 1756 0
-462 1 215 1757 0
-330 291 159 1758 0
-302 -432 412 1759 0
59 -46 357 1760 0
-134 423 -22 1761 0
-113 -308 2 1762 0
-241 -188 72 1763 0
479 -224 86 1764 0
-481 144 300 1765 0
477 244 -362 1766 0
-59 -190 445 1767 0
36 -68 -28 1768 0
-182 8 29 1769 0
10 183 180 1770 0
-171 145 500 1771 0
472 -359 4 1772 0
441 -46 217 1773 0
-11 381 -335 1774 0
-92 -373 -148 1775 0
-323 15 -54 1776 0
387 -234 -4 1777 0
-20 102 235 1778 0
-275 -149 426 1779 0
-24 -41 -92 1780 0
-482 -250 443 1781 0
10 371 -474 1782 0
41 117 341 1783 0
374 -172 -110 1784 0
330 309 420 1785 0
-493 497 475 1786 0
262 149 -12 1787 0
435 460 -21 1788 0
-170 -164 -356 1789 0
30 -380 363 1790 0
104 -170 399 1791 0
-350 460 -300 1792 0
-463 -462 457 1793 0
288 -176 -48 1794 0
407 21 -476 1795 0
-377 270 322 1796 0
96 380 93 1797 0
383 386 448 1798 0
311 156 397 1799 0
93 331 -129 1800 0
-198 -345 -366 1801 0
470 -204 -161 1802 0
334 -379 302 1803 0
120 214 -168 1804 0
-150 -132 -428 1805 0
-415 -447 333 1806 0
448 370 -397 1807 0
16 -479 -27 1808 0
201 232 97 1809 0
-405 42 -101 1810 0
-216 -293 -12 1811 0
471 -305 -379 1812 0
47 292 -346 1813 0
-90 295 -447 1814 0
269 335 52 1815 0
-317 21 -393 1816 0
274 -398 66 1817 0
209 -443 268 1818 0
-370 273 -422 1819 0
-219 -451 147 1820 0
-78 210 443 1821 0
316 -293 -130 1822 0
-241 121 -301 1823 0
-271 -282 57 1824 0
-328 438 495 1825 0
-183 434 -417 1826 0
171 290 300 1827 0
112 262 497 1828 0
185 458 -480 1829 0
263 -416 276 1830 0
-233 -494 214 1831 0
58 -3 246 1832 0
-129 75 -266 1833 0
-95 240 330 1834 0
-327 -253 -232 1835 0
-85 -330 109 1836 0
-147 -476 102 1837 0
392 -157 -270 1838 0
462 76 -350 1839 0
474 251 -250 1840 0
-45 90 104 1841 0
-416 322 387 1842 0
-321 36 53 1843 0
-414 -465 -211 1844 0
227 -201 321 1845 0
268 -404 283 1846 0
368 484 121 1847 0
180 48 -107 1848 0
104 384 144 1849 0
394 -403 44 1850 0
429 -338 -217 1851 0
168 113 434 1852 0
-124 -379 -319 1853 0
-161 -447 146 1854 0
85 -286 31 1855 0
-323 -9 96 1856 0
-172 -185 -451 1857 0
263 358 456 1858 0
36 -88 336 1859 0
12 104 452 1860 0
106 -450 447 1861 0
-427 243 106 1862 0
61 184 207 1863 0
288 424 -404 1864 0
-440 -168 432 1865 0
-446 17 124 1866 0
128 407 -115 1867 0
-397 -98 -404 1868 0
316 82 -420 1869 0
-463 -224 35 1870 0
-477 16 38 1871 0
-307 114 430 1872 0
-128 -488 -487 1873 0
420 76 106 1874 0
383 334 226 1875 0
449 265 8 1876 0
74 -15 -277 1877 0
185 -174 487 1878 0
-102 -453 148 1879 0
201 -133 -293 1880 0
150 109 364 1881 0
-229 -366 199 1882 0
320 -200 61 1883 0
61 -297 4 1884 0
88 -477 271 1885 0
-83 -66 280 1886 0
-365 132 179 1887 0
155 215 96 1888 0
-478 482 106 1889 0
498 25 -370 1890 0
301 -155 -21 1891 0
143 200 387 1892 0
206 -79 320 1893 0
90 351 283 1894 0
-248 -167 353 1895 0
281 -46 -235 1896 0
445 288 46 1897 0
-362 -189 323 1898 0
359 -383 114 1899 0
-69 456 430 1900 0
-109 105 418 1901 0
242 499 238 1902 0
-184 7 -423 1903 0
-202 313 -100 1904 0
209 -56 -422 1905 0
446 207 86 1906 0
306 416 17 1907 0
245 448 -301 1908 0
-78 22 -248 1909 0
306 411 -5 1910 0
213 125 -21 1911 0
474 301 -118 1912 0
-210 -9 374 1913 0
491 88 -280 1914 0
-39 164 -93 1915 0
173 -191 1 1916 0
-454 200 343 1917 0
-298 -196 -115 1918 0
-473 82 -175 1919 0
63 53 -365 1920 0
-194 6 -294 1921 0
-387 -368 -228 1922 0
-410 -451 -228 1923 0
415 -235 198 1924 0
102 -259 168 1925 0
190 -18 173 1926 0
-431 48 -347 1927 0
-294 300 277 1928 0
-43 26 77 1929 0
-440 -481 -104 1930 0
-339 93 -200 1931 0
93 -1 -76 1932 0
-154 -459 -342 1933 0
265 450 288 1934 0
442 446 201 1935 0
186 354 183 1936 0
197 -451 112 1937 0
-495 83 480 1938 0
-456 380 -359 1939 0
-432 392 473 1940 0
168 472 306 1941 0
278 123 -387 1942 0
-68 321 -122 1943 0
136 -468 488 1944 0
359 -206 373 1945 0
431 -390 -191 1946 0
165 226 -377 1947 0
-224 210 -297 1948 0
358 -405 -472 1949 0
-26 -464 -65 1950 0
242 -245 463 1951 0
-194 79 -29 1952 0
340 357 283 1953 0
498 196 477 1954 0
201 -91 -199 1955 0
166 218 -380 1956 0
-83 -62 -418 1957 0
280 -74 342 1958 0
-287 -170 390 1959 0
227 337 105 1960 0
16 151 -29 1961 0
-180 -425 192 1962 0
276 -488 -212 1963 0
233 368 -439 1964 0
-423 155 64 1965 0
450 -95 -423 1966 0
-420 273 169 1967 0
-459 -390 56 1968 0
-409 13 -397 1969 0
-15 -358 -7 1970 0
-290 -237 -285 1971 0
325 -315 491 1972 0
82 -85 -287 1973 0
-16 415 -225 1974 0
-236 226 -177 1975 0
186 -210 -273 1976 0
-408 221 235 1977 0
-229 35 434 1978 0
-202 -148 -152 1979 0
325 130 -41 1980 0
-350 35 -189 1981 0
376 -198 -353 1982 0
-233 74 138 1983 0
-303 193 -393 1984 0
-80 -395 -445 1985 0
95 -428 -380 1986 0
286 85 137 1987 0
411 -451 -126 1988 0
-406 -32 152 1989 0
-81 -499 -266 1990 0
452 -104 81 1991 0
251 84 -319 1992 0
-146 128 167 1993 0
-269 64 6 1994 0
-479 164 278 1995 0
427 195 35 1996 0
-273 -418 -186 1997 0
131 13 55 1998 0
20 19 -116 1999 0
-442 -212 496 2000 0
-418 159 -70 2001 0
-39 -475 482 2002 0
-22 63 -99 2003 0
-303 -267 -179 2004 0
418 449 -176 2005 0
-38 96 29 2006 0
175 26 18 2007 0
-382 -275 123 2008 0
-131 44 33 2009 0
-433 81 430 2010 0
391 -383 425 2011 0
495 285 141 2012 0
-188 -410 345 2013 0
-267 64 -146 2014 0
257 -139 -406 2015 0
337 -115 -48 2016 0
-238 457 -65 2017 0
458 245 -127 2018 0
309 5 -448 2019 0
-128 55 -294 2020 0
450 -278 189 2021 0
424 384 53 2022 0
301 180 208 2023 0
166 234 209 2024 0
-396 35 -360 2025 0
-293 90 -52 2026 0
-465 351 176 2027 0
190 1 -378 2028 0
-107 73 -90 2029 0
194 46 -470 2030 0
-207 240 -59 2031 0
-30 -395 431 2032 0
-302 279 202 2033 0
-191 308 -255 2034 0
295 435 39 2035 0
164 -414 89 2036 0
236 -148 -485 2037 0
412 495 90 2038 0
257 -81 453 2039 0
83 -41 -446 2040 0
21 -410 -281 2041 0
-491 251 255 2042 0
-121 430 229 2043 0
-453 -44 -375 2044 0
-366 -453 -217 2045 0
-93 -268 -212 2046 0
-275 227 160 2047 0
-330 -30 41 2048 0
352 -473 -346 2049 0
365 -441 206 2050 0
305 -292 392 2051 0
-428 -68 -120 2052 0
-173 -163 -380 2053 0
340 -364 -181 2054 0
-470 -379 363 2055 0
403 -71 -188 2056 0
-399 394 440 2057 0
336 235 -369 2058 0
-169 438 -47 2059 0
-468 -174 -71 2060 0
330 -237 138 2061 0
-242 -98 -264 2062 0
168 -434 341 2063 0
-230 490 207 2064 0
-105 -462 36 2065 0
-237 -474 -306 2066 0
-337 -318 398 2067 0
-492 -288 169 2068 0
-237 -62 307 2069 0
38 385 -251 2070 0
499 -472 -379 2071 0
-109 -196 -282 2072 0
467 -433 418 2073 0
425 466 -161 2074 0
-461 354 -442 2075 0
-393 286 -291 2076 0
-181 394 -481 2077 0
481 -377 82 2078 0
383 497 -304 2079 0
-239 -416 247 2080 0
454 424 -308 2081 0
-265 -200 -351 2082 0
-381 49 -459 2083 0
-437 400 -324 2084 0
-230 -79 73 2085 0
-467 134 -223 2086 0
347 -477 296 2087 0
430 -262 -251 2088 0
-276 45 365 2089 0
464 6 458 2090 0
119 -12 -350 2091 0
257 -418 -488 2092 0
-280 491 247 2093 0
-94 -145 356 2094 0
235 40 308 2095 0
-182 -129 492 2096 0
-94 -121 17 2097 0
-442 3 194 2098 0
-140 328 -430 2099 0
-426 -115 -116 2100 0
-355 -439 -171 2101 0
8 477 -73 2102 0
-102 -460 269 2103 0
-371 -142 287 2104 0
492 403 319 2105 0
107 -421 -446 2106 0
455 -287 203 2107 0
-421 -108 255 2108 0
147 -366 -432 2109 0
-475 -433 246 2110 0
123 -402 227 2111 0
-327 439 473 2112 0
-70 -118 204 2113 0
-406 419 -492 2114 0
120 105 -469 2115 0
56 -422 87 2116 0
208 -358 -19 2117 0
-8 -385 57 2118 0
-337 -353 -430 2119 0
-186 256 265 2120 0
275 431 157 2121 0
456 225 -159 2122 0
-442 49 -289 2123 0
-323 -407 -412 2124 0
-348 333 261 2125 0
100 426 -15 2126 0
461 143 278 2127 0
368 -422 192 2128 0
323 -109 268 2129 0
-77 185 455 2130 0
-59 -135 -263 2131 0
343 -334 74 2132 0
-142 97 63 2133 0
-190 -332 455 2134 0
132 -433 -108 2135 0
-315 429 -392 2136 0
-59 324 75 2137 0
-413 383 20 2138 0
-398 -387 372 2139 0
-353 170 -90 2140 0
-133 176 -300 2141 0
-296 478 -457 2142 0
110 -194 231 2143 0
-225 362 -360 2144 0
-13 309 -360 2145 0
86 112 309 2146 0
155 285 -475 2147 0
-335 -62 110 2148 0
-82 474 -469 2149 0
170 381 409 2150 0
-376 296 -66 2151 0
-203 -146 457 2152 0
277 -4 -190 2153 0
-231 -14 462 2154 0
-125 188 137 2155 0
165 -281 232 2156 0
-460 161 295 2157 0
-241 120 -64 2158 0
454 -289 -267 2159 0
-330 497 -474 2160 0
-464 404 285 2161 0
81 -4 -481 2162 0
-437 -408 -151 2163 0
-450 -54 370 2164 0
-358 -16 -222 2165 0
-333 211 415 2166 0
321 380 207 2167 0
-266 188 32 2168 0
-446 273 445 2169 0
482 288 40 2170 0
-183 15 64 2171 0
237 -258 -211 2172 0
440 -316 34 2173 0
-449 -182 72 2174 0
259 -84 -119 2175 0
306 -46 -224 2176 0
101 -469 177 2177 0
-181 397 477 2178 0
137 -3 -40 2179 0
226 -43 187 2180 0
435 187 -401 2181 0
289 -42 -461 2182 0
-290 -206 355 2183 0
-142 294 172 2184 0
42 339 419 2185 0
-357 226 300 2186 0
438 106 82 2187 0
-477 -449 -160 2188 0
465 -96 -282 2189 0
341 99 -75 2190 0
-109 -85 81 2191 0
-449 -121 -470 2192 0
266 -66 242 2193 0
-125 205 274 2194 0
-285 190 -447 2195 0
-372 -247 408 2196 0
-249 -292 424 2197 0
116 -294 280 2198 0
-353 -85 478 2199 0
473 -19 47 2200 0
289 21 387 2201 0
-344 39 365 2202 0
-187 -277 -90 2203 0
-100 34 -32 2204 0
-337 -316 -143 2205 0
48 -111 407 2206 0
-463 29 188 2207 0
-145 -164 341 2208 0
125 -173 382 2209 0
302 -53 -215 2210 0
-186 163 346 2211 0
-440 87 381 2212 0
281 -81 -178 2213 0
345 28 -396 2214 0
-199 -365 -478 2215 0
-172 364 391 2216 0
-481 -10 368 2217 0
-67 -74 396 2218 0
-119 118 152 2219 0
-335 -392 13 2220 0
455 468 499 2221 0
329 -275 416 2222 0
292 -204 -140 2223 0
-158 357 111 2224 0
-342 150 -132 2225 0
-69 426 -292 2226 0
460 487 -292 2227 0
473 -415 464 2228 0
-106 128 -500 2229 0
215 -326 -231 2230 0
-215 -354 -328 2231 0
89 -395 245 2232 0
74 290 -96 2233 0
-334 176 362 2234 0
-499 -474 273 2235 0
95 394 311 2236 0
-69 423 176 2237 0
-84 -214 280 2238 0
-205 97 18 2239 0
133 113 145 2240 0
-157 -216 -337 2241 0
-366 -336 -445 2242 0
273 198 49 2243 0
41 367 75 2244 0
-475 -298 -102 2245 0
168 9 -277 2246 0
45 434 -321 2247 0
-328 210 206 2248 0
66 196 -73 2249 0
351 -157 464 2250 0
-214 168 11 2251 0
433 267 444 2252 0
141 477 -16 2253 0
-250 -230 399 2254 0
-321 349 272 2255 0
-475 482 -498 2256 0
-155 -223 169 2257 0
292 28 138 2258 0
-243 -309 194 2259 0
-485 -208 -330 2260 0
-272 -429 44 2261 0
-57 61 -418 2262 0
376 306 -215 2263 0
192 -398 -134 2264 0
-378 -436 381 2265 0
-103 287 -39 2266 0
244 -461 315 2267 0
499 -362 -432 2268 0
38 481 89 2269 0
128 -191 192 2270 0
-415 315 -471 2271 0
-32 -265 -83 2272 0
-45 -269 -114 2273 0
308 246 -359 2274 0
-355 -84 436 2275 0
-241 298 -338 2276 0
461 119 298 2277 0
-54 200 -248 2278 0
-158 491 116 2279 0
17 414 12 2280 0
475 486 106 2281 0
-257 444 -238 2282 0
-203 67 484 2283 0
-487 -268 -347 2284 0
396 144 142 2285 0
288 201 85 2286 0
303 -312 -242 2287 0
-455 86 89 2288 0
-370 68 -164 2289 0
423 478 378 2290 0
241 255 -380 2291 0
253 -324 -109 2292 0
480 357 -401 2293 0
-279 348 17 2294 0
70 2 -340 2295 0
210 383 -203 2296 0
-481 21 -136 2297 0
-105 96 363 2298 0
411 -93 386 2299 0
440 -378 -456 2300 0
-228 -13 379 2301 0
474 -247 -122 2302 0
376 248 31 2303 0
-338 -405 314 2304 0
185 -466 250 2305 0
269 62 -221 2306 0
263 140 365 2307 0
61 -114 166 2308 0
9 -17 200 2309 0
96 -312 -2 2310 0
249 -340 -182 2311 0
-23 496 -479 2312 0
-165 362 462 2313 0
-247 191 323 2314 0
371 -77 13 2315 0
-267 -461 492 2316 0
339 -257 -372 2317 0
-230 -244 -76 2318 0
-98 349 109 2319 0
331 -85 218 2320 0
345 423 -9 2321 0
403 235 -377 2322 0
-190 41 318 2323 0
-206 489 -240 2324 0
-97 474 -196 2325 0
185 17 -396 2326 0
-477 306 -209 2327 0
-278 401 -83 2328 0
-62 -421 15 2329 0
471 -399 252 2330 0
300 125 -135 2331 0
-440 -312 -372 2332 0
-220 409 -96 2333 0
-372 328 -352 2334 0
335 -411 -348 2335 0
-438 269 -294 2336 0
-485 444 375 2337 0
-475 -181 265 2338 0
-191 -128 -299 2339 0
-196 122 -264 2340 0
-199 -461 -95 2341 0
283 84 -196 2342 0
462 6 -169 2343 0
-6 268 -172 2344 0
-305 -118 -417 2345 0
278 348 430 2346 0
-101 46 -189 2347 0
301 -463 -469 2348 0
468 193 -248 2349 0
319 28 190 2350 0
33 353 -133 2351 0
445 207 -26 2352 0
137 421 380 2353 0
-325 -125 210 2354 0
-460 -24 404 2355 0
384 168 135 2356 0
-78 -462 73 2357 0
152 369 -54 2358 0
-79 -421 -461 2359 0
258 229 -478 2360 0
-278 306 -356 2361 0
-81 187 438 2362 0
-463 284 61 2363 0
324 -467 165 2364 0
-374 484 276 2365 0
115 114 -207 2366 0
-221 -366 390 2367 0
-302 -158 149 2368 0
-225 -159 -419 2369 0
428 -195 -455 2370 0
101 -122 -134 2371 0
404 -70 -103 2372 0
499 -433 -447 2373 0
228 -78 -149 2374 0
-226 18 117 2375 0
428 -400 434 2376 0
-218 -57 -170 2377 0
115 105 -334 2378 0
-159 270 -412 2379 0
105 -135 -373 2380 0
-306 -46 -463 2381 0
-113 -87 -219 2382 0
-216 -450 -495 2383 0
334 494 -309 2384 0
-282 -497 -165 2385 0
45 -102 325 2386 0
68 -44 -314 2387 0
447 16 -45 2388 0
-206 -117 -53 2389 0
-108 4 471 2390 0
338 -92 352 2391 0
160 106 -415 2392 0
172 464 465 2393 0
489 -364 -103 2394 0
-361 -117 321 2395 0
-7 -144 -14 2396 0
-257 -254 -167 2397 0
323 -129 236 2398 0
-352 64 -66 2399 0
350 360 -294 2400 0
267 211 143 2401 0
-291 -32 -90 2402 0
321 361 118 2403 0
41 259 97 2404 0
497 -234 58 2405 0
49 -44 -429 2406 0
-272 -123 368 2407 0
-494 -468 41 2408 0
-372 -323 415 2409 0
89 -336 -345 2410 0
124 495 364 2411 0
-418 -192 -500 2412 0
-336 -236 -422 2413 0
412 439 68 2414 0
294 -48 -140 2415 0
-459 337 476 2416 0
148 134 -112 2417 0
294 -97 224 2418 0
-247 -34 -402 2419 0
-289 -417 438 2420 0
343 -10 163 2421 0
154 383 -104 2422 0
463 -297 481 2423 0
450 -444 317 2424 0
-101 -344 -418 2425 0
-326 -262 -96 2426 0
-439 -380 451 2427 0
452 -8 -10 2428 0
218 -445 -100 2429 0
21 205 495 2430 0
446 -174 -123 2431 0
484 -443 320 2432 0
16 -234 -396 2433 0
65 379 -303 2434 0
-258 -206 -238 2435 0
-361 469 430 2436 0
297 455 -325 2437 0
72 -32 -151 2438 0
-61 -26 461 2439 0
119 -463 -120 2440 0
-97 -366 -30 2441 0
-452 324 457 2442 0
-43 159 -4 2443 0
-290 -9 -156 2444 0
-212 432 345 2445 0
-84 420 -197 2446 0
479 243 -138 2447 0
356 -49 258 2448 0
239 -97 -109 2449 0
-184 -349 341 2450 0
-446 33 -305 2451 0
-330 138 132 2452 0
-48 87 485 2453 0
204 -396 342 2454 0
443 -468 17 2455 0
-364 -268 -213 2456 0
356 -63 85 2457 0
172 24 -449 2458 0
-292 114 -440 2459 0
-281 241 200 2460 0
-475 -171 -22 2461 0
-469 -67 -452 2462 0
497 371 -483 2463 0
252 -321 113 2464 0
-129 356 270 2465 0
15 386 201 2466 0
-273 -415 -387 2467 0
-488 98 -304 2468 0
421 -395 -52 2469 0
436 -469 -240 2470 0
-256 273 -88 2471 0
-32 69 -14 2472 0
-471 -332 -310 2473 0
97 -435 128 2474 0
71 136 -119 2475 0
454 -90 220 2476 0
322 453 44 2477 0
-297 321 -380 2478 0
266 254 121 2479 0
-431 -262 -273 2480 0
-457 -222 390 2481 0
-168 -180 -161 2482 0
-131 242 -320 2483 0
306 336 436 2484 0
488 -26 -247 2485 0
84 361 376 2486 0
415 -165 327 2487 0
-366 -60 171 2488 0
480 -429 -474 2489 0
-495 408 -197 2490 0
-317 306 482 2491 0
356 -341 -67 2492 0
-434 10 377 2493 0
474 242 -25 2494 0
-97 175 490 2495 0
335 450 -366 2496 0
73 489 -340 2497 0
-5 12 -459 2498 0
446 245 -458 2499 0
324 -39 366 2500 0
403 -14 434 2501 0
-491 437 433 2502 0
357 -81 -293 2503 0
-75 139 262 2504 0
162 248 5 2505 0
-404 -410 -452 2506 0
-154 105 -275 2507 0
-48 -66 -75 2508 0
-224 418 -423 2509 0
-371 350 180 2510 0
428 -329 36 2511 0
-106 144 -328 2512 0
228 -384 -288 2513 0
68 55 220 2514 0
411 -85 -140 2515 0
127 176 205 2516 0
-480 -139 -487 2517 0
421 -186 -497 2518 0
-217 -258 -214 2519 0
208 413 -238 2520 0
-371 315 -351 2521 0
101 272 358 2522 0
-297 -58 376 2523 0
101 128 -27 2524 0
299 25 468 2525 0
216 -210 -292 2526 0
-80 283 -90 2527 0
-276 -493 324 2528 0
-462 176 341 2529 0
330 247 101 2530 0
-330 -489 19 2531 0
-299 449 145 2532 0
-468 475 116 2533 0
-95 452 16 2534 0
-94 385 55 2535 0
139 216 -89 2536 0
356 -70 -342 2537 0
496 50 -228 2538 0
-19 208 -127 2539 0
251 183 241 2540 0
-449 87 -438 2541 0
-77 -288 368 2542 0
361 307 193 2543 0
-179 -279 311 2544 0
315 -249 458 2545 0
-63 408 414 2546 0
-498 269 243 2547 0
275 312 286 2548 0
-193 -396 -365 2549 0
-239 -115 328 2550 0
162 356 139 2551 0
317 80 -443 2552 0
30 272 66 2553 0
151 -470 198 2554 0
51 -381 498 2555 0
14 -446 351 2556 0
412 -38 -261 2557 0
-462 -85 159 2558 0
-73 -393 396 2559 0
87 324 259 2560 0
-39 417 -418 2561 0
302 158 260 2562 0
275 -380 -134 2563 0
-301 -122 279 2564 0
-401 348 2 2565 0
-236 -47 -486 2566 0
54 -99 427 2567 0
-149 -304 -234 2568 0
-5 -344 -280 2569 0
93 -357 -351 2570 0
-227 322 109 2571 0
-120 -82 175 2572 0
412 -5 98 2573 0
192 -253 420 2574 0
256 118 392 2575 0
280 -201 34 2576 0
-406 289 275 2577 0
-318 -165 -465 2578 0
57 -247 -6 2579 0
361 428 -87 2580 0
101 -127 86 2581 0
273 -294 -231 2582 0
-64 263 183 2583 0
-62 225 416 2584 0
-121 -409 -161 2585 0
-231 -85 -65 2586 0
-405 -365 -330 2587 0
26 -416 153 2588 0
-438 181 135 2589 0
-121 -483 159 2590 0
471 -107 253 2591 0
323 -116 -408 2592 0
-135 -68 -275 2593 0
-11 -65 -153 2594 0
12 295 74 2595 0
-275 -479 -123 2596 0
-87 108 -408 2597 0
-31 -320 -115 2598 0
9 -111 19 2599 0
436 -300 -20 2600 0
-229 -263 318 2601 0
-279 161 157 2602 0
223 -257 8 2603 0
405 46 -229 2604 0
-482 161 -151 2605 0
360 -433 104 2606 0
-301 173 -162 2607 0
105 -139 -135 2608 0
-9 -329 -322 2609 0
-479 -7 323 2610 0
494 395 -394 2611 0
248 153 -321 2612 0
-474 77 -105 2613 0
284 -337 -213 2614 0
478 -14 -118 2615 0
-201 -403 51 2616 0
500 -306 407 2617 0
162 -13 165 2618 0
22 -485 438 2619 0
-90 482 38 2620 0
269 -241 397 2621 0
-146 54 381 2622 0
-393 296 431 2623 0
-183 447 142 2624 0
-322 -183 -450 2625 0
389 279 -432 2626 0
243 -363 -86 2627 0
371 -140 358 2628 0
17 -315 -135 2629 0
375 -96 -40 2630 0
-211 396 -453 2631 0
116 -52 -456 2632 0
-204 363 -19 2633 0
258 -430 9 2634 0
413 -119 -160 2635 0
183 199 -217 2636 0
-171 -387 19 2637 0
491 -120 286 2638 0
388 -20 -112 2639 0
-41 -254 -291 2640 0
405 -114 -35 2641 0
150 90 -43 2642 0
-91 -379 -336 2643 0
-165 302 144 2644 0
-467 228 33 2645 0
-167 -490 -302 2646 0
5 148 -385 2647 0
-135 -449 146 2648 0
-439 409 -149 2649 0
-130 108 321 2650 0
