p cnf 2650 2150
-423 309 -17 501 0
305 -334 222 502 0
-171 -36 340 503 0
268 -471 263 504 0
-374 119 19 505 0
125 145 -388 506 0
-338 102 -326 507 0
177 -280 -221 508 0
110 285 96 509 0
423 -494 330 510 0
81 333 -183 511 0
417 401 -6 512 0
-215 -356 -388 513 0
-239 -38 -48 514 0
88 97 -420 515 0
-42 -378 82 516 0
184 -233 -47 517 0
2 477 -75 518 0
85 354 87 519 0
-193 -323 188 520 0
268 -139 198 521 0
-168 224 -257 522 0
297 -86 477 523 0
-36 -276 84 524 0
94 -41 -55 525 0
10 -13 163 526 0
-239 -3 215 527 0
-9 -484 -368 528 0
447 -398 -62 529 0
129 135 -470 530 0
-301 -233 -360 531 0
179 -12 105 532 0
-178 -461 273 533 0
330 -181 -219 534 0
452 495 408 535 0
442 7 452 536 0
186 -497 -283 537 0
-267 286 -77 538 0
-439 -150 -55 539 0
344 -236 96 540 0
-418 226 232 541 0
-9 -222 -309 542 0
-40 284 -64 543 0
-105 390 299 544 0
-279 120 455 545 0
-275 -210 -166 546 0
-95 456 258 547 0
400 -301 411 548 0
296 -281 166 549 0
301 217 -3 550 0
376 276 -271 551 0
-148 -75 -209 552 0
317 -219 -232 553 0
-297 -229 -419 554 0
280 13 457 555 0
-330 171 -81 556 0
482 -10 363 557 0
441 -297 346 558 0
92 -161 151 559 0
265 -492 -380 560 0
-174 306 -211 561 0
-126 -358 261 562 0
247 -244 485 563 0
214 248 -256 564 0
241 -30 264 565 0
277 -235 445 566 0
-6 -350 392 567 0
-426 424 -391 568 0
-169 46 445 569 0
330 -355 -281 570 0
-201 -4 302 571 0
-339 -336 259 572 0
-346 -53 484 573 0
139 491 -183 574 0
260 -184 -418 575 0
-483 3 -297 576 0
180 -9 112 577 0
409 -291 193 578 0
51 -223 105 579 0
-68 120 103 580 0
495 311 449 581 0
-187 247 -14 582 0
239 347 380 583 0
-413 27 236 584 0
210 144 -251 585 0
288 -404 242 586 0
-461 52 -436 587 0
-240 243 310 588 0
456 396 328 589 0
273 -19 121 590 0
-116 -358 -297 591 0
-438 138 -422 592 0
-438 -38 135 593 0
-293 462 190 594 0
123 3 -314 595 0
-491 -190 -403 596 0
237 13 -117 597 0
26 -386 5 598 0
-82 -280 409 599 0
401 153 -309 600 0
-227 376 189 601 0
99 -179 -19 602 0
139 337 -42 603 0
253 469 263 604 0
-195 -331 498 605 0
-449 -450 475 606 0
235 4 329 607 0
352 -172 -412 608 0
-398 54 32 609 0
26 452 -464 610 0
172 -97 295 611 0
-466 -414 -133 612 0
262 -328 -85 613 0
427 143 246 614 0
-17 -67 277 615 0
-383 344 286 616 0
170 37 -272 617 0
180 -388 -452 618 0
-33 -315 61 619 0
-14 -497 43 620 0
-92 232 -142 621 0
431 -206 -125 622 0
-25 165 -290 623 0
24 398 -476 624 0
-479 -451 -481 625 0
100 -283 251 626 0
-23 -58 419 627 0
-153 49 273 628 0
-414 231 -197 629 0
-439 41 -78 630 0
-487 202 448 631 0
422 -220 22 632 0
-306 -474 400 633 0
-326 217 -478 634 0
-10 481 489 635 0
317 -284 -161 636 0
-214 499 340 637 0
352 -199 32 638 0
-146 -393 -50 639 0
324 459 -183 640 0
-484 -90 11 641 0
310 10 -381 642 0
-278 341 100 643 0
-46 186 -293 644 0
-64 131 59 645 0
348 340 -424 646 0
-448 -474 181 647 0
261 346 -166 648 0
-254 65 -270 649 0
494 -297 421 650 0
-107 250 -364 651 0
426 -400 -93 652 0
-309 425 347 653 0
40 -53 350 654 0
-432 21 -176 655 0
-290 328 472 656 0
-204 285 -359 657 0
-376 -263 78 658 0
408 -79 -261 659 0
-291 -271 308 660 0
-56 -85 -83 661 0
-85 390 -302 662 0
262 -165 176 663 0
-378 -204 309 664 0
-131 386 -74 665 0
-178 -493 -455 666 0
-190 468 474 667 0
352 33 -52 668 0
494 -94 24 669 0
5 -498 173 670 0
-271 -480 -68 671 0
129 477 3 672 0
-138 -186 429 673 0
-459 149 428 674 0
-161 176 -130 675 0
-282 -336 -234 676 0
139 437 367 677 0
273 430 444 678 0
-161 -191 463 679 0
-335 366 -86 680 0
9 -266 422 681 0
-285 468 -103 682 0
-377 404 204 683 0
339 -293 -154 684 0
83 -104 8 685 0
-474 -32 -164 686 0
227 32 -332 687 0
471 -365 102 688 0
-483 -10 480 689 0
138 -116 375 690 0
304 158 -422 691 0
-301 474 -431 692 0
363 90 123 693 0
-296 6 115 694 0
-98 448 399 695 0
-314 96 -212 696 0
-486 399 -244 697 0
407 -499 417 698 0
-468 -302 -204 699 0
347 -179 91 700 0
-416 20 352 701 0
-67 69 125 702 0
7 -493 -24 703 0
-156 -119 384 704 0
289 16 252 705 0
455 -379 -104 706 0
-291 265 497 707 0
-165 437 390 708 0
-478 -275 248 709 0
-356 -204 35 710 0
-309 326 94 711 0
-45 -315 -183 712 0
-440 74 114 713 0
294 182 -405 714 0
180 -13 -67 715 0
379 -428 -46 716 0
-98 152 304 717 0
1 -159 440 718 0
393 -454 -442 719 0
175 -210 -142 720 0
-451 -45 404 721 0
-406 22 -487 722 0
215 434 194 723 0
-362 -236 198 724 0
19 368 128 725 0
402 -339 301 726 0
262 313 -244 727 0
255 -186 -2 728 0
331 427 243 729 0
-293 240 -296 730 0
408 209 225 731 0
-195 -500 282 732 0
-4 290 -245 733 0
141 -16 -284 734 0
453 -293 -393 735 0
-5 -143 293 736 0
48 -388 -14 737 0
-169 -176 110 738 0
411 296 499 739 0
-297 -462 -188 740 0
370 192 -385 741 0
-147 257 -267 742 0
56 418 413 743 0
-478 -90 438 744 0
49 -323 -448 745 0
-401 423 -302 746 0
470 8 47 747 0
-157 74 242 748 0
-368 -271 -155 749 0
179 77 56 750 0
19 47 -333 751 0
238 -67 -259 752 0
205 -348 26 753 0
-266 210 153 754 0
323 128 -280 755 0
-258 -374 181 756 0
482 -79 412 757 0
108 -497 359 758 0
-41 205 -316 759 0
70 -17 216 760 0
293 334 -427 761 0
-396 291 -154 762 0
450 81 -291 763 0
460 218 -469 764 0
-133 -54 279 765 0
-232 29 -26 766 0
236 -408 280 767 0
78 417 203 768 0
-274 -171 -268 769 0
-44 225 -478 770 0
-402 -105 -103 771 0
121 -257 81 772 0
109 -414 69 773 0
-192 -424 437 774 0
-78 -449 -180 775 0
-138 -375 109 776 0
214 38 369 777 0
130 322 -55 778 0
-395 405 289 779 0
-3 103 253 780 0
-469 189 -196 781 0
-409 1 -248 782 0
488 175 -41 783 0
-162 -92 -83 784 0
-109 177 44 785 0
-450 -430 491 786 0
-7 -132 -93 787 0
-407 -309 -399 788 0
-487 -130 -339 789 0
274 244 -66 790 0
-5 408 -26 791 0
5 -433 -330 792 0
-69 -243 371 793 0
-74 -255 272 794 0
-500 126 -381 795 0
-341 -112 -372 796 0
-456 473 3 797 0
-419 191 47 798 0
309 -410 -489 799 0
104 -409 102 800 0
-395 -318 -396 801 0
-450 130 243 802 0
-243 99 -339 803 0
-40 85 313 804 0
296 123 37 805 0
34 195 -422 806 0
-298 277 163 807 0
279 -257 474 808 0
79 -284 21 809 0
7 371 410 810 0
48 211 -294 811 0
242 256 -469 812 0
472 145 -419 813 0
189 -199 -27 814 0
192 -361 -295 815 0
-312 22 -484 816 0
-174 445 398 817 0
-422 11 -292 818 0
-37 -484 -145 819 0
246 -324 31 820 0
255 -434 -158 821 0
-45 -286 -283 822 0
-487 85 -459 823 0
104 -453 470 824 0
374 385 -341 825 0
-2 419 -478 826 0
69 42 73 827 0
36 492 -355 828 0
218 -486 -346 829 0
27 219 335 830 0
-227 388 -352 831 0
398 55 68 832 0
33 -130 440 833 0
-19 -91 156 834 0
43 -32 382 835 0
-153 337 -322 836 0
-373 121 458 837 0
3 366 -489 838 0
115 169 40 839 0
477 266 252 840 0
-356 -99 45 841 0
-428 -185 445 842 0
12 161 -439 843 0
-385 494 -322 844 0
126 440 -357 845 0
462 402 -2 846 0
-25 -390 -61 847 0
102 75 -312 848 0
326 -466 93 849 0
367 -264 -341 850 0
-103 -75 -21 851 0
292 -15 -1 852 0
-490 242 -492 853 0
390 331 317 854 0
322 -47 344 855 0
215 279 -300 856 0
44 324 419 857 0
-227 62 164 858 0
-179 -468 193 859 0
234 -290 60 860 0
-352 -36 -357 861 0
-230 -491 -284 862 0
285 351 272 863 0
-378 132 -489 864 0
-480 316 -234 865 0
-111 -217 396 866 0
-292 -486 118 867 0
-194 -178 -34 868 0
-349 63 -281 869 0
-32 420 449 870 0
-27 313 -208 871 0
399 196 -367 872 0
-317 -344 291 873 0
-72 430 -466 874 0
358 31 463 875 0
-103 43 -93 876 0
-486 -286 105 877 0
170 124 -120 878 0
-131 422 -416 879 0
-52 -282 376 880 0
424 -91 281 881 0
134 -164 -217 882 0
329 -233 -458 883 0
-283 -198 238 884 0
77 -371 317 885 0
316 15 -229 886 0
-284 157 134 887 0
331 -71 499 888 0
228 -386 490 889 0
-434 -264 437 890 0
425 -362 475 891 0
-392 -361 -398 892 0
66 -446 -165 893 0
407 336 338 894 0
445 -86 61 895 0
-69 498 -204 896 0
-197 -126 -154 897 0
245 277 -368 898 0
30 387 -67 899 0
310 -97 -290 900 0
-219 300 174 901 0
30 123 -329 902 0
-369 -233 -84 903 0
282 460 -339 904 0
-399 232 177 905 0
-416 -467 -494 906 0
494 -376 -20 907 0
-18 366 268 908 0
-320 364 202 909 0
-388 284 354 910 0
-11 94 266 911 0
-249 307 -324 912 0
243 -444 -176 913 0
-264 381 -389 914 0
260 426 -387 915 0
-263 494 68 916 0
-327 -208 -290 917 0
269 -277 97 918 0
-192 -122 -498 919 0
-305 227 160 920 0
365 -60 485 921 0
-229 -72 274 922 0
-306 -343 380 923 0
134 -210 461 924 0
-112 -369 421 925 0
-7 -241 -166 926 0
203 19 -353 927 0
-385 -404 -118 928 0
60 342 -425 929 0
-383 368 -237 930 0
-381 -491 49 931 0
-406 43 222 932 0
-359 214 79 933 0
-305 444 351 934 0
207 89 414 935 0
388 -455 -378 936 0
-317 421 -480 937 0
-296 -295 248 938 0
-265 -249 -450 939 0
-240 -285 401 940 0
296 -219 491 941 0
346 -402 470 942 0
-483 -53 285 943 0
162 -154 371 944 0
-327 343 -191 945 0
411 -11 31 946 0
-9 25 -145 947 0
-432 333 168 948 0
189 -242 208 949 0
21 255 -386 950 0
350 -280 328 951 0
480 150 316 952 0
201 -118 64 953 0
196 -38 -74 954 0
221 235 333 955 0
127 -40 -361 956 0
-249 341 -425 957 0
-351 -472 138 958 0
186 227 -182 959 0
232 -45 -68 960 0
416 -328 54 961 0
-259 -108 394 962 0
-24 -93 124 963 0
-434 -424 -353 964 0
128 -339 420 965 0
500 224 463 966 0
-326 393 -401 967 0
187 174 -421 968 0
189 -361 -266 969 0
-244 -69 -285 970 0
494 232 105 971 0
314 285 76 972 0
181 278 36 973 0
-485 451 1 974 0
301 255 -291 975 0
-212 216 353 976 0
-100 -14 113 977 0
-69 -62 329 978 0
-250 -342 357 979 0
99 3 488 980 0
-109 94 -461 981 0
-192 -58 402 982 0
-463 91 -367 983 0
301 -261 -498 984 0
-184 -7 390 985 0
-22 386 251 986 0
156 152 251 987 0
-275 -445 -364 988 0
-261 -358 -195 989 0
495 -379 396 990 0
-307 -231 -196 991 0
-36 -110 78 992 0
-281 373 -372 993 0
132 274 -134 994 0
-306 79 -125 995 0
165 411 100 996 0
-408 -305 -243 997 0
-402 420 -166 998 0
-360 83 -283 999 0
435 -482 -466 1000 0
425 -54 357 1001 0
-51 276 352 1002 0
375 -419 -398 1003 0
-305 -293 419 1004 0
18 -455 -447 1005 0
215 118 -1 1006 0
70 -367 -258 1007 0
-347 -234 70 1008 0
-79 -340 307 1009 0
1 -251 -53 1010 0
-35 -317 364 1011 0
-36 312 322 1012 0
459 286 353 1013 0
240 123 142 1014 0
202 284 174 1015 0
292 481 500 1016 0
384 212 -252 1017 0
-258 -492 -4 1018 0
406 -183 407 1019 0
157 58 -374 1020 0
-486 -58 371 1021 0
492 -177 433 1022 0
206 -304 -234 1023 0
255 70 225 1024 0
-291 -6 -333 1025 0
-361 -279 97 1026 0
452 -470 30 1027 0
354 -170 487 1028 0
444 -25 213 1029 0
85 79 118 1030 0
207 -386 -84 1031 0
108 -14 -470 1032 0
-73 -357 -243 1033 0
-171 -275 407 1034 0
-296 458 81 1035 0
-175 -57 -272 1036 0
446 -407 433 1037 0
-297 -392 150 1038 0
-464 -245 -494 1039 0
-252 157 253 1040 0
52 147 219 1041 0
245 -356 -483 1042 0
92 -178 -79 1043 0
-314 -311 265 1044 0
168 -464 -124 1045 0
499 -401 -127 1046 0
-376 45 -457 1047 0
433 -447 -366 1048 0
-457 55 -421 1049 0
-137 -340 -62 1050 0
-98 11 15 1051 0
220 -468 115 1052 0
311 -294 375 1053 0
-457 500 419 1054 0
-315 449 -21 1055 0
245 395 -39 1056 0
-226 159 -197 1057 0
-300 -104 -155 1058 0
-356 -224 -265 1059 0
12 278 -39 1060 0
-468 332 82 1061 0
64 406 246 1062 0
-420 283 -422 1063 0
104 331 -8 1064 0
41 -442 162 1065 0
-135 -117 -75 1066 0
-489 468 256 1067 0
237 -22 -20 1068 0
-178 -402 223 1069 0
47 -346 288 1070 0
-71 91 -183 1071 0
412 483 -119 1072 0
-173 -58 60 1073 0
-209 -142 315 1074 0
-398 -246 -61 1075 0
151 34 -50 1076 0
-212 -327 -365 1077 0
-468 138 -186 1078 0
480 -150 -444 1079 0
243 -448 -467 1080 0
82 -251 -370 1081 0
-305 -53 -298 1082 0
239 -435 160 1083 0
155 -85 -235 1084 0
238 -244 -416 1085 0
-62 468 346 1086 0
-377 357 402 1087 0
167 228 -30 1088 0
-271 -179 -7 1089 0
129 444 -359 1090 0
151 -459 273 1091 0
-310 489 209 1092 0
-459 487 448 1093 0
-320 -384 170 1094 0
2 224 392 1095 0
18 251 -485 1096 0
472 496 319 1097 0
-483 438 -340 1098 0
240 -130 -263 1099 0
-115 154 -414 1100 0
-206 485 159 1101 0
138 -87 333 1102 0
182 -139 385 1103 0
-241 481 -82 1104 0
491 -190 -386 1105 0
-392 -278 74 1106 0
-167 374 439 1107 0
-239 464 -44 1108 0
179 279 243 1109 0
139 -21 482 1110 0
-95 -389 -364 1111 0
315 347 -337 1112 0
-481 447 -69 1113 0
-500 -84 -333 1114 0
144 -207 75 1115 0
411 -288 -236 1116 0
478 -357 -19 1117 0
-260 -239 -345 1118 0
315 370 -3 1119 0
301 5 -424 1120 0
164 -201 237 1121 0
-141 -322 281 1122 0
354 429 157 1123 0
377 -319 -458 1124 0
-160 308 90 1125 0
184 208 -272 1126 0
17 389 -21 1127 0
-274 351 128 1128 0
-209 467 219 1129 0
-76 351 499 1130 0
-484 -375 -490 1131 0
-126 -30 -10 1132 0
181 275 -257 1133 0
78 -247 -34 1134 0
-456 148 11 1135 0
-447 -368 195 1136 0
163 -227 170 1137 0
-237 -310 -123 1138 0
165 -97 -364 1139 0
-408 -193 143 1140 0
-287 -412 -179 1141 0
-255 489 158 1142 0
-453 -129 -444 1143 0
-473 18 -260 1144 0
-333 -268 -409 1145 0
119 -247 -152 1146 0
-33 -147 -148 1147 0
-338 401 -310 1148 0
73 152 -44 1149 0
-463 110 79 1150 0
489 420 391 1151 0
-476 -417 -81 1152 0
373 -263 -75 1153 0
-445 111 -341 1154 0
-12 4 458 1155 0
-251 -329 427 1156 0
112 -462 364 1157 0
-96 358 14 1158 0
-429 163 131 1159 0
211 129 -136 1160 0
-121 330 -366 1161 0
183 79 241 1162 0
364 320 -66 1163 0
-320 -410 17 1164 0
113 249 399 1165 0
-130 -431 -35 1166 0
463 287 -22 1167 0
-403 -27 -432 1168 0
140 -102 -405 1169 0
-152 -362 -478 1170 0
500 410 -428 1171 0
453 -112 -403 1172 0
-275 271 -73 1173 0
172 -120 -260 1174 0
301 -139 170 1175 0
387 -293 -253 1176 0
346 -152 -398 1177 0
393 484 -461 1178 0
-455 275 370 1179 0
-314 384 -144 1180 0
-322 -86 -219 1181 0
-404 14 -498 1182 0
81 186 441 1183 0
188 -425 354 1184 0
-36 -318 365 1185 0
-336 473 423 1186 0
-467 -95 225 1187 0
-73 434 333 1188 0
431 -269 413 1189 0
-202 -335 -440 1190 0
-288 -200 59 1191 0
-241 -313 -240 1192 0
448 80 -118 1193 0
-335 472 -20 1194 0
-195 4 298 1195 0
246 -154 -125 1196 0
-204 202 -320 1197 0
45 197 -239 1198 0
176 257 -28 1199 0
52 449 -377 1200 0
77 -277 -243 1201 0
146 -37 -111 1202 0
-393 360 428 1203 0
-251 -154 -194 1204 0
-267 50 -495 1205 0
269 -467 -93 1206 0
-58 310 286 1207 0
-153 408 -338 1208 0
-282 386 166 1209 0
184 63 285 1210 0
213 349 193 1211 0
300 205 -164 1212 0
152 -418 -166 1213 0
240 -262 -412 1214 0
-498 -171 -470 1215 0
113 1 -346 1216 0
-24 -424 135 1217 0
-210 -389 -419 1218 0
92 -235 125 1219 0
-135 -380 156 1220 0
-379 242 342 1221 0
-417 440 -322 1222 0
384 463 373 1223 0
-21 -448 -223 1224 0
-329 59 -140 1225 0
-275 198 -479 1226 0
159 -332 -17 1227 0
301 484 311 1228 0
409 266 306 1229 0
273 -130 -158 1230 0
-29 -16 -78 1231 0
-39 -113 304 1232 0
385 245 372 1233 0
-433 -108 17 1234 0
337 -86 -111 1235 0
-371 -318 -244 1236 0
-392 -452 -121 1237 0
-266 -371 479 1238 0
-159 -442 -227 1239 0
-354 -493 -451 1240 0
-240 -158 112 1241 0
-64 130 -222 1242 0
-200 306 245 1243 0
472 241 17 1244 0
241 283 44 1245 0
-129 -318 -278 1246 0
-37 387 -479 1247 0
383 -187 -146 1248 0
154 -426 -87 1249 0
423 174 205 1250 0
336 161 -353 1251 0
-136 -457 -106 1252 0
-457 493 421 1253 0
327 98 -20 1254 0
245 -77 -407 1255 0
-320 -292 154 1256 0
72 -206 -105 1257 0
133 377 416 1258 0
196 174 -159 1259 0
-366 -248 250 1260 0
-138 -418 -213 1261 0
-280 133 262 1262 0
-452 69 1 1263 0
-180 -450 -258 1264 0
-260 285 385 1265 0
-45 454 28 1266 0
280 222 -351 1267 0
-193 340 -290 1268 0
-70 -489 -59 1269 0
300 -29 -374 1270 0
120 298 -234 1271 0
454 243 433 1272 0
-145 173 -468 1273 0
-138 -330 160 1274 0
401 -375 124 1275 0
-466 223 37 1276 0
-115 114 -20 1277 0
-148 -210 36 1278 0
-374 213 363 1279 0
-390 352 -445 1280 0
357 253 -345 1281 0
68 -2 -171 1282 0
-332 -363 -258 1283 0
-278 -446 -46 1284 0
-408 -331 486 1285 0
70 -213 480 1286 0
273 445 133 1287 0
275 257 400 1288 0
-31 -79 -339 1289 0
393 173 241 1290 0
387 -204 -34 1291 0
321 173 -48 1292 0
119 154 298 1293 0
-245 -457 345 1294 0
-488 -171 -46 1295 0
83 321 6 1296 0
-270 47 184 1297 0
296 -176 -411 1298 0
94 304 -209 1299 0
-468 48 -490 1300 0
110 -44 34 1301 0
-227 -265 -261 1302 0
-370 -250 -177 1303 0
19 372 41 1304 0
90 -218 94 1305 0
-2 444 305 1306 0
36 186 96 1307 0
-454 202 -458 1308 0
324 158 -65 1309 0
-262 155 90 1310 0
-220 28 399 1311 0
-358 487 433 1312 0
203 219 309 1313 0
-290 -435 -282 1314 0
192 -489 17 1315 0
317 -476 -81 1316 0
229 -349 -115 1317 0
428 183 407 1318 0
408 -284 -153 1319 0
-434 -152 186 1320 0
-313 -212 197 1321 0
-88 -163 -146 1322 0
181 278 424 1323 0
-237 -105 470 1324 0
376 384 -422 1325 0
-150 52 -126 1326 0
44 213 387 1327 0
-157 444 -277 1328 0
-367 424 5 1329 0
322 40 230 1330 0
143 -285 -474 1331 0
67 -500 436 1332 0
211 -321 278 1333 0
-280 365 -130 1334 0
355 15 -459 1335 0
-109 -470 477 1336 0
-181 -436 -114 1337 0
-247 144 -335 1338 0
-302 -161 -37 1339 0
-33 139 -313 1340 0
-204 129 -448 1341 0
-446 310 144 1342 0
-231 377 -18 1343 0
-1 119 -137 1344 0
-490 -105 -239 1345 0
-287 -356 -468 1346 0
98 427 12 1347 0
253 -337 -449 1348 0
-364 318 162 1349 0
-395 -272 -332 1350 0
400 103 38 1351 0
-241 -6 -293 1352 0
-405 344 -227 1353 0
277 -274 -55 1354 0
-349 230 -52 1355 0
-424 -197 -166 1356 0
184 226 352 1357 0
153 158 -254 1358 0
-360 -161 -180 1359 0
-336 -479 300 1360 0
486 -460 -64 1361 0
407 -187 -196 1362 0
-131 376 -181 1363 0
-100 471 240 1364 0
-391 -455 -1 1365 0
-263 -432 398 1366 0
-173 -191 68 1367 0
-290 -15 -318 1368 0
445 258 82 1369 0
-11 -445 -337 1370 0
441 -443 -159 1371 0
145 48 -28 1372 0
-15 -265 -56 1373 0
433 -230 -165 1374 0
-224 167 271 1375 0
2 15 477 1376 0
154 314 129 1377 0
111 -310 314 1378 0
397 -163 69 1379 0
-390 119 202 1380 0
-208 436 -306 1381 0
-158 315 -186 1382 0
166 -222 488 1383 0
480 419 279 1384 0
305 -286 367 1385 0
-62 291 -387 1386 0
334 -247 -96 1387 0
-265 -195 306 1388 0
306 -117 -354 1389 0
-205 32 353 1390 0
111 345 -360 1391 0
-145 -433 -271 1392 0
-332 400 103 1393 0
-305 92 -144 1394 0
-101 -200 -265 1395 0
156 -390 231 1396 0
94 223 -428 1397 0
309 75 33 1398 0
217 207 -50 1399 0
-477 214 -22 1400 0
441 -211 414 1401 0
319 -446 -107 1402 0
68 -326 176 1403 0
216 -466 347 1404 0
-266 -128 440 1405 0
354 -44 332 1406 0
449 -145 -375 1407 0
360 -477 -113 1408 0
-189 358 385 1409 0
-81 476 -36 1410 0
-426 363 -201 1411 0
101 -273 304 1412 0
-180 375 -231 1413 0
-86 470 12 1414 0
-57 -173 181 1415 0
102 -140 294 1416 0
-378 -266 406 1417 0
382 456 -172 1418 0
-450 300 346 1419 0
-12 -454 435 1420 0
352 157 236 1421 0
420 178 -63 1422 0
-390 386 182 1423 0
-271 -489 113 1424 0
156 158 -299 1425 0
-100 411 155 1426 0
286 -235 37 1427 0
-178 6 373 1428 0
-312 -49 -250 1429 0
446 -341 241 1430 0
223 -34 -259 1431 0
-330 -129 -52 1432 0
40 -107 1 1433 0
-370 468 474 1434 0
412 -265 139 1435 0
31 -452 -121 1436 0
-25 -217 99 1437 0
177 66 -487 1438 0
-189 355 272 1439 0
71 -138 489 1440 0
-308 234 -26 1441 0
221 -244 347 1442 0
-78 113 -345 1443 0
-103 293 -458 1444 0
161 181 -467 1445 0
-157 60 -369 1446 0
-295 196 -166 1447 0
-458 -438 146 1448 0
-459 468 159 1449 0
245 -95 -276 1450 0
423 -403 414 1451 0
-283 232 363 1452 0
-216 422 215 1453 0
-477 -11 -152 1454 0
-192 15 361 1455 0
-435 223 -27 1456 0
109 -253 -273 1457 0
-152 374 369 1458 0
23 472 -389 1459 0
-93 469 -186 1460 0
211 280 -437 1461 0
340 -230 143 1462 0
-321 268 -319 1463 0
142 -475 100 1464 0
-244 101 266 1465 0
-283 -431 205 1466 0
315 149 -163 1467 0
500 -113 -459 1468 0
-258 193 424 1469 0
309 60 -356 1470 0
63 283 -319 1471 0
-383 -490 499 1472 0
-407 72 482 1473 0
-468 -431 -7 1474 0
-306 96 130 1475 0
-411 -205 132 1476 0
187 473 62 1477 0
303 224 -36 1478 0
418 -464 226 1479 0
-262 423 -461 1480 0
-362 164 11 1481 0
-182 -153 -116 1482 0
141 89 40 1483 0
-336 -232 -258 1484 0
-60 -216 248 1485 0
-21 431 465 1486 0
22 -358 216 1487 0
183 24 -264 1488 0
-448 153 -298 1489 0
262 124 460 1490 0
264 134 -408 1491 0
-445 -160 179 1492 0
170 -457 207 1493 0
-119 -442 -126 1494 0
-307 282 -373 1495 0
-294 346 -116 1496 0
363 -8 -442 1497 0
-411 499 135 1498 0
-165 428 -494 1499 0
370 -235 -50 1500 0
-202 -3 425 1501 0
-68 466 -114 1502 0
70 -356 -447 1503 0
-429 387 -36 1504 0
-122 -259 348 1505 0
-236 303 187 1506 0
-345 95 -319 1507 0
-134 -97 233 1508 0
-86 -468 3 1509 0
-353 -307 -103 1510 0
237 -32 -453 1511 0
-144 299 133 1512 0
-75 287 -216 1513 0
109 391 244 1514 0
353 -164 267 1515 0
487 -203 -381 1516 0
166 15 -294 1517 0
-256 212 91 1518 0
353 -169 -446 1519 0
-36 -26 -260 1520 0
480 -473 348 1521 0
207 220 -363 1522 0
230 -153 383 1523 0
-183 -6 177 1524 0
479 47 180 1525 0
-217 440 -150 1526 0
-357 -360 -51 1527 0
265 221 495 1528 0
-294 311 -211 1529 0
458 387 -287 1530 0
-457 444 -348 1531 0
-215 258 -146 1532 0
-141 -46 469 1533 0
-428 15 -182 1534 0
-74 -401 40 1535 0
492 -302 -1 1536 0
221 101 266 1537 0
3 222 313 1538 0
-241 -260 -300 1539 0
478 -481 -116 1540 0
4 37 -133 1541 0
-357 105 -18 1542 0
145 -18 432 1543 0
337 -494 461 1544 0
-467 -490 214 1545 0
-271 129 -445 1546 0
-361 -378 -67 1547 0
-365 -494 396 1548 0
372 428 -479 1549 0
-335 -424 369 1550 0
-360 -72 416 1551 0
-147 93 -162 1552 0
18 -432 203 1553 0
-152 -374 -347 1554 0
-71 487 -367 1555 0
435 -112 -31 1556 0
205 243 -308 1557 0
-210 -181 -295 1558 0
-402 479 217 1559 0
329 -280 -384 1560 0
-195 -169 -93 1561 0
321 -190 112 1562 0
446 -50 -7 1563 0
53 -359 -446 1564 0
475 23 -65 1565 0
-39 169 -386 1566 0
-498 -28 -108 1567 0
113 -297 251 1568 0
-281 416 -264 1569 0
284 379 -202 1570 0
-219 -450 314 1571 0
-142 46 -238 1572 0
71 -464 -225 1573 0
-183 -188 52 1574 0
121 -250 -90 1575 0
-151 -96 197 1576 0
-132 -497 242 1577 0
250 -460 -466 1578 0
224 296 499 1579 0
-88 34 68 1580 0
365 248 237 1581 0
374 -192 -454 1582 0
-320 -487 -198 1583 0
64 108 -181 1584 0
-267 -460 -484 1585 0
222 -79 -382 1586 0
-124 104 72 1587 0
201 -23 319 1588 0
290 464 -26 1589 0
-118 -90 353 1590 0
-237 -328 -133 1591 0
392 411 329 1592 0
-401 117 70 1593 0
-77 -158 -336 1594 0
-471 -226 445 1595 0
221 444 178 1596 0
-412 -101 262 1597 0
-182 -261 -470 1598 0
-438 493 287 1599 0
187 500 150 1600 0
199 148 -172 1601 0
-67 170 289 1602 0
120 -53 143 1603 0
254 -431 313 1604 0
411 66 -123 1605 0
1 225 -177 1606 0
-190 -471 197 1607 0
-258 271 -113 1608 0
109 -264 449 1609 0
-372 -39 486 1610 0
265 243 242 1611 0
129 43 443 1612 0
443 489 67 1613 0
249 224 -362 1614 0
-452 286 -171 1615 0
400 -22 45 1616 0
210 356 426 1617 0
494 116 -495 1618 0
338 137 -171 1619 0
77 -255 -479 1620 0
-102 -194 450 1621 0
-382 -395 288 1622 0
263 -265 104 1623 0
-361 4 -235 1624 0
453 94 -99 1625 0
-37 329 289 1626 0
291 391 73 1627 0
-87 54 -145 1628 0
223 -374 320 1629 0
266 86 450 1630 0
298 -335 -69 1631 0
228 -204 147 1632 0
333 -490 -412 1633 0
83 -195 412 1634 0
-19 410 -11 1635 0
-179 -498 -34 1636 0
356 -198 12 1637 0
176 -140 496 1638 0
325 76 -70 1639 0
130 -100 227 1640 0
131 -232 492 1641 0
-174 348 -157 1642 0
369 -428 300 1643 0
-285 403 -463 1644 0
94 -403 306 1645 0
186 310 499 1646 0
-282 -36 -335 1647 0
-278 -258 -207 1648 0
-141 -205 12 1649 0
53 -296 163 1650 0
497 40 -83 1651 0
-220 -201 365 1652 0
84 391 -340 1653 0
-217 312 469 1654 0
-78 119 -260 1655 0
129 295 -223 1656 0
-174 262 178 1657 0
-160 239 -268 1658 0
-140 -318 47 1659 0
303 296 -422 1660 0
148 337 415 1661 0
-422 -382 364 1662 0
-207 347 294 1663 0
-288 124 129 1664 0
282 476 -112 1665 0
298 -342 -404 1666 0
478 377 118 1667 0
-214 -245 -458 1668 0
128 -23 120 1669 0
254 258 -400 1670 0
447 -308 -41 1671 0
-491 284 411 1672 0
-468 262 -273 1673 0
-290 45 331 1674 0
167 451 20 1675 0
186 314 -192 1676 0
-68 -439 215 1677 0
-452 -217 1 1678 0
-300 443 -334 1679 0
225 -322 -247 1680 0
244 458 -173 1681 0
193 286 174 1682 0
328 368 144 1683 0
-58 -179 -74 1684 0
9 -370 487 1685 0
-196 62 164 1686 0
455 220 138 1687 0
101 345 42 1688 0
-218 58 -155 1689 0
379 64 284 1690 0
14 346 -137 1691 0
229 -61 -251 1692 0
388 286 49 1693 0
-474 490 -238 1694 0
-176 500 62 1695 0
-455 -119 147 1696 0
-438 331 125 1697 0
-250 498 -105 1698 0
-435 -73 413 1699 0
-339 181 490 1700 0
-280 230 -62 1701 0
35 426 -74 1702 0
333 121 191 1703 0
-195 -392 348 1704 0
221 -297 -490 1705 0
106 -278 277 1706 0
221 333 -127 1707 0
-48 190 293 1708 0
-305 466 -153 1709 0
-261 -85 476 1710 0
-394 204 -171 1711 0
-226 283 -263 1712 0
49 -111 401 1713 0
383 292 -159 1714 0
-485 310 -71 1715 0
-61 -187 172 1716 0
352 -263 -386 1717 0
-13 -138 -353 1718 0
-448 -316 227 1719 0
101 -413 310 1720 0
-490 30 63 1721 0
347 -141 -32 1722 0
149 190 -261 1723 0
-372 58 70 1724 0
82 -119 426 1725 0
-208 -89 284 1726 0
-194 261 -313 1727 0
222 31 -13 1728 0
-115 449 291 1729 0
-479 -279 50 1730 0
352 415 97 1731 0
-404 -493 306 1732 0
335 296 -89 1733 0
-478 214 -117 1734 0
491 36 351 1735 0
61 -308 297 1736 0
-201 21 -46 1737 0
141 -482 267 1738 0
344 72 284 1739 0
222 287 424 1740 0
-420 -194 320 1741 0
258 284 244 1742 0
385 105 469 1743 0
408 -113 -230 1744 0
-234 443 212 1745 0
205 -55 410 1746 0
-266 102 495 1747 0
38 -47 278 1748 0
117 196 -80 1749 0
-35 -56 497 1750 0
-249 -493 -114 1751 0
-264 -14 91 1752 0
-438 -419 -195 1753 0
326 328 -217 1754 0
264 -275 465 1755 0
-292 233 486 1756 0
75 347 -69 1757 0
-174 -443 -231 1758 0
-424 58 498 1759 0
419 -371 19 1760 0
11 -275 -141 1761 0
337 -41 53 1762 0
458 427 318 1763 0
35 -47 -439 1764 0
336 -130 242 1765 0
204 169 126 1766 0
-378 317 -51 1767 0
-85 272 -464 1768 0
-139 -222 388 1769 0
-212 387 -42 1770 0
-434 -107 409 1771 0
152 -467 -454 1772 0
-397 418 -56 1773 0
-218 231 -35 1774 0
-479 226 -241 1775 0
-478 469 491 1776 0
278 -344 468 1777 0
-313 351 -131 1778 0
-466 434 -452 1779 0
212 310 -382 1780 0
-145 -242 -442 1781 0
-367 192 -38 1782 0
-361 -408 -181 1783 0
-316 476 -249 1784 0
203 424 475 1785 0
169 105 125 1786 0
330 -342 -416 1787 0
219 -192 -282 1788 0
210 -328 -117 1789 0
-17 2 -465 1790 0
-173 388 -32 1791 0
265 -497 190 1792 0
379 84 286 1793 0
192 -291 -486 1794 0
-248 -245 -195 1795 0
393 -454 -253 1796 0
254 67 383 1797 0
315 164 -349 1798 0
-167 -260 71 1799 0
-406 -219 -456 1800 0
-65 -182 38 1801 0
77 -450 69 1802 0
-494 149 -495 1803 0
-110 -331 215 1804 0
-32 -122 -388 1805 0
-198 -339 -13 1806 0
6 -4 -463 1807 0
-368 144 436 1808 0
-131 -255 -10 1809 0
-291 157 -453 1810 0
-482 121 377 1811 0
298 -381 472 1812 0
-350 158 28 1813 0
274 56 -480 1814 0
-29 4 -103 1815 0
90 466 453 1816 0
-174 405 336 1817 0
105 -86 465 1818 0
42 -428 37 1819 0
-481 -324 -27 1820 0
-252 112 -215 1821 0
-261 -217 -360 1822 0
71 -102 -307 1823 0
149 62 229 1824 0
-215 -219 -13 1825 0
56 -294 -114 1826 0
-414 -137 66 1827 0
285 11 356 1828 0
254 -271 139 1829 0
417 -290 175 1830 0
-310 -60 133 1831 0
-230 -210 -331 1832 0
-428 266 -320 1833 0
-363 -312 435 1834 0
-84 265 27 1835 0
349 29 -342 1836 0
12 274 205 1837 0
-171 37 57 1838 0
390 5 -387 1839 0
-409 331 22 1840 0
190 470 120 1841 0
70 153 390 1842 0
145 -426 -126 1843 0
-497 340 468 1844 0
-190 375 -187 1845 0
-247 335 -365 1846 0
176 -113 146 1847 0
266 13 162 1848 0
-248 -183 -412 1849 0
-474 13 168 1850 0
15 -467 -192 1851 0
435 88 173 1852 0
-357 235 -413 1853 0
218 -344 -332 1854 0
-34 319 -281 1855 0
-107 494 -117 1856 0
290 -473 -445 1857 0
-29 -344 421 1858 0
187 -369 -335 1859 0
439 -148 451 1860 0
-134 -470 62 1861 0
-247 -92 487 1862 0
-210 251 -361 1863 0
92 -413 -492 1864 0
218 -3 238 1865 0
369 151 -105 1866 0
-98 293 468 1867 0
-98 177 -251 1868 0
441 -274 370 1869 0
-52 -261 -79 1870 0
312 234 -337 1871 0
100 292 273 1872 0
-371 284 176 1873 0
-1 -98 156 1874 0
173 -55 292 1875 0
-464 -148 -409 1876 0
411 309 332 1877 0
411 -270 211 1878 0
-264 250 256 1879 0
-121 327 133 1880 0
-265 403 -345 1881 0
-301 497 330 1882 0
140 403 283 1883 0
-384 490 -99 1884 0
-324 254 174 1885 0
-300 310 88 1886 0
-169 304 43 1887 0
-402 337 475 1888 0
460 -284 -497 1889 0
-256 -483 -277 1890 0
-335 -34 109 1891 0
203 -396 -449 1892 0
-94 488 -469 1893 0
320 107 -132 1894 0
166 -72 146 1895 0
480 87 427 1896 0
410 -139 260 1897 0
152 -355 -188 1898 0
396 479 81 1899 0
126 187 -470 1900 0
-258 -126 -252 1901 0
-431 -192 -478 1902 0
19 -382 -209 1903 0
-141 -33 -145 1904 0
-145 185 -473 1905 0
181 -290 278 1906 0
462 -128 -155 1907 0
414 456 138 1908 0
-215 225 186 1909 0
1 55 346 1910 0
-50 397 -369 1911 0
225 143 -155 1912 0
262 -151 -72 1913 0
-51 -391 -116 1914 0
109 -142 -372 1915 0
-54 -300 -24 1916 0
-269 -56 58 1917 0
-487 321 343 1918 0
-283 -137 -97 1919 0
204 -492 -142 1920 0
-420 277 279 1921 0
-77 371 253 1922 0
-436 -52 214 1923 0
458 -490 -373 1924 0
447 -487 322 1925 0
-358 283 -413 1926 0
207 -419 -242 1927 0
-404 -186 -350 1928 0
-159 -218 325 1929 0
131 -73 -205 1930 0
33 -130 -335 1931 0
-241 18 -197 1932 0
259 276 337 1933 0
317 -297 452 1934 0
-203 -200 273 1935 0
266 98 129 1936 0
-325 -473 438 1937 0
-215 -242 -417 1938 0
59 292 -115 1939 0
38 138 74 1940 0
26 -300 286 1941 0
380 -7 253 1942 0
-412 -27 70 1943 0
-473 20 -95 1944 0
-83 257 52 1945 0
-288 314 -392 1946 0
-331 -88 42 1947 0
77 -364 316 1948 0
32 -104 394 1949 0
271 403 28 1950 0
-433 410 -488 1951 0
-113 9 -169 1952 0
232 485 -257 1953 0
-365 323 26 1954 0
-234 367 -66 1955 0
416 -179 -206 1956 0
363 -262 -54 1957 0
219 -204 -435 1958 0
-17 388 270 1959 0
204 285 143 1960 0
115 342 27 1961 0
315 335 -45 1962 0
-189 256 320 1963 0
-152 -228 -83 1964 0
262 37 453 1965 0
-467 474 101 1966 0
-442 405 -70 1967 0
225 397 441 1968 0
-114 -11 393 1969 0
326 195 152 1970 0
-174 -197 -466 1971 0
170 -298 185 1972 0
-451 -490 -72 1973 0
-219 -280 -496 1974 0
-481 72 -152 1975 0
-125 405 -305 1976 0
-171 -439 -1 1977 0
-378 453 482 1978 0
218 248 -147 1979 0
191 393 -91 1980 0
235 -140 460 1981 0
-174 -4 -176 1982 0
-490 394 -114 1983 0
132 -245 -395 1984 0
-291 422 56 1985 0
-231 -483 -398 1986 0
93 70 170 1987 0
-101 386 452 1988 0
-417 430 -66 1989 0
233 438 161 1990 0
86 51 465 1991 0
53 -288 86 1992 0
-464 -477 53 1993 0
269 387 -356 1994 0
231 -493 479 1995 0
341 378 349 1996 0
-443 254 14 1997 0
-127 -409 -252 1998 0
-393 -175 -187 1999 0
-143 -370 -85 2000 0
-435 -293 -157 2001 0
-208 430 424 2002 0
-493 323 -403 2003 0
404 -39 -305 2004 0
-456 197 -318 2005 0
221 -466 473 2006 0
230 409 367 2007 0
-494 224 -282 2008 0
-186 -104 -233 2009 0
254 273 -380 2010 0
423 -278 456 2011 0
-385 381 -499 2012 0
-276 334 -174 2013 0
-127 -31 466 2014 0
390 292 285 2015 0
-466 267 -384 2016 0
-297 -492 -338 2017 0
194 -159 95 2018 0
142 -99 -500 2019 0
-337 -162 -466 2020 0
162 452 6 2021 0
-275 372 383 2022 0
-80 306 -160 2023 0
-225 9 -311 2024 0
-376 -347 -100 2025 0
-243 -126 -82 2026 0
-272 -250 9 2027 0
-276 342 315 2028 0
208 -323 -347 2029 0
-48 161 137 2030 0
-471 13 -195 2031 0
154 361 283 2032 0
-411 262 75 2033 0
234 -288 -310 2034 0
265 -329 -480 2035 0
421 114 -26 2036 0
50 138 -126 2037 0
-346 442 146 2038 0
-12 -499 407 2039 0
-24 417 -35 2040 0
-385 252 -107 2041 0
-50 43 80 2042 0
-71 225 211 2043 0
358 422 264 2044 0
-86 -289 -351 2045 0
-470 -382 -469 2046 0
353 -40 -218 2047 0
115 96 37 2048 0
271 69 216 2049 0
234 402 468 2050 0
472 -283 411 2051 0
-220 -72 61 2052 0
27 -118 467 2053 0
115 229 -21 2054 0
136 -173 -195 2055 0
-116 -436 421 2056 0
-120 16 -372 2057 0
-301 -282 -381 2058 0
413 -493 -405 2059 0
-330 -403 209 2060 0
212 -377 -332 2061 0
-210 -275 -158 2062 0
176 -303 -19 2063 0
-59 333 202 2064 0
-4 -9 106 2065 0
-233 482 -217 2066 0
348 -89 402 2067 0
279 -238 -39 2068 0
394 -11 -352 2069 0
6 199 47 2070 0
-228 -97 469 2071 0
156 356 94 2072 0
-377 337 -2 2073 0
195 440 -32 2074 0
-1 70 -263 2075 0
-312 179 -436 2076 0
484 -173 163 2077 0
293 469 -289 2078 0
-248 46 -47 2079 0
432 490 151 2080 0
-160 -77 152 2081 0
-81 -100 77 2082 0
-255 -464 -122 2083 0
-396 -337 -414 2084 0
-247 318 -271 2085 0
-342 171 394 2086 0
-53 352 195 2087 0
-10 -59 220 2088 0
-40 -425 -137 2089 0
160 -167 -126 2090 0
205 75 218 2091 0
-444 -244 181 2092 0
-346 488 251 2093 0
467 470 33 2094 0
-320 147 251 2095 0
72 -410 -14 2096 0
-41 -49 363 2097 0
168 365 268 2098 0
-318 -95 32 2099 0
220 -280 32 2100 0
199 -299 241 2101 0
-402 77 -410 2102 0
-488 -41 -136 2103 0
74 1 322 2104 0
-60 -202 415 2105 0
-396 346 34 2106 0
-234 -450 -186 2107 0
449 -194 238 2108 0
-353 460 251 2109 0
291 -213 -103 2110 0
-205 -4 -217 2111 0
-491 381 -477 2112 0
-180 -349 278 2113 0
-145 256 306 2114 0
224 487 357 2115 0
-306 166 194 2116 0
385 230 414 2117 0
481 281 107 2118 0
12 400 -171 2119 0
-333 127 -199 2120 0
442 266 489 2121 0
-35 440 -199 2122 0
340 -222 -39 2123 0
-207 416 -195 2124 0
306 374 60 2125 0
247 27 -142 2126 0
-199 -233 -296 2127 0
497 343 -259 2128 0
-95 385 166 2129 0
-373 -36 87 2130 0
285 500 -173 2131 0
194 -15 -7 2132 0
469 299 122 2133 0
136 484 -118 2134 0
-144 -13 -398 2135 0
470 430 480 2136 0
87 -400 15 2137 0
-394 251 -48 2138 0
283 251 262 2139 0
282 -332 -274 2140 0
229 248 32 2141 0
-114 452 428 2142 0
73 322 414 2143 0
139 462 18 2144 0
358 -361 343 2145 0
-217 228 -367 2146 0
400 -487 -86 2147 0
-398 86 383 2148 0
106 -228 -260 2149 0
-109 13 -463 2150 0
-196 -116 315 2151 0
271 260 487 2152 0
-108 130 -47 2153 0
-282 174 345 2154 0
-430 -363 -499 2155 0
-387 -93 109 2156 0
270 254 -172 2157 0
-38 -440 -483 2158 0
-441 -22 -203 2159 0
-252 200 -21 2160 0
65 394 224 2161 0
-269 327 18 2162 0
28 -160 108 2163 0
-36 433 224 2164 0
-472 460 17 2165 0
316 -269 97 2166 0
-188 368 -137 2167 0
-211 -332 -41 2168 0
62 219 -142 2169 0
-500 118 1 2170 0
396 259 -445 2171 0
-356 -262 -296 2172 0
161 -361 38 2173 0
-305 177 -77 2174 0
-396 366 -59 2175 0
-50 -49 -282 2176 0
472 -200 315 2177 0
252 7 161 2178 0
436 354 455 2179 0
-221 -105 190 2180 0
-3 -464 404 2181 0
313 395 499 2182 0
377 417 -344 2183 0
189 212 -485 2184 0
-351 -193 189 2185 0
-465 -188 346 2186 0
-9 283 377 2187 0
-165 73 -14 2188 0
246 -24 464 2189 0
476 -268 162 2190 0
-233 99 -158 2191 0
376 -76 -125 2192 0
324 -386 -304 2193 0
119 -284 -387 2194 0
248 -322 -271 2195 0
193 -421 469 2196 0
171 -354 -114 2197 0
-305 380 436 2198 0
-17 -415 -389 2199 0
-144 -269 214 2200 0
275 -192 -425 2201 0
-270 495 100 2202 0
104 337 -305 2203 0
342 199 75 2204 0
-126 -394 -235 2205 0
-386 468 -88 2206 0
-344 -443 -475 2207 0
-79 -161 2 2208 0
194 -80 141 2209 0
-76 325 -481 2210 0
-271 73 472 2211 0
432 -289 467 2212 0
-307 234 -413 2213 0
-397 451 -187 2214 0
-136 442 -383 2215 0
193 32 199 2216 0
-119 -44 -104 2217 0
197 253 -118 2218 0
219 166 441 2219 0
13 45 396 2220 0
254 -384 -393 2221 0
43 -313 -132 2222 0
-276 -133 -65 2223 0
405 -185 156 2224 0
-307 171 -215 2225 0
304 262 130 2226 0
-419 435 193 2227 0
-122 301 66 2228 0
208 -245 18 2229 0
219 -466 89 2230 0
158 -45 -408 2231 0
-204 157 338 2232 0
377 330 121 2233 0
150 -367 344 2234 0
233 -284 142 2235 0
-238 -370 71 2236 0
100 -423 218 2237 0
-290 -223 -402 2238 0
-30 -232 -414 2239 0
191 -350 -253 2240 0
-474 371 398 2241 0
-205 -19 -173 2242 0
76 44 81 2243 0
-47 141 204 2244 0
24 -352 -302 2245 0
-260 479 -80 2246 0
-125 9 -276 2247 0
-223 158 -493 2248 0
-417 336 283 2249 0
491 -251 -360 2250 0
177 -320 -194 2251 0
349 268 61 2252 0
-398 -124 -2 2253 0
215 -321 487 2254 0
-122 18 16 2255 0
50 65 -91 2256 0
-29 -22 468 2257 0
239 30 453 2258 0
83 188 -400 2259 0
-330 -238 -270 2260 0
-42 -171 70 2261 0
-281 -299 -313 2262 0
385 -388 445 2263 0
-443 329 -431 2264 0
-439 335 -192 2265 0
255 -493 457 2266 0
-59 -204 -413 2267 0
80 -128 -172 2268 0
-480 406 424 2269 0
368 144 -95 2270 0
-79 -25 -69 2271 0
-479 198 225 2272 0
-487 -228 380 2273 0
-86 188 -307 2274 0
171 317 238 2275 0
-486 -41 44 2276 0
-96 373 -232 2277 0
-404 108 -334 2278 0
66 -313 -457 2279 0
129 121 131 2280 0
-458 -51 209 2281 0
234 -26 389 2282 0
241 392 464 2283 0
497 290 -362 2284 0
411 -80 313 2285 0
207 86 -491 2286 0
-102 296 -6 2287 0
300 -159 -196 2288 0
10 -404 381 2289 0
13 309 -86 2290 0
-488 -181 -449 2291 0
-75 489 -250 2292 0
-264 194 129 2293 0
143 407 -443 2294 0
-433 -4 421 2295 0
418 -359 247 2296 0
-369 356 339 2297 0
209 311 -273 2298 0
-125 228 306 2299 0
66 72 425 2300 0
-54 -177 70 2301 0
-89 -318 -97 2302 0
64 -296 -115 2303 0
-485 -68 446 2304 0
-325 172 -403 2305 0
55 140 -2 2306 0
260 390 404 2307 0
-498 27 -280 2308 0
434 43 116 2309 0
-356 495 -196 2310 0
145 -386 273 2311 0
-476 298 -164 2312 0
217 -496 215 2313 0
46 179 -50 2314 0
53 43 420 2315 0
279 -139 112 2316 0
166 248 165 2317 0
-388 127 -403 2318 0
-247 -123 81 2319 0
-341 403 -116 2320 0
85 -286 -64 2321 0
262 -307 381 2322 0
291 -36 -368 2323 0
28 399 27 2324 0
-21 -279 477 2325 0
384 -190 200 2326 0
367 -243 -442 2327 0
141 -494 440 2328 0
485 -161 -498 2329 0
-427 219 73 2330 0
-187 260 43 2331 0
-6 474 226 2332 0
75 239 17 2333 0
217 33 335 2334 0
-293 -164 328 2335 0
273 87 -10 2336 0
417 387 -339 2337 0
425 437 -488 2338 0
-417 280 257 2339 0
463 -330 181 2340 0
-416 432 268 2341 0
281 458 3 2342 0
-127 -170 -222 2343 0
132 -287 -283 2344 0
461 217 -385 2345 0
-485 412 60 2346 0
-352 -76 454 2347 0
-169 -279 -216 2348 0
-431 283 26 2349 0
-420 159 -47 2350 0
-460 -176 164 2351 0
9 -393 362 2352 0
-329 124 -393 2353 0
446 205 395 2354 0
282 182 388 2355 0
39 58 416 2356 0
-17 435 -318 2357 0
-406 -48 -287 2358 0
29 115 -176 2359 0
-322 375 162 2360 0
316 149 -442 2361 0
313 -70 -410 2362 0
-82 -278 244 2363 0
446 -177 206 2364 0
198 194 403 2365 0
-427 -482 -25 2366 0
297 500 6 2367 0
-350 -200 107 2368 0
-211 374 -207 2369 0
-398 50 452 2370 0
398 349 -76 2371 0
107 348 46 2372 0
175 -91 -332 2373 0
166 216 -44 2374 0
268 -37 -42 2375 0
60 -416 -42 2376 0
262 -463 72 2377 0
-173 380 -313 2378 0
35 108 57 2379 0
94 -248 188 2380 0
1 -32 202 2381 0
17 -438 179 2382 0
418 -341 -237 2383 0
200 195 441 2384 0
-302 226 296 2385 0
-173 279 -439 2386 0
-345 419 495 2387 0
146 -452 -330 2388 0
-57 264 -213 2389 0
196 417 330 2390 0
438 106 379 2391 0
-405 -308 -393 2392 0
242 -268 -29 2393 0
-478 262 -497 2394 0
278 331 319 2395 0
316 466 -157 2396 0
-390 128 -334 2397 0
410 103 387 2398 0
467 -470 -360 2399 0
-224 453 151 2400 0
42 262 170 2401 0
-169 -367 -361 2402 0
-306 190 270 2403 0
341 -472 65 2404 0
349 -448 -479 2405 0
266 219 201 2406 0
140 473 319 2407 0
241 -379 367 2408 0
36 -15 -275 2409 0
111 -108 473 2410 0
25 342 -224 2411 0
-131 -150 -84 2412 0
-300 370 -214 2413 0
248 -438 109 2414 0
211 196 137 2415 0
12 -469 312 2416 0
-243 -352 209 2417 0
-101 80 -324 2418 0
241 -267 240 2419 0
362 -262 -169 2420 0
-139 -143 201 2421 0
-279 61 492 2422 0
486 16 170 2423 0
118 500 -344 2424 0
-43 -353 228 2425 0
75 -119 -404 2426 0
473 -93 363 2427 0
-231 220 445 2428 0
348 -452 279 2429 0
-185 193 -5 2430 0
377 -66 437 2431 0
-62 -494 213 2432 0
198 -119 13 2433 0
16 -106 -472 2434 0
-119 76 190 2435 0
-79 150 -239 2436 0
-493 -214 307 2437 0
-258 -367 -212 2438 0
-248 -406 142 2439 0
406 -456 -52 2440 0
-296 376 -136 2441 0
421 224 -46 2442 0
50 263 202 2443 0
200 439 -15 2444 0
-89 346 167 2445 0
-162 -410 449 2446 0
-111 -443 -261 2447 0
-185 27 -388 2448 0
-201 401 293 2449 0
66 434 396 2450 0
-399 287 318 2451 0
382 291 -360 2452 0
-33 241 317 2453 0
-90 -146 -81 2454 0
-222 319 448 2455 0
196 -424 472 2456 0
-140 491 -99 2457 0
-274 -481 415 2458 0
-432 -476 252 2459 0
231 267 186 2460 0
155 -484 487 2461 0
-113 -484 -2 2462 0
96 -369 264 2463 0
-126 -62 -133 2464 0
-500 -25 -284 2465 0
-198 496 -272 2466 0
-152 -99 -341 2467 0
433 500 -377 2468 0
250 -446 -491 2469 0
46 300 -222 2470 0
443 -94 -16 2471 0
302 -79 221 2472 0
58 -150 30 2473 0
134 299 252 2474 0
330 29 -189 2475 0
394 -18 -251 2476 0
261 -52 5 2477 0
-191 117 478 2478 0
-351 475 119 2479 0
219 94 99 2480 0
373 87 -437 2481 0
-109 -207 240 2482 0
-130 364 143 2483 0
-480 485 -421 2484 0
-478 486 -426 2485 0
-332 425 -230 2486 0
-227 -458 -365 2487 0
-95 319 463 2488 0
356 16 -323 2489 0
151 46 -388 2490 0
2 409 -269 2491 0
-79 180 294 2492 0
26 -45 138 2493 0
9 -456 -41 2494 0
11 -480 68 2495 0
-109 -114 -251 2496 0
-402 -200 223 2497 0
252 346 359 2498 0
142 -169 68 2499 0
456 446 -157 2500 0
-344 -387 132 2501 0
493 382 170 2502 0
313 310 -496 2503 0
376 75 -280 2504 0
-56 -364 -51 2505 0
-121 -396 -296 2506 0
-214 -87 -66 2507 0
466 -71 239 2508 0
391 361 372 2509 0
-491 -490 -341 2510 0
-374 -379 448 2511 0
283 -193 -333 2512 0
-137 -321 162 2513 0
104 60 57 2514 0
-280 368 499 2515 0
291 422 58 2516 0
350 271 -394 2517 0
64 -12 93 2518 0
165 428 -410 2519 0
279 264 -287 2520 0
417 439 -236 2521 0
487 -486 489 2522 0
-214 386 -45 2523 0
233 -82 107 2524 0
-184 -223 -437 2525 0
-274 316 -387 2526 0
-462 108 -267 2527 0
-440 318 231 2528 0
-133 -89 -295 2529 0
-152 183 177 2530 0
304 -394 -437 2531 0
-495 -351 444 2532 0
315 122 160 2533 0
-178 -401 293 2534 0
-164 196 -438 2535 0
427 404 395 2536 0
-172 -79 -353 2537 0
-65 -286 358 2538 0
495 57 -323 2539 0
-16 281 -140 2540 0
341 -225 -379 2541 0
93 -399 -412 2542 0
294 -71 -217 2543 0
-98 -136 59 2544 0
-73 483 422 2545 0
343 -373 415 2546 0
379 70 -151 2547 0
249 -34 138 2548 0
-182 -280 186 2549 0
98 66 207 2550 0
-320 -223 -93 2551 0
292 -228 137 2552 0
211 421 88 2553 0
-343 -372 338 2554 0
420 -429 -369 2555 0
-333 -170 -403 2556 0
487 -301 -29 2557 0
-397 -228 -402 2558 0
-428 -31 -186 2559 0
288 425 -78 2560 0
-56 164 345 2561 0
-146 136 -457 2562 0
-99 -210 464 2563 0
-321 -177 291 2564 0
237 380 481 2565 0
-218 -440 -123 2566 0
-236 -465 293 2567 0
-228 -358 87 2568 0
500 297 343 2569 0
-98 187 -175 2570 0
-5 -331 -466 2571 0
-6 -57 105 2572 0
-477 360 -121 2573 0
-141 407 -458 2574 0
408 402 -483 2575 0
346 108 -80 2576 0
-318 353 -273 2577 0
60 -162 -260 2578 0
-422 -209 -366 2579 0
-274 -385 279 2580 0
327 276 181 2581 0
-168 169 252 2582 0
-262 -240 -421 2583 0
-447 436 -12 2584 0
-268 326 364 2585 0
-45 94 253 2586 0
-322 -195 224 2587 0
245 292 141 2588 0
-1 -238 425 2589 0
274 311 112 2590 0
-250 21 264 2591 0
107 471 -496 2592 0
141 487 155 2593 0
-395 466 -382 2594 0
93 -88 299 2595 0
411 297 400 2596 0
494 -65 189 2597 0
268 -53 88 2598 0
-443 -338 80 2599 0
-378 72 69 2600 0
-187 247 407 2601 0
-275 105 119 2602 0
-254 482 99 2603 0
445 -178 -70 2604 0
-410 -428 -93 2605 0
-201 210 -125 2606 0
-271 79 -385 2607 0
352 268 -265 2608 0
-257 132 -371 2609 0
-279 374 26 2610 0
-133 -165 83 2611 0
-466 96 -278 2612 0
-284 -148 -385 2613 0
325 316 301 2614 0
392 -9 -479 2615 0
-55 85 -448 2616 0
456 -482 423 2617 0
206 -96 204 2618 0
-87 233 263 2619 0
-476 320 196 2620 0
119 491 46 2621 0
-186 -474 160 2622 0
-295 -160 304 2623 0
-300 -238 460 2624 0
187 -113 392 2625 0
-447 468 -231 2626 0
-445 409 -260 2627 0
40 -288 -194 2628 0
238 130 218 2629 0
204 252 125 2630 0
-106 -179 -431 2631 0
-214 -441 37 2632 0
107 476 -133 2633 0
-253 -91 -490 2634 0
348 -137 287 2635 0
437 -319 196 2636 0
-404 -337 -191 2637 0
-257 452 -314 2638 0
-114 -440 92 2639 0
2 439 256 2640 0
-486 -31 335 2641 0
463 -58 313 2642 0
148 292 -383 2643 0
477 -89 265 2644 0
103 38 293 2645 0
135 -30 -230 2646 0
470 -247 376 2647 0
-294 -457 244 2648 0
331 -436 445 2649 0
342 466 -197 2650 0
