p cnf 2650 2150
-459 265 396 501 0
118 50 -493 502 0
-314 -164 -233 503 0
411 -126 466 504 0
1 273 265 505 0
-191 -51 225 506 0
67 314 123 507 0
-304 452 46 508 0
235 -323 -64 509 0
-127 253 -72 510 0
-440 -101 164 511 0
451 364 -405 512 0
487 -64 -137 513 0
-485 22 -150 514 0
120 352 -307 515 0
-34 58 -455 516 0
-488 -199 476 517 0
-159 302 292 518 0
179 448 -79 519 0
242 270 -407 520 0
356 474 39 521 0
95 -161 -337 522 0
298 461 129 523 0
20 283 37 524 0
-103 213 -376 525 0
-32 357 -292 526 0
491 245 253 527 0
-378 -52 3 528 0
-176 46 136 529 0
226 329 205 530 0
-162 444 -211 531 0
111 438 217 532 0
65 420 -467 533 0
-459 -70 399 534 0
-158 455 -284 535 0
440 -236 79 536 0
-20 -73 484 537 0
415 399 101 538 0
337 295 -299 539 0
187 167 102 540 0
-438 -498 -109 541 0
-220 125 458 542 0
460 -309 126 543 0
7 234 -260 544 0
62 -55 -46 545 0
187 129 -63 546 0
-41 475 -383 547 0
28 161 -416 548 0
-203 93 -445 549 0
-141 -225 -456 550 0
245 -14 10 551 0
-447 -223 -324 552 0
-464 -420 352 553 0
-6 473 -24 554 0
-360 -471 99 555 0
184 -93 354 556 0
379 119 -369 557 0
-136 -424 -295 558 0
-318 148 -32 559 0
-181 263 -363 560 0
14 -84 -443 561 0
473 365 -250 562 0
-400 78 -248 563 0
253 460 163 564 0
-72 465 -256 565 0
-92 -51 94 566 0
154 360 59 567 0
145 55 313 568 0
-308 429 237 569 0
-476 -425 -20 570 0
319 352 139 571 0
92 398 320 572 0
-60 367 -158 573 0
-357 315 -480 574 0
-452 72 283 575 0
-155 -180 -157 576 0
-51 24 -83 577 0
447 -132 -313 578 0
-210 -29 162 579 0
29 -154 230 580 0
263 -206 -247 581 0
-366 -318 222 582 0
14 400 -283 583 0
-149 188 217 584 0
-25 423 306 585 0
54 -323 10 586 0
-303 -468 -156 587 0
-113 -196 -54 588 0
-275 210 -445 589 0
304 140 126 590 0
-345 -187 -388 591 0
-178 -284 -378 592 0
-147 127 479 593 0
-498 -48 -321 594 0
-296 -79 -175 595 0
-388 -419 448 596 0
-194 -202 -153 597 0
440 -395 288 598 0
-157 -448 100 599 0
-7 17 88 600 0
14 -268 -147 601 0
-120 -152 -67 602 0
452 198 -144 603 0
-436 89 -385 604 0
-48 284 -42 605 0
-265 -421 4 606 0
439 210 -324 607 0
401 -492 -269 608 0
158 302 -175 609 0
-35 20 288 610 0
353 225 -338 611 0
29 -353 -78 612 0
122 -247 -174 613 0
-168 -192 486 614 0
-444 58 373 615 0
-193 -435 137 616 0
177 49 438 617 0
453 22 -353 618 0
276 262 176 619 0
219 303 -457 620 0
443 -285 -437 621 0
281 -227 143 622 0
-433 28 -226 623 0
-72 -427 192 624 0
-189 -7 415 625 0
180 449 57 626 0
-416 323 -441 627 0
202 -381 433 628 0
-56 269 -366 629 0
-397 -425 193 630 0
28 372 -306 631 0
-430 -35 469 632 0
-20 -250 280 633 0
-446 -426 -393 634 0
-362 -233 403 635 0
-14 162 -355 636 0
-355 103 -336 637 0
134 361 104 638 0
429 115 247 639 0
-185 448 485 640 0
236 200 -69 641 0
-6 -312 245 642 0
-371 -330 161 643 0
9 -334 277 644 0
456 -306 -300 645 0
-281 464 -312 646 0
446 -26 -31 647 0
-194 -2 434 648 0
225 -240 -173 649 0
239 410 372 650 0
-376 -155 78 651 0
76 229 -131 652 0
473 149 -474 653 0
-365 300 431 654 0
340 150 243 655 0
-303 -95 233 656 0
229 -138 77 657 0
342 2 430 658 0
-375 -219 463 659 0
-204 288 -257 660 0
219 406 394 661 0
-354 105 279 662 0
-242 -131 -471 663 0
40 239 -290 664 0
33 -154 474 665 0
-249 490 -275 666 0
-25 16 233 667 0
496 451 45 668 0
-19 120 75 669 0
76 -432 329 670 0
-249 -78 -279 671 0
-437 -403 -190 672 0
-118 370 86 673 0
439 -410 -9 674 0
-68 367 -88 675 0
134 443 441 676 0
-95 -434 40 677 0
5 -207 -388 678 0
-8 107 -189 679 0
-458 433 -276 680 0
-336 -115 -490 681 0
-464 -436 -423 682 0
187 -401 -137 683 0
-314 -347 -398 684 0
10 326 191 685 0
484 489 316 686 0
-406 14 -229 687 0
-94 -386 -322 688 0
-374 371 307 689 0
-98 452 -184 690 0
143 -325 -4 691 0
-256 215 -77 692 0
421 -156 -429 693 0
-35 138 -230 694 0
-420 488 -165 695 0
-453 224 272 696 0
-184 69 145 697 0
-158 -331 281 698 0
184 -357 -223 699 0
-157 -346 -486 700 0
-366 181 -445 701 0
-264 104 78 702 0
87 497 355 703 0
-205 94 -204 704 0
324 -221 -77 705 0
-370 -137 -317 706 0
-374 342 234 707 0
56 -434 -312 708 0
-373 -262 -76 709 0
329 -252 -148 710 0
160 -210 -81 711 0
366 269 357 712 0
21 227 486 713 0
494 -288 -290 714 0
414 113 -281 715 0
264 412 -489 716 0
-28 437 -388 717 0
-108 57 450 718 0
-294 -500 -301 719 0
405 182 -368 720 0
-135 49 188 721 0
-253 -413 -251 722 0
-159 -45 -496 723 0
308 298 -49 724 0
-499 -58 -136 725 0
-108 -183 -12 726 0
180 493 -408 727 0
-258 233 446 728 0
-14 -34 13 729 0
90 123 156 730 0
336 410 403 731 0
-262 -280 97 732 0
-312 -286 -414 733 0
134 367 -52 734 0
-486 -153 -7 735 0
409 -273 498 736 0
312 241 387 737 0
216 207 -180 738 0
47 445 -336 739 0
-181 167 -81 740 0
139 -400 -18 741 0
-40 -229 493 742 0
-458 390 -408 743 0
-359 -19 -326 744 0
-470 414 -276 745 0
395 85 -462 746 0
-273 -433 -122 747 0
169 -28 473 748 0
-460 210 -193 749 0
482 314 -132 750 0
225 -331 1 751 0
-346 163 -436 752 0
-362 -448 -182 753 0
-307 135 -441 754 0
-281 168 347 755 0
-111 324 -436 756 0
140 356 -352 757 0
-165 -215 140 758 0
208 216 255 759 0
486 -151 4 760 0
-162 496 155 761 0
-189 -291 346 762 0
-181 -262 438 763 0
-197 -150 46 764 0
-163 -102 -121 765 0
415 278 -463 766 0
69 -453 -277 767 0
57 251 -230 768 0
465 -327 107 769 0
19 85 -480 770 0
-481 120 45 771 0
23 7 -304 772 0
301 76 -410 773 0
-268 385 -201 774 0
226 387 489 775 0
316 299 185 776 0
370 -253 374 777 0
-382 34 -81 778 0
138 -249 -43 779 0
-443 400 333 780 0
-360 199 -140 781 0
92 -331 408 782 0
106 351 -284 783 0
322 318 106 784 0
-277 -280 -329 785 0
89 132 -214 786 0
-167 202 264 787 0
-318 -455 140 788 0
-126 330 -62 789 0
-132 131 -220 790 0
409 489 52 791 0
-285 -100 -190 792 0
490 301 -58 793 0
440 -1 -15 794 0
-361 4 378 795 0
-94 -105 393 796 0
24 223 322 797 0
-341 229 -91 798 0
-148 85 -268 799 0
318 329 447 800 0
225 -14 336 801 0
249 -478 79 802 0
-263 480 -390 803 0
63 279 391 804 0
122 127 19 805 0
-391 -481 -85 806 0
-213 -89 230 807 0
104 78 499 808 0
-84 159 -359 809 0
-458 -80 366 810 0
364 217 419 811 0
-161 115 -210 812 0
-285 113 323 813 0
119 419 -236 814 0
-56 371 -26 815 0
-41 -48 31 816 0
418 -41 297 817 0
382 370 -166 818 0
331 -240 461 819 0
374 251 -234 820 0
357 -317 -126 821 0
-281 -53 -356 822 0
144 -89 56 823 0
-72 -286 -319 824 0
71 -494 48 825 0
493 -79 391 826 0
289 207 -428 827 0
-424 64 -65 828 0
417 167 105 829 0
269 -52 -330 830 0
-340 349 -233 831 0
-136 -42 -161 832 0
388 -235 159 833 0
-342 -313 -421 834 0
-76 54 289 835 0
248 321 -98 836 0
40 317 493 837 0
-130 -30 16 838 0
63 438 -375 839 0
453 -412 150 840 0
290 409 -215 841 0
7 244 -287 842 0
87 73 -490 843 0
-343 -419 455 844 0
-67 261 68 845 0
237 30 97 846 0
249 -4 -42 847 0
180 -56 102 848 0
-32 168 281 849 0
131 -24 249 850 0
299 321 109 851 0
50 -304 212 852 0
-72 -364 254 853 0
-371 392 -317 854 0
287 -413 -165 855 0
197 346 -185 856 0
86 98 -50 857 0
-155 241 -108 858 0
-453 11 346 859 0
-419 -154 -373 860 0
-96 173 -57 861 0
137 492 -321 862 0
-389 189 -428 863 0
-399 -142 -190 864 0
-335 214 -436 865 0
-14 239 -15 866 0
-344 -374 452 867 0
-483 56 370 868 0
-173 252 -448 869 0
-311 -24 298 870 0
435 135 -438 871 0
-260 -271 172 872 0
-65 -227 40 873 0
-321 -23 124 874 0
259 355 -166 875 0
148 -483 307 876 0
-359 -218 257 877 0
78 489 -448 878 0
36 -184 252 879 0
-410 -326 368 880 0
48 -393 237 881 0
487 62 47 882 0
56 -5 392 883 0
-174 -239 -71 884 0
-476 246 -253 885 0
-386 249 -96 886 0
-452 415 412 887 0
-433 -448 358 888 0
-22 443 -350 889 0
-487 -19 324 890 0
1 295 -54 891 0
311 -76 -72 892 0
-176 -426 -378 893 0
-171 226 -53 894 0
272 187 357 895 0
385 342 -335 896 0
-444 -47 43 897 0
-43 -236 -326 898 0
316 391 259 899 0
76 486 -235 900 0
-386 411 330 901 0
-177 -489 -482 902 0
112 172 -407 903 0
363 -286 466 904 0
-358 110 -238 905 0
-360 57 -444 906 0
246 -139 -95 907 0
420 76 -70 908 0
-418 263 420 909 0
272 -193 162 910 0
488 37 -360 911 0
302 -161 -184 912 0
-261 379 87 913 0
214 -123 147 914 0
-65 245 -155 915 0
-369 -3 -99 916 0
-456 182 264 917 0
448 -487 363 918 0
232 -456 106 919 0
-3 340 -289 920 0
-426 -364 -435 921 0
403 -320 375 922 0
439 414 14 923 0
-317 356 345 924 0
34 -107 77 925 0
-79 -83 -422 926 0
202 -56 -54 927 0
473 -472 249 928 0
203 -191 -125 929 0
321 -75 53 930 0
435 -236 244 931 0
-67 37 391 932 0
17 251 65 933 0
-107 -451 -337 934 0
-400 227 -433 935 0
60 -453 303 936 0
47 -130 260 937 0
225 -308 -250 938 0
-474 476 -475 939 0
5 -161 -376 940 0
211 470 -77 941 0
263 -262 499 942 0
397 -122 448 943 0
416 -175 127 944 0
246 459 21 945 0
399 224 378 946 0
-294 400 -423 947 0
407 417 -149 948 0
418 235 187 949 0
296 469 -132 950 0
-194 289 -430 951 0
466 231 -406 952 0
-213 101 39 953 0
185 237 389 954 0
197 -261 349 955 0
-332 -213 -354 956 0
-122 -109 20 957 0
139 -250 -127 958 0
445 -269 41 959 0
-81 -86 168 960 0
-439 -371 -334 961 0
273 -469 -100 962 0
-469 -298 203 963 0
166 -21 30 964 0
-441 223 189 965 0
-332 -10 252 966 0
472 -405 348 967 0
41 -284 94 968 0
89 380 -317 969 0
-434 310 20 970 0
-39 476 -428 971 0
120 -128 391 972 0
95 -379 -441 973 0
75 378 202 974 0
-281 -258 297 975 0
272 367 -121 976 0
86 -30 54 977 0
-352 58 -134 978 0
243 68 406 979 0
-270 -147 -130 980 0
332 206 373 981 0
-25 -198 270 982 0
472 -498 95 983 0
403 -177 12 984 0
201 -61 97 985 0
-414 487 -454 986 0
-314 178 -240 987 0
-94 -148 71 988 0
489 -359 468 989 0
-83 -376 153 990 0
-77 -41 115 991 0
134 -371 -209 992 0
18 -381 -66 993 0
286 165 -289 994 0
-284 -88 7 995 0
-105 95 231 996 0
479 281 -272 997 0
454 189 -421 998 0
295 -75 -387 999 0
192 494 277 1000 0
-4 440 -417 1001 0
-16 -265 84 1002 0
-154 49 448 1003 0
-3 198 492 1004 0
17 -147 -10 1005 0
341 -259 -250 1006 0
-138 399 42 1007 0
498 -403 -258 1008 0
2 -60 487 1009 0
-467 -4 -466 1010 0
-416 -340 -213 1011 0
-390 270 -211 1012 0
-303 17 -169 1013 0
-462 108 -145 1014 0
-48 179 -401 1015 0
-346 -299 416 1016 0
298 224 327 1017 0
321 345 -47 1018 0
-464 -334 -120 1019 0
185 91 -162 1020 0
393 -20 267 1021 0
133 -287 -414 1022 0
-131 -245 195 1023 0
-285 -471 314 1024 0
159 75 -299 1025 0
472 244 -375 1026 0
402 216 -27 1027 0
-189 -236 -197 1028 0
50 -269 -469 1029 0
-469 -420 -297 1030 0
-499 316 263 1031 0
-314 -198 -462 1032 0
297 -438 461 1033 0
-21 179 -144 1034 0
383 483 -48 1035 0
-489 222 35 1036 0
443 249 416 1037 0
-171 3 -156 1038 0
253 -399 -391 1039 0
461 -24 476 1040 0
412 452 255 1041 0
-195 126 -260 1042 0
28 -263 211 1043 0
-430 98 29 1044 0
72 -470 -265 1045 0
-262 -379 -91 1046 0
-26 183 248 1047 0
-271 314 323 1048 0
-296 406 -72 1049 0
-49 208 -27 1050 0
244 -374 12 1051 0
390 56 51 1052 0
-227 -387 325 1053 0
-36 187 -30 1054 0
448 316 -216 1055 0
-355 -158 438 1056 0
313 324 -125 1057 0
-73 -477 -34 1058 0
-118 393 -142 1059 0
-253 209 -333 1060 0
-40 222 -163 1061 0
262 92 -373 1062 0
455 -302 299 1063 0
57 -333 77 1064 0
-478 -87 -258 1065 0
-172 161 342 1066 0
135 -306 -294 1067 0
75 471 -457 1068 0
237 -435 460 1069 0
-181 376 291 1070 0
-64 300 384 1071 0
-125 99 63 1072 0
19 -422 313 1073 0
92 111 -416 1074 0
79 441 471 1075 0
246 182 327 1076 0
317 -460 165 1077 0
-331 -6 -179 1078 0
261 318 105 1079 0
64 395 -170 1080 0
439 -363 164 1081 0
196 -77 438 1082 0
443 -100 -112 1083 0
-215 375 298 1084 0
-114 -412 423 1085 0
-351 471 285 1086 0
-303 -330 -275 1087 0
88 216 -176 1088 0
-205 -392 -117 1089 0
246 32 362 1090 0
-400 -126 -112 1091 0
256 231 206 1092 0
234 364 -353 1093 0
-53 -78 -480 1094 0
-211 -27 221 1095 0
-453 427 303 1096 0
316 -21 130 1097 0
-165 -76 -260 1098 0
-220 -127 400 1099 0
491 -463 238 1100 0
328 -372 257 1101 0
395 193 390 1102 0
-216 -271 481 1103 0
36 -193 217 1104 0
-376 -453 459 1105 0
407 -422 10 1106 0
415 491 -337 1107 0
30 -431 477 1108 0
24 94 387 1109 0
254 137 480 1110 0
411 -206 433 1111 0
67 409 -294 1112 0
99 -279 287 1113 0
410 62 -24 1114 0
469 429 -173 1115 0
96 -295 -240 1116 0
-102 -225 364 1117 0
-356 194 375 1118 0
-177 338 110 1119 0
385 -144 -500 1120 0
17 -80 406 1121 0
477 88 304 1122 0
-274 262 494 1123 0
-265 118 -175 1124 0
394 406 180 1125 0
431 -467 22 1126 0
-314 69 -303 1127 0
-206 -376 181 1128 0
-116 29 156 1129 0
-309 108 -402 1130 0
167 -372 252 1131 0
-486 -12 -317 1132 0
-371 269 -75 1133 0
440 -87 -398 1134 0
47 466 -97 1135 0
-346 420 -500 1136 0
-346 -18 404 1137 0
-123 -432 461 1138 0
95 252 -92 1139 0
465 275 255 1140 0
38 -433 431 1141 0
169 -199 -95 1142 0
264 145 -426 1143 0
-152 -488 -132 1144 0
334 363 277 1145 0
-9 416 -500 1146 0
352 468 241 1147 0
-206 -396 291 1148 0
-162 -475 -201 1149 0
-414 425 -433 1150 0
-341 -397 184 1151 0
-446 68 123 1152 0
-137 -398 255 1153 0
54 282 -294 1154 0
349 390 -235 1155 0
-401 317 -346 1156 0
-78 230 23 1157 0
264 223 21 1158 0
-317 494 375 1159 0
-114 -48 -238 1160 0
-38 -276 476 1161 0
93 -110 456 1162 0
-353 371 -172 1163 0
446 -114 -28 1164 0
-343 -336 -35 1165 0
346 470 -238 1166 0
-388 58 73 1167 0
230 -256 422 1168 0
333 467 62 1169 0
309 -397 -105 1170 0
-75 149 -343 1171 0
-415 -305 -328 1172 0
199 450 254 1173 0
135 196 -403 1174 0
-3 -371 389 1175 0
165 -310 -50 1176 0
376 492 457 1177 0
373 -243 478 1178 0
-86 -55 -152 1179 0
53 453 379 1180 0
430 -241 484 1181 0
-342 -199 210 1182 0
-435 236 75 1183 0
-131 293 -236 1184 0
-53 -185 -36 1185 0
142 -217 286 1186 0
-247 -238 253 1187 0
483 389 -61 1188 0
-100 450 289 1189 0
93 25 -333 1190 0
-266 -135 -120 1191 0
-382 139 -110 1192 0
-496 -481 -209 1193 0
-355 -53 139 1194 0
362 103 -275 1195 0
-228 -182 -367 1196 0
-381 -223 -325 1197 0
187 -72 407 1198 0
-453 73 -278 1199 0
122 -112 329 1200 0
325 -70 212 1201 0
152 -76 270 1202 0
-388 -441 -319 1203 0
-452 -19 -75 1204 0
-332 422 -153 1205 0
412 332 -225 1206 0
174 -409 493 1207 0
373 107 382 1208 0
274 92 -232 1209 0
491 -206 -288 1210 0
-487 -275 162 1211 0
25 -302 161 1212 0
303 38 17 1213 0
-133 255 -194 1214 0
31 372 127 1215 0
-42 -32 456 1216 0
2 476 378 1217 0
95 -282 406 1218 0
391 -261 -364 1219 0
380 -404 -110 1220 0
-357 -495 -417 1221 0
-256 350 -438 1222 0
-233 185 -386 1223 0
315 -367 -231 1224 0
343 440 130 1225 0
-461 287 300 1226 0
465 -89 -270 1227 0
317 467 -429 1228 0
271 69 115 1229 0
-391 158 -488 1230 0
-428 -378 -356 1231 0
110 268 272 1232 0
-3 -157 143 1233 0
66 385 -414 1234 0
-240 -425 -227 1235 0
124 358 32 1236 0
469 489 128 1237 0
317 84 13 1238 0
390 103 205 1239 0
-24 -437 -7 1240 0
237 -485 -137 1241 0
327 -98 -311 1242 0
-256 337 96 1243 0
380 -82 -464 1244 0
-374 318 -316 1245 0
-374 -203 373 1246 0
-291 485 -345 1247 0
185 -280 -377 1248 0
430 193 164 1249 0
27 -93 182 1250 0
12 282 -467 1251 0
64 -314 -401 1252 0
-448 -453 101 1253 0
-267 -384 285 1254 0
-496 165 457 1255 0
-323 374 -455 1256 0
164 -161 -28 1257 0
439 53 316 1258 0
-169 296 316 1259 0
-480 412 295 1260 0
487 152 234 1261 0
478 -41 -428 1262 0
-196 241 194 1263 0
-155 465 -283 1264 0
101 62 90 1265 0
16 -490 331 1266 0
-231 -354 130 1267 0
476 155 124 1268 0
196 244 284 1269 0
151 44 -282 1270 0
-183 -250 -444 1271 0
222 115 155 1272 0
386 71 349 1273 0
368 -256 6 1274 0
499 -390 449 1275 0
294 -408 468 1276 0
119 39 -134 1277 0
-389 308 -253 1278 0
-43 442 -3 1279 0
-351 -17 479 1280 0
290 -184 142 1281 0
-148 -360 -178 1282 0
-355 206 -404 1283 0
-403 -189 -41 1284 0
225 442 441 1285 0
325 -22 7 1286 0
-162 301 -59 1287 0
-268 -344 -380 1288 0
-63 -491 163 1289 0
411 117 416 1290 0
-110 247 -121 1291 0
431 -139 397 1292 0
104 304 151 1293 0
-281 -308 459 1294 0
274 -115 -60 1295 0
-389 -190 400 1296 0
275 -227 -405 1297 0
-495 253 200 1298 0
92 -320 -416 1299 0
416 -370 301 1300 0
-95 -193 -99 1301 0
-138 -346 -436 1302 0
-228 297 -255 1303 0
-140 -460 202 1304 0
-200 -351 -226 1305 0
1 -116 -102 1306 0
261 306 449 1307 0
36 247 94 1308 0
-451 -469 470 1309 0
-278 -461 -188 1310 0
49 255 -312 1311 0
-273 -321 -3 1312 0
-188 258 -256 1313 0
-367 -302 -103 1314 0
-291 -127 -139 1315 0
-117 337 356 1316 0
355 146 -200 1317 0
-381 -467 253 1318 0
435 -71 436 1319 0
-23 331 -185 1320 0
221 159 219 1321 0
207 156 163 1322 0
-318 33 47 1323 0
-369 -114 -185 1324 0
96 -226 76 1325 0
-443 -369 -182 1326 0
-490 -86 -138 1327 0
-370 404 150 1328 0
484 -138 286 1329 0
-63 -279 353 1330 0
150 -133 -263 1331 0
12 -87 180 1332 0
420 79 -43 1333 0
-482 300 29 1334 0
466 -360 233 1335 0
123 267 140 1336 0
181 128 -358 1337 0
409 -22 -382 1338 0
-254 -478 -493 1339 0
318 -372 -374 1340 0
-78 186 -217 1341 0
-439 -443 -392 1342 0
-174 -419 374 1343 0
385 -54 141 1344 0
89 66 -450 1345 0
-237 329 -12 1346 0
-282 284 259 1347 0
117 -454 -102 1348 0
363 76 -30 1349 0
204 191 -327 1350 0
-182 -348 -379 1351 0
231 419 -463 1352 0
-424 340 -458 1353 0
395 151 71 1354 0
7 33 443 1355 0
173 113 388 1356 0
352 -340 174 1357 0
75 -365 177 1358 0
279 -441 -10 1359 0
-213 -44 272 1360 0
236 445 -460 1361 0
273 150 430 1362 0
-222 -169 -414 1363 0
455 126 -170 1364 0
110 290 -169 1365 0
119 344 -70 1366 0
267 -208 -174 1367 0
325 340 355 1368 0
-270 66 -428 1369 0
278 -468 -438 1370 0
-453 -52 396 1371 0
-427 -322 56 1372 0
491 470 -395 1373 0
397 342 -1 1374 0
384 -167 -401 1375 0
410 -444 312 1376 0
-378 459 -76 1377 0
108 -290 116 1378 0
113 102 366 1379 0
328 341 117 1380 0
147 98 422 1381 0
-3 -303 -280 1382 0
-325 22 2 1383 0
-455 -64 263 1384 0
-372 91 330 1385 0
-214 -318 400 1386 0
-438 -94 -397 1387 0
294 -280 112 1388 0
-224 479 -476 1389 0
363 -438 -252 1390 0
-331 -181 29 1391 0
374 -496 309 1392 0
-83 319 -240 1393 0
-265 -369 -442 1394 0
-287 411 -183 1395 0
-305 -475 104 1396 0
476 396 -286 1397 0
460 -196 -491 1398 0
-378 -364 -162 1399 0
-11 -380 -94 1400 0
391 251 -24 1401 0
465 -112 183 1402 0
491 -424 -150 1403 0
122 -469 -373 1404 0
489 -487 -45 1405 0
-387 -39 -367 1406 0
481 -99 162 1407 0
-491 -18 -500 1408 0
-400 -138 -408 1409 0
114 -257 -87 1410 0
-2 -159 163 1411 0
-154 -385 -56 1412 0
27 -44 191 1413 0
29 112 -319 1414 0
304 -127 160 1415 0
44 302 -411 1416 0
-289 -457 -493 1417 0
47 -129 -172 1418 0
259 -442 -402 1419 0
17 -253 -350 1420 0
173 -307 -492 1421 0
-6 -307 -339 1422 0
384 446 -19 1423 0
141 197 351 1424 0
-457 -413 -133 1425 0
-370 -336 -367 1426 0
-8 -260 68 1427 0
-290 80 -243 1428 0
331 356 -30 1429 0
273 -211 213 1430 0
56 -287 -225 1431 0
-124 -273 156 1432 0
318 -117 -51 1433 0
444 -134 -287 1434 0
240 -83 90 1435 0
249 -352 -70 1436 0
-254 -348 260 1437 0
-182 186 -241 1438 0
155 121 187 1439 0
48 -204 -86 1440 0
278 -209 -253 1441 0
-327 136 -237 1442 0
-196 -305 -348 1443 0
445 36 377 1444 0
-500 292 -282 1445 0
150 47 -293 1446 0
103 -425 251 1447 0
-139 391 490 1448 0
-141 -76 129 1449 0
-453 -61 324 1450 0
-296 423 455 1451 0
-189 -18 -119 1452 0
-21 37 488 1453 0
-96 124 142 1454 0
-167 33 28 1455 0
-40 -247 434 1456 0
321 385 196 1457 0
-174 -419 -133 1458 0
-430 112 -14 1459 0
-442 309 284 1460 0
-411 -79 -368 1461 0
487 -257 -419 1462 0
215 345 97 1463 0
174 -412 -168 1464 0
351 499 -473 1465 0
473 50 -31 1466 0
-21 -268 430 1467 0
374 472 390 1468 0
108 -440 -331 1469 0
-364 -226 241 1470 0
-117 233 76 1471 0
-189 -379 -35 1472 0
331 271 -470 1473 0
-265 -427 -240 1474 0
-325 323 -173 1475 0
212 164 -86 1476 0
-252 -225 -436 1477 0
-92 -459 -349 1478 0
451 -25 294 1479 0
-467 -269 -214 1480 0
424 -219 -146 1481 0
100 -42 -4 1482 0
299 277 65 1483 0
-435 -448 -361 1484 0
-113 242 34 1485 0
453 483 202 1486 0
166 -168 145 1487 0
292 -62 -101 1488 0
349 497 222 1489 0
-39 -407 -486 1490 0
-58 290 386 1491 0
-245 -278 -1 1492 0
199 289 -474 1493 0
108 494 314 1494 0
-178 -46 -244 1495 0
432 -259 -425 1496 0
-207 -118 455 1497 0
-146 450 -487 1498 0
397 -395 358 1499 0
275 43 -402 1500 0
-436 349 -63 1501 0
-178 -226 11 1502 0
-443 301 120 1503 0
423 -256 -433 1504 0
101 460 -205 1505 0
296 303 324 1506 0
258 374 -429 1507 0
-109 -340 -42 1508 0
-166 -427 -295 1509 0
-32 -169 -111 1510 0
-181 -370 -456 1511 0
-125 -171 441 1512 0
-96 -162 -46 1513 0
-97 -112 377 1514 0
160 247 -398 1515 0
-391 -328 -305 1516 0
-420 113 129 1517 0
482 181 271 1518 0
-346 466 102 1519 0
-326 -275 448 1520 0
72 244 -366 1521 0
-233 486 -429 1522 0
308 50 -113 1523 0
-159 -200 -457 1524 0
76 -329 -27 1525 0
221 -396 259 1526 0
-401 -374 423 1527 0
169 -317 431 1528 0
-191 89 153 1529 0
-46 437 -49 1530 0
-101 359 16 1531 0
104 -158 -463 1532 0
-85 386 -476 1533 0
-460 469 452 1534 0
-220 336 -123 1535 0
348 129 353 1536 0
298 296 49 1537 0
-145 -383 -270 1538 0
99 -419 -178 1539 0
148 -402 -48 1540 0
408 -81 -438 1541 0
-88 -456 -153 1542 0
179 -82 -232 1543 0
165 420 279 1544 0
-103 -10 438 1545 0
400 275 -292 1546 0
-74 57 149 1547 0
292 -432 -348 1548 0
-29 373 145 1549 0
-499 348 403 1550 0
259 -205 281 1551 0
-444 -278 -471 1552 0
333 -374 7 1553 0
231 7 165 1554 0
-477 -389 -404 1555 0
401 -63 -451 1556 0
-86 320 442 1557 0
423 321 -180 1558 0
-18 53 338 1559 0
346 412 -343 1560 0
487 7 213 1561 0
78 203 -300 1562 0
275 -290 217 1563 0
97 45 -273 1564 0
-93 -121 -6 1565 0
-142 271 -482 1566 0
2 -211 65 1567 0
313 154 -399 1568 0
-63 -335 -58 1569 0
-44 251 -496 1570 0
-203 370 432 1571 0
-93 180 -287 1572 0
-354 20 53 1573 0
-25 359 -436 1574 0
243 59 -39 1575 0
39 151 273 1576 0
380 436 13 1577 0
490 -326 421 1578 0
246 -338 394 1579 0
-228 8 -416 1580 0
-324 -139 -43 1581 0
-64 -267 75 1582 0
440 182 -25 1583 0
389 53 74 1584 0
-203 481 -267 1585 0
-127 -351 174 1586 0
-79 104 -370 1587 0
-441 -346 -31 1588 0
120 425 -215 1589 0
148 -424 87 1590 0
210 426 -374 1591 0
-496 -296 -293 1592 0
247 115 -318 1593 0
-56 325 456 1594 0
-223 184 165 1595 0
465 -27 426 1596 0
-168 -263 -392 1597 0
-303 295 -126 1598 0
401 63 250 1599 0
-310 -88 199 1600 0
-433 -445 -215 1601 0
310 171 -399 1602 0
-22 -295 -420 1603 0
16 -17 -78 1604 0
386 325 470 1605 0
-235 -387 -425 1606 0
108 219 -22 1607 0
-279 407 290 1608 0
-495 -104 -133 1609 0
65 23 388 1610 0
-40 495 -242 1611 0
-35 297 465 1612 0
224 20 -161 1613 0
325 448 -132 1614 0
-249 14 102 1615 0
29 -39 182 1616 0
259 -482 -476 1617 0
-28 238 267 1618 0
-63 -389 -40 1619 0
-20 200 -229 1620 0
-466 271 302 1621 0
471 -381 -403 1622 0
-414 -270 -436 1623 0
-223 -57 -61 1624 0
-75 118 -286 1625 0
-392 -237 466 1626 0
230 -176 -76 1627 0
33 282 124 1628 0
14 199 284 1629 0
-277 -483 -231 1630 0
-449 439 229 1631 0
-231 96 -225 1632 0
241 152 106 1633 0
-104 -309 433 1634 0
-182 221 -111 1635 0
102 391 241 1636 0
314 138 -464 1637 0
-235 -249 -234 1638 0
-409 223 -410 1639 0
-500 -336 -275 1640 0
418 -94 67 1641 0
-413 -419 -267 1642 0
342 -241 -334 1643 0
473 5 -80 1644 0
272 460 306 1645 0
185 -443 -353 1646 0
246 -199 228 1647 0
-347 -226 -213 1648 0
113 8 373 1649 0
20 246 251 1650 0
127 333 -481 1651 0
-129 368 342 1652 0
-333 -271 -190 1653 0
392 282 487 1654 0
18 91 -213 1655 0
-177 -209 -36 1656 0
366 -34 3 1657 0
-189 -256 -439 1658 0
-263 414 -406 1659 0
-463 -50 477 1660 0
330 -329 -421 1661 0
-472 64 -257 1662 0
249 -106 -207 1663 0
-120 -198 303 1664 0
-487 -283 -354 1665 0
257 383 442 1666 0
-292 287 -220 1667 0
377 -163 -183 1668 0
-64 -86 388 1669 0
33 188 108 1670 0
-306 -133 60 1671 0
-25 4 -152 1672 0
-220 133 -160 1673 0
296 -299 -57 1674 0
30 336 461 1675 0
-193 -415 23 1676 0
259 48 254 1677 0
262 375 208 1678 0
-251 -307 -421 1679 0
131 441 55 1680 0
116 -463 39 1681 0
308 -45 -39 1682 0
463 296 -467 1683 0
59 -434 376 1684 0
-127 244 -132 1685 0
-308 136 -350 1686 0
-461 -486 -87 1687 0
-77 271 59 1688 0
-197 284 53 1689 0
327 418 118 1690 0
-363 -357 -407 1691 0
-73 -308 -428 1692 0
318 -199 -330 1693 0
486 460 67 1694 0
166 -452 -43 1695 0
-391 -452 -228 1696 0
448 490 474 1697 0
-282 -24 -403 1698 0
327 28 157 1699 0
-256 -287 379 1700 0
36 447 -433 1701 0
-210 -439 -242 1702 0
21 76 439 1703 0
-250 152 -131 1704 0
-138 -274 77 1705 0
190 455 445 1706 0
-453 -193 -425 1707 0
-475 426 -379 1708 0
-485 337 482 1709 0
155 -111 -387 1710 0
-284 290 309 1711 0
121 -429 88 1712 0
195 356 458 1713 0
-90 360 318 1714 0
-164 141 66 1715 0
-80 -259 -231 1716 0
-81 -308 146 1717 0
-451 -30 151 1718 0
-429 -150 -370 1719 0
164 -172 -354 1720 0
-223 414 182 1721 0
-496 -497 -14 1722 0
-324 -440 165 1723 0
301 -186 25 1724 0
-471 253 125 1725 0
-121 -167 162 1726 0
150 423 -57 1727 0
-141 35 362 1728 0
20 -30 146 1729 0
-54 347 -31 1730 0
437 -73 455 1731 0
9 -156 256 1732 0
447 399 471 1733 0
-159 -416 102 1734 0
-256 -201 184 1735 0
-189 158 -398 1736 0
-94 -65 -188 1737 0
-188 249 -317 1738 0
475 -402 -324 1739 0
-145 -22 432 1740 0
8 174 -463 1741 0
147 287 -452 1742 0
-262 -499 -279 1743 0
-304 313 90 1744 0
459 295 -161 1745 0
436 291 -296 1746 0
105 161 -270 1747 0
203 75 241 1748 0
-272 379 -500 1749 0
393 -35 318 1750 0
-34 -202 -448 1751 0
467 150 -96 1752 0
-273 108 -293 1753 0
-481 -382 -287 1754 0
401 407 78 1755 0
429 50 -481 1756 0
433 234 185 1757 0
-313 40 133 1758 0
-192 83 31 1759 0
342 -402 -426 1760 0
-370 177 216 1761 0
-308 119 -362 1762 0
467 442 -41 1763 0
-26 -294 -76 1764 0
368 231 9 1765 0
-156 -263 -25 1766 0
-90 394 112 1767 0
-349 -454 -405 1768 0
173 -251 336 1769 0
-66 -334 -472 1770 0
34 23 483 1771 0
-201 281 -405 1772 0
498 -145 187 1773 0
-207 155 335 1774 0
219 -201 362 1775 0
-403 329 -284 1776 0
62 443 423 1777 0
295 392 -347 1778 0
471 -355 -160 1779 0
124 4 -263 1780 0
29 -458 -380 1781 0
267 -312 -159 1782 0
-446 335 173 1783 0
-260 -68 448 1784 0
-440 -5 -289 1785 0
-379 -144 -188 1786 0
179 -61 -148 1787 0
282 346 -484 1788 0
-126 284 -299 1789 0
388 309 154 1790 0
343 -52 409 1791 0
-431 448 -429 1792 0
129 188 99 1793 0
-66 -131 -239 1794 0
-260 -351 486 1795 0
-2 -63 -245 1796 0
-404 -75 -315 1797 0
140 320 -422 1798 0
325 -191 190 1799 0
-151 -308 460 1800 0
-367 88 340 1801 0
-55 -49 265 1802 0
-276 241 -69 1803 0
-62 470 211 1804 0
426 -145 -181 1805 0
-496 -301 -22 1806 0
-126 -392 -83 1807 0
-345 -123 71 1808 0
-369 -421 182 1809 0
-153 461 -185 1810 0
-29 64 350 1811 0
-76 -219 198 1812 0
157 381 317 1813 0
311 485 -69 1814 0
362 269 304 1815 0
225 -244 126 1816 0
-154 484 177 1817 0
-499 -153 -126 1818 0
-379 406 380 1819 0
-305 -382 45 1820 0
-18 -195 -125 1821 0
241 -75 213 1822 0
217 -59 -248 1823 0
119 223 272 1824 0
-139 -334 -263 1825 0
202 -146 -341 1826 0
-319 -234 -337 1827 0
269 -68 55 1828 0
-426 97 411 1829 0
-183 -481 -148 1830 0
-196 -220 446 1831 0
315 29 -381 1832 0
-158 159 -225 1833 0
414 -147 341 1834 0
218 -58 161 1835 0
-224 -266 187 1836 0
-370 -499 182 1837 0
-233 -199 -464 1838 0
444 -202 -164 1839 0
-305 345 388 1840 0
375 41 -139 1841 0
162 88 -321 1842 0
-175 -109 408 1843 0
-230 217 352 1844 0
414 203 257 1845 0
-363 -285 315 1846 0
126 -318 -53 1847 0
40 -298 -367 1848 0
-182 -34 476 1849 0
-442 -429 -124 1850 0
485 159 -130 1851 0
141 -348 368 1852 0
64 -312 -479 1853 0
-481 -3 -300 1854 0
488 108 440 1855 0
412 339 -394 1856 0
-268 387 206 1857 0
139 485 -136 1858 0
-229 88 -268 1859 0
-245 -498 59 1860 0
201 442 204 1861 0
149 -67 193 1862 0
-476 388 435 1863 0
-177 -284 -134 1864 0
-259 -168 -467 1865 0
-413 34 213 1866 0
223 -355 48 1867 0
446 465 -229 1868 0
358 -75 -166 1869 0
-397 -83 -349 1870 0
-29 -165 395 1871 0
-63 -235 -169 1872 0
394 432 -109 1873 0
-283 -359 173 1874 0
435 -386 -4 1875 0
-360 -24 325 1876 0
114 307 -408 1877 0
28 464 93 1878 0
108 427 212 1879 0
-242 193 -468 1880 0
458 -242 172 1881 0
-293 -327 399 1882 0
348 -293 147 1883 0
-198 -468 -402 1884 0
146 -388 387 1885 0
-95 -148 245 1886 0
378 98 -50 1887 0
-404 220 -442 1888 0
157 243 -343 1889 0
257 355 -396 1890 0
-105 281 289 1891 0
-268 325 -96 1892 0
-436 361 335 1893 0
-346 69 156 1894 0
105 448 -439 1895 0
176 222 -17 1896 0
-233 112 -139 1897 0
43 193 -13 1898 0
-289 -448 -207 1899 0
-113 430 -195 1900 0
-142 -465 -6 1901 0
288 -87 -455 1902 0
15 268 -2 1903 0
445 -195 -385 1904 0
-211 -175 347 1905 0
27 -39 -11 1906 0
-7 339 3 1907 0
159 315 -50 1908 0
159 293 -202 1909 0
-140 242 -288 1910 0
-179 296 61 1911 0
-405 -458 -297 1912 0
368 195 -205 1913 0
-494 73 186 1914 0
-255 213 -288 1915 0
-264 -332 -62 1916 0
190 486 -30 1917 0
-166 -360 295 1918 0
232 -259 -145 1919 0
-283 361 -79 1920 0
-359 395 462 1921 0
139 -364 -3 1922 0
422 271 -37 1923 0
274 341 159 1924 0
-123 -379 465 1925 0
309 -399 -241 1926 0
337 201 -183 1927 0
168 58 -366 1928 0
-166 254 15 1929 0
-80 -276 -261 1930 0
450 15 345 1931 0
-440 293 394 1932 0
-47 -246 173 1933 0
-346 -252 168 1934 0
320 -195 -61 1935 0
233 -242 69 1936 0
276 -280 -73 1937 0
-298 110 -216 1938 0
-226 420 310 1939 0
255 131 -419 1940 0
-229 -183 351 1941 0
380 421 109 1942 0
-395 -479 189 1943 0
4 14 -104 1944 0
-352 -94 409 1945 0
194 -312 241 1946 0
179 -394 -342 1947 0
498 194 -368 1948 0
456 397 -46 1949 0
303 235 -289 1950 0
-296 473 229 1951 0
170 -318 290 1952 0
-418 -378 122 1953 0
-472 166 -17 1954 0
-467 -23 481 1955 0
-282 363 -263 1956 0
179 447 -188 1957 0
302 -290 -467 1958 0
204 151 249 1959 0
-461 -200 99 1960 0
-222 180 253 1961 0
350 354 403 1962 0
-297 440 378 1963 0
-174 100 -489 1964 0
330 470 38 1965 0
-20 -251 -187 1966 0
363 -481 -273 1967 0
299 -297 -383 1968 0
-5 206 -388 1969 0
124 326 51 1970 0
-92 46 -280 1971 0
161 500 -420 1972 0
-241 -398 -415 1973 0
386 -53 279 1974 0
404 442 -218 1975 0
236 -493 14 1976 0
427 247 -161 1977 0
-63 137 -289 1978 0
327 96 346 1979 0
-22 323 -184 1980 0
-267 171 -484 1981 0
148 -430 235 1982 0
-296 -283 455 1983 0
440 462 139 1984 0
482 -303 136 1985 0
330 -381 372 1986 0
395 -50 -465 1987 0
-181 -95 -22 1988 0
-326 -307 171 1989 0
-15 -328 406 1990 0
-273 133 -383 1991 0
-234 415 384 1992 0
-233 -184 290 1993 0
-7 43 286 1994 0
-34 -110 -232 1995 0
-469 -457 -46 1996 0
-207 182 347 1997 0
-99 -433 208 1998 0
-332 273 -191 1999 0
-386 -127 -381 2000 0
-345 94 440 2001 0
-164 -356 427 2002 0
-67 -82 451 2003 0
172 32 103 2004 0
-271 334 -248 2005 0
-96 -17 30 2006 0
173 -246 -151 2007 0
439 25 -401 2008 0
243 439 -1 2009 0
-79 -26 -308 2010 0
-131 -242 209 2011 0
-312 76 -54 2012 0
-155 220 201 2013 0
-116 -11 -174 2014 0
465 397 213 2015 0
385 -216 333 2016 0
354 -166 -327 2017 0
87 348 264 2018 0
219 -134 -420 2019 0
280 149 -105 2020 0
190 123 -212 2021 0
-395 -246 -355 2022 0
-33 313 -223 2023 0
77 166 -487 2024 0
291 -30 420 2025 0
-199 169 -122 2026 0
30 -279 -261 2027 0
10 -198 -3 2028 0
15 1 185 2029 0
331 227 -496 2030 0
-136 -101 -350 2031 0
313 -128 334 2032 0
-201 -182 -349 2033 0
-14 -386 -177 2034 0
-202 445 80 2035 0
26 440 243 2036 0
353 148 -416 2037 0
80 331 280 2038 0
143 -467 422 2039 0
-78 241 337 2040 0
-117 150 225 2041 0
137 -211 -445 2042 0
-269 -461 -160 2043 0
165 -429 -272 2044 0
469 273 403 2045 0
-395 283 8 2046 0
370 487 444 2047 0
383 -296 -49 2048 0
382 377 183 2049 0
259 212 -211 2050 0
-171 -337 -381 2051 0
-137 332 257 2052 0
175 -194 -473 2053 0
365 -251 -417 2054 0
-153 371 201 2055 0
-488 -463 42 2056 0
76 -177 -36 2057 0
306 485 -125 2058 0
204 -443 44 2059 0
417 183 249 2060 0
53 -237 46 2061 0
-457 120 -477 2062 0
55 -372 -389 2063 0
-59 372 -131 2064 0
-121 -479 -499 2065 0
134 168 -69 2066 0
-25 172 472 2067 0
415 -186 278 2068 0
389 -61 154 2069 0
-234 -328 222 2070 0
-477 -459 -475 2071 0
-386 292 130 2072 0
-116 479 473 2073 0
173 376 77 2074 0
428 151 -36 2075 0
499 -495 -350 2076 0
106 23 159 2077 0
-415 138 85 2078 0
388 464 -173 2079 0
-78 88 209 2080 0
167 458 486 2081 0
-163 -119 -482 2082 0
260 -329 -169 2083 0
-170 95 17 2084 0
-466 -364 12 2085 0
-27 345 -20 2086 0
318 411 472 2087 0
44 -438 -301 2088 0
172 -466 77 2089 0
-206 184 -161 2090 0
464 21 -467 2091 0
-450 149 -196 2092 0
34 -214 -441 2093 0
-224 357 -130 2094 0
36 -155 -358 2095 0
-10 56 286 2096 0
-77 469 210 2097 0
-55 -95 142 2098 0
-254 157 422 2099 0
-219 -160 181 2100 0
-169 -159 -463 2101 0
138 472 265 2102 0
-24 -363 369 2103 0
88 -411 -290 2104 0
-157 197 -289 2105 0
-177 233 460 2106 0
22 -411 -212 2107 0
497 -1 -344 2108 0
-409 315 -437 2109 0
247 -228 314 2110 0
201 249 -62 2111 0
-320 383 223 2112 0
443 165 -79 2113 0
456 140 422 2114 0
407 7 306 2115 0
87 -149 -127 2116 0
-285 17 -316 2117 0
-283 440 329 2118 0
-416 395 441 2119 0
39 -301 131 2120 0
28 438 -367 2121 0
-229 109 -472 2122 0
-307 -23 250 2123 0
-349 117 211 2124 0
415 245 -203 2125 0
-143 -28 438 2126 0
319 340 -177 2127 0
274 205 355 2128 0
-187 105 409 2129 0
-149 137 -356 2130 0
422 -259 -290 2131 0
116 -153 355 2132 0
296 255 -112 2133 0
-99 35 -29 2134 0
390 436 166 2135 0
-74 356 -360 2136 0
-497 -410 50 2137 0
-233 17 123 2138 0
440 123 366 2139 0
442 -493 -405 2140 0
352 459 445 2141 0
-86 96 240 2142 0
-365 -163 372 2143 0
44 487 -353 2144 0
451 -143 -358 2145 0
-179 260 -449 2146 0
-464 296 -436 2147 0
-300 327 -93 2148 0
-453 -50 -241 2149 0
-198 132 -433 2150 0
-94 -122 -309 2151 0
354 467 -474 2152 0
-451 154 456 2153 0
205 -392 368 2154 0
-289 -151 -82 2155 0
-101 327 -15 2156 0
-132 -220 208 2157 0
94 -251 289 2158 0
-98 1 -412 2159 0
-450 -26 98 2160 0
-261 -151 472 2161 0
-208 32 -191 2162 0
307 -37 -375 2163 0
-17 -106 -2 2164 0
257 -439 -334 2165 0
-384 413 -68 2166 0
-313 -38 -351 2167 0
-392 9 -288 2168 0
389 -197 -127 2169 0
-75 343 -257 2170 0
196 29 -421 2171 0
137 250 -489 2172 0
-295 -283 -281 2173 0
-309 257 -117 2174 0
393 51 -179 2175 0
77 -79 201 2176 0
407 281 -480 2177 0
253 -161 129 2178 0
174 -262 -48 2179 0
227 38 -68 2180 0
-207 -81 -94 2181 0
425 62 388 2182 0
349 284 -90 2183 0
-282 252 -111 2184 0
351 -81 347 2185 0
-168 -444 -490 2186 0
-131 469 -7 2187 0
469 395 -384 2188 0
-440 -419 331 2189 0
-175 200 -60 2190 0
427 -5 -266 2191 0
-408 -297 442 2192 0
-399 -86 435 2193 0
62 25 195 2194 0
178 458 -110 2195 0
255 -432 484 2196 0
42 469 -109 2197 0
-467 -175 301 2198 0
385 37 59 2199 0
-491 -23 460 2200 0
39 121 -244 2201 0
-167 -171 -499 2202 0
-155 -337 -286 2203 0
305 452 283 2204 0
354 -320 -305 2205 0
-330 -126 -435 2206 0
12 -129 13 2207 0
363 71 -308 2208 0
-328 405 13 2209 0
461 487 -406 2210 0
-333 -103 -22 2211 0
-277 162 494 2212 0
381 -350 -74 2213 0
53 181 -404 2214 0
-479 28 351 2215 0
295 -247 -126 2216 0
-250 300 261 2217 0
305 500 -79 2218 0
-219 335 -44 2219 0
-400 498 -466 2220 0
-15 77 -59 2221 0
313 199 123 2222 0
334 267 -495 2223 0
219 -243 -196 2224 0
-446 156 86 2225 0
-256 -174 -283 2226 0
-393 71 -105 2227 0
286 377 81 2228 0
68 123 352 2229 0
-473 111 276 2230 0
333 -421 449 2231 0
-117 -278 -272 2232 0
128 -413 247 2233 0
456 -187 -469 2234 0
-255 -381 -127 2235 0
-449 -156 354 2236 0
224 472 125 2237 0
21 -34 -365 2238 0
-210 449 -442 2239 0
270 -211 49 2240 0
398 439 139 2241 0
-251 180 -388 2242 0
-341 -311 -32 2243 0
84 -339 386 2244 0
-487 -122 478 2245 0
458 185 91 2246 0
-14 -450 -235 2247 0
440 -41 -24 2248 0
149 -187 -208 2249 0
-416 152 283 2250 0
-161 -167 -140 2251 0
287 157 2 2252 0
287 -281 -36 2253 0
450 189 -458 2254 0
429 109 -312 2255 0
164 -54 -249 2256 0
218 -308 -337 2257 0
-365 -12 279 2258 0
-265 19 -119 2259 0
-27 -134 -246 2260 0
399 -391 -54 2261 0
-421 -319 -423 2262 0
-436 -324 -423 2263 0
258 201 45 2264 0
432 39 -231 2265 0
-42 325 221 2266 0
111 293 185 2267 0
-478 -325 1 2268 0
265 285 -449 2269 0
387 87 -333 2270 0
-452 86 404 2271 0
-54 416 63 2272 0
350 312 -107 2273 0
8 291 32 2274 0
-279 -234 79 2275 0
203 -116 35 2276 0
84 -294 -347 2277 0
311 -37 255 2278 0
1 365 -2 2279 0
105 -324 -176 2280 0
-118 -478 -136 2281 0
-292 117 -327 2282 0
310 288 -425 2283 0
348 72 316 2284 0
-458 155 51 2285 0
-360 204 273 2286 0
124 444 -500 2287 0
237 -133 -329 2288 0
99 141 478 2289 0
401 -209 -490 2290 0
-53 24 -363 2291 0
101 -189 499 2292 0
-266 -433 -208 2293 0
-446 -99 -451 2294 0
-221 224 -481 2295 0
202 -205 159 2296 0
-244 458 -495 2297 0
74 -86 -479 2298 0
416 155 327 2299 0
219 -213 -411 2300 0
449 -387 -468 2301 0
118 219 -391 2302 0
349 396 424 2303 0
204 310 283 2304 0
-331 280 -478 2305 0
24 401 172 2306 0
84 -417 148 2307 0
-416 -333 -82 2308 0
-330 430 -69 2309 0
479 -51 235 2310 0
247 -180 353 2311 0
-49 21 320 2312 0
-275 -196 230 2313 0
437 -152 -64 2314 0
-188 -128 -136 2315 0
125 120 -317 2316 0
47 -92 -416 2317 0
-485 304 -369 2318 0
-453 57 398 2319 0
-1 64 -207 2320 0
195 158 89 2321 0
-162 -119 -332 2322 0
105 -136 -166 2323 0
444 -104 4 2324 0
-405 -476 -457 2325 0
17 121 387 2326 0
60 -319 -119 2327 0
136 430 -394 2328 0
238 372 148 2329 0
78 258 192 2330 0
442 -488 -53 2331 0
368 -294 -342 2332 0
-69 -48 47 2333 0
-264 -192 180 2334 0
-49 -404 13 2335 0
20 -135 -349 2336 0
-4 -210 -246 2337 0
272 -44 -369 2338 0
108 448 -234 2339 0
124 -73 -136 2340 0
180 246 -312 2341 0
-318 -492 168 2342 0
12 -428 -315 2343 0
-68 -323 -275 2344 0
373 310 464 2345 0
283 239 -25 2346 0
461 -191 -497 2347 0
-117 -169 37 2348 0
-96 -70 -379 2349 0
185 -341 -63 2350 0
-385 -357 287 2351 0
113 175 78 2352 0
173 298 401 2353 0
-146 5 227 2354 0
200 -277 -448 2355 0
-127 -182 301 2356 0
11 164 -486 2357 0
310 414 475 2358 0
-219 88 293 2359 0
123 -453 -436 2360 0
-133 -95 7 2361 0
288 314 -237 2362 0
-155 256 -126 2363 0
365 340 351 2364 0
-73 -323 -99 2365 0
178 370 38 2366 0
-33 320 -103 2367 0
-476 -134 123 2368 0
288 -53 263 2369 0
-27 -95 494 2370 0
341 -250 -410 2371 0
407 252 443 2372 0
-144 77 101 2373 0
283 -176 -370 2374 0
364 35 473 2375 0
121 407 453 2376 0
-396 268 -42 2377 0
-179 170 263 2378 0
-459 56 479 2379 0
24 -194 74 2380 0
-39 -181 152 2381 0
280 -36 -172 2382 0
-368 -283 -378 2383 0
148 49 -16 2384 0
-132 492 63 2385 0
-28 -344 -83 2386 0
-239 -137 430 2387 0
-15 -445 212 2388 0
-212 71 45 2389 0
-167 315 446 2390 0
10 -301 -343 2391 0
-370 -20 163 2392 0
-113 -365 78 2393 0
-313 -76 -294 2394 0
367 -65 419 2395 0
484 490 460 2396 0
42 -46 103 2397 0
9 180 -35 2398 0
473 -73 75 2399 0
-280 -318 -409 2400 0
20 64 -85 2401 0
-152 -442 -293 2402 0
-393 295 -265 2403 0
-28 30 -53 2404 0
127 -56 218 2405 0
-262 485 -425 2406 0
-287 17 119 2407 0
-28 -238 -444 2408 0
-102 393 221 2409 0
-429 -147 374 2410 0
18 -450 -121 2411 0
-274 119 -251 2412 0
-192 444 -450 2413 0
356 165 -376 2414 0
-226 291 27 2415 0
381 273 -175 2416 0
413 461 -123 2417 0
-207 -431 -418 2418 0
256 -130 251 2419 0
480 10 348 2420 0
-117 -169 406 2421 0
189 152 -232 2422 0
-355 126 75 2423 0
-129 107 136 2424 0
207 -175 58 2425 0
-34 232 6 2426 0
384 103 65 2427 0
239 332 -39 2428 0
-426 -8 123 2429 0
-266 -331 500 2430 0
-198 391 -453 2431 0
-488 -214 326 2432 0
-191 496 -38 2433 0
292 -233 416 2434 0
234 -379 -432 2435 0
-36 -411 381 2436 0
495 -485 315 2437 0
-464 491 -123 2438 0
224 451 401 2439 0
-383 -66 241 2440 0
-310 412 51 2441 0
30 -347 -356 2442 0
16 242 -393 2443 0
350 -149 335 2444 0
8 52 -81 2445 0
-217 -366 -355 2446 0
479 410 397 2447 0
143 178 -450 2448 0
-35 176 -390 2449 0
-196 -64 -22 2450 0
232 -233 294 2451 0
-230 -36 51 2452 0
296 -464 -276 2453 0
388 72 -498 2454 0
-62 -343 10 2455 0
357 -73 41 2456 0
-235 445 -337 2457 0
25 43 348 2458 0
318 -349 392 2459 0
160 -348 102 2460 0
-307 416 104 2461 0
-108 -272 67 2462 0
136 -38 88 2463 0
232 92 -302 2464 0
348 139 427 2465 0
-323 317 268 2466 0
369 -149 -420 2467 0
179 -178 203 2468 0
460 474 446 2469 0
-456 -119 59 2470 0
52 446 273 2471 0
108 185 146 2472 0
167 99 121 2473 0
-129 107 185 2474 0
21 -431 -150 2475 0
134 454 -223 2476 0
-111 475 -371 2477 0
-451 133 90 2478 0
-204 -488 55 2479 0
-32 254 490 2480 0
-165 -64 -284 2481 0
-139 457 -436 2482 0
245 93 331 2483 0
-51 449 -344 2484 0
307 -256 391 2485 0
186 21 346 2486 0
-470 16 -389 2487 0
-264 237 190 2488 0
-298 101 491 2489 0
-495 117 -351 2490 0
-136 -487 -125 2491 0
453 -248 -298 2492 0
-365 385 281 2493 0
-464 -204 -112 2494 0
-475 187 -321 2495 0
163 465 141 2496 0
408 -18 261 2497 0
338 216 460 2498 0
29 278 -176 2499 0
204 197 -285 2500 0
35 478 -200 2501 0
-224 298 172 2502 0
-28 -297 -226 2503 0
100 291 117 2504 0
-149 -158 -300 2505 0
68 -492 -14 2506 0
-370 260 184 2507 0
476 -386 70 2508 0
-375 284 -138 2509 0
-282 -263 -142 2510 0
20 -101 410 2511 0
-15 -390 351 2512 0
-196 -355 463 2513 0
216 497 63 2514 0
493 -50 131 2515 0
-452 -298 -245 2516 0
184 423 279 2517 0
122 -441 -103 2518 0
228 -348 -16 2519 0
107 374 -395 2520 0
-346 433 280 2521 0
-381 -180 170 2522 0
225 28 221 2523 0
-189 332 -258 2524 0
56 410 -379 2525 0
-77 280 -54 2526 0
359 -334 156 2527 0
269 -191 493 2528 0
-49 373 -209 2529 0
271 -92 -288 2530 0
-2 348 -316 2531 0
170 398 45 2532 0
-468 422 152 2533 0
-474 9 -73 2534 0
329 -294 436 2535 0
441 -221 -118 2536 0
-213 163 -399 2537 0
-466 80 -248 2538 0
358 -296 -407 2539 0
-116 214 -259 2540 0
-167 -327 -42 2541 0
-408 261 395 2542 0
368 107 198 2543 0
-431 235 -496 2544 0
-316 -22 456 2545 0
51 -9 204 2546 0
448 142 -237 2547 0
68 177 -448 2548 0
274 -37 -225 2549 0
148 -173 -245 2550 0
-291 -229 378 2551 0
-444 -298 364 2552 0
389 -50 -32 2553 0
-428 244 442 2554 0
-34 49 221 2555 0
477 299 234 2556 0
157 212 -156 2557 0
-330 350 127 2558 0
462 156 -386 2559 0
6 366 -240 2560 0
-273 402 -475 2561 0
-480 -262 473 2562 0
35 470 -472 2563 0
64 -411 488 2564 0
-499 -250 -381 2565 0
430 127 390 2566 0
170 -204 -445 2567 0
436 344 31 2568 0
121 -475 85 2569 0
-67 -299 477 2570 0
-467 125 161 2571 0
-295 108 160 2572 0
455 -200 -290 2573 0
162 -1 48 2574 0
-45 -435 444 2575 0
208 -138 331 2576 0
-380 114 -213 2577 0
-379 -431 -227 2578 0
-425 493 408 2579 0
275 -342 322 2580 0
-415 25 363 2581 0
-452 -56 460 2582 0
-466 -60 -95 2583 0
-285 -257 -19 2584 0
200 373 -207 2585 0
-289 222 247 2586 0
55 284 -42 2587 0
-325 -404 -462 2588 0
71 145 133 2589 0
-32 444 -352 2590 0
-386 155 -264 2591 0
362 -423 -256 2592 0
-23 -437 181 2593 0
88 247 53 2594 0
395 349 -258 2595 0
201 -327 233 2596 0
430 -253 -335 2597 0
477 24 103 2598 0
-292 369 251 2599 0
219 277 129 2600 0
-80 84 477 2601 0
391 290 372 2602 0
-269 300 -186 2603 0
-4 248 320 2604 0
-500 238 61 2605 0
373 -65 282 2606 0
12 499 325 2607 0
-118 -344 -174 2608 0
-482 -486 -408 2609 0
-385 25 63 2610 0
-231 -82 150 2611 0
-202 -336 -278 2612 0
191 14 -115 2613 0
241 455 290 2614 0
398 -6 -54 2615 0
380 -251 81 2616 0
212 -51 -462 2617 0
278 -230 274 2618 0
57 -220 -230 2619 0
-297 201 -185 2620 0
435 -92 -321 2621 0
411 -409 443 2622 0
-163 228 77 2623 0
378 -119 -473 2624 0
-481 -259 488 2625 0
-145 -408 261 2626 0
-194 -462 252 2627 0
-131 456 -314 2628 0
-258 -397 497 2629 0
-143 -146 162 2630 0
-326 218 69 2631 0
-44 469 99 2632 0
203 291 -309 2633 0
434 -373 -89 2634 0
273 433 -464 2635 0
-271 -461 -358 2636 0
456 -79 -225 2637 0
5 -67 34 2638 0
-55 371 208 2639 0
321 -285 -418 2640 0
-366 111 -207 2641 0
416 156 -142 2642 0
-443 -223 27 2643 0
35 30 -498 2644 0
-20 168 -139 2645 0
230 451 488 2646 0
459 97 379 2647 0
465 97 -383 2648 0
-434 -317 -382 2649 0
-368 -281 32 2650 0
