p cnf 2650 2150
-320 -74 -147 501 0
-1 151 168 502 0
125 184 -168 503 0
-94 361 -120 504 0
-163 -29 268 505 0
169 200 -422 506 0
-394 115 -343 507 0
359 103 242 508 0
409 -11 -423 509 0
-446 -22 -245 510 0
334 -374 -364 511 0
195 -270 -297 512 0
-464 389 -379 513 0
275 -143 -490 514 0
480 -278 129 515 0
-87 98 -451 516 0
-471 -431 374 517 0
-296 -404 359 518 0
-191 140 260 519 0
-274 483 25 520 0
-162 -330 228 521 0
-426 200 84 522 0
-494 -90 -81 523 0
-19 -499 -374 524 0
212 499 -11 525 0
-101 -166 -420 526 0
-127 -320 470 527 0
107 34 303 528 0
7 -136 340 529 0
200 231 -57 530 0
-85 376 -392 531 0
366 -255 236 532 0
-153 -17 293 533 0
-140 93 -456 534 0
-196 -287 -355 535 0
249 -209 -427 536 0
88 -486 465 537 0
-146 -113 141 538 0
184 424 196 539 0
-409 40 65 540 0
-184 183 -11 541 0
-359 -273 -437 542 0
363 -409 465 543 0
-308 -90 -46 544 0
108 417 22 545 0
166 -98 -40 546 0
230 359 -342 547 0
-221 171 -321 548 0
-483 136 415 549 0
71 197 440 550 0
145 370 -350 551 0
348 -83 79 552 0
398 -169 -486 553 0
-160 -381 -84 554 0
-233 -10 -285 555 0
-112 -207 -75 556 0
-325 -362 346 557 0
467 394 244 558 0
-148 221 182 559 0
296 267 294 560 0
260 -442 84 561 0
72 -440 319 562 0
232 -158 320 563 0
158 320 109 564 0
270 -432 -304 565 0
-495 -433 -243 566 0
-33 -424 -190 567 0
-359 -261 445 568 0
318 -436 -23 569 0
-88 -356 435 570 0
168 450 368 571 0
-19 -203 -447 572 0
-37 332 244 573 0
-443 48 15 574 0
-138 -295 39 575 0
-226 -245 -489 576 0
-239 423 240 577 0
141 379 -322 578 0
202 57 92 579 0
-365 -184 493 580 0
-393 -353 -209 581 0
-422 263 -142 582 0
-400 329 443 583 0
-344 -43 -132 584 0
-455 69 -443 585 0
-471 232 78 586 0
267 140 98 587 0
-394 -22 52 588 0
-116 -381 -72 589 0
293 -4 481 590 0
170 327 -387 591 0
13 -321 -342 592 0
-114 240 472 593 0
257 79 58 594 0
116 440 -346 595 0
-220 -497 -144 596 0
270 -413 -87 597 0
-173 -486 290 598 0
470 -374 -395 599 0
-116 38 170 600 0
62 406 12 601 0
-168 476 -489 602 0
422 -350 -376 603 0
-446 -488 285 604 0
13 500 -58 605 0
-293 74 310 606 0
326 -152 -189 607 0
113 -24 282 608 0
98 431 -374 609 0
444 -104 -133 610 0
-273 287 103 611 0
353 220 -346 612 0
472 -428 -271 613 0
409 209 -153 614 0
455 -439 -150 615 0
-330 346 -179 616 0
427 -298 -225 617 0
-173 39 -41 618 0
250 -283 -54 619 0
-220 -139 -475 620 0
418 285 -129 621 0
-196 81 412 622 0
-460 -276 456 623 0
131 -55 346 624 0
-200 106 -258 625 0
-137 493 421 626 0
157 -4 218 627 0
-171 243 -424 628 0
-241 156 -283 629 0
-411 -341 499 630 0
298 140 -95 631 0
-455 -205 -280 632 0
359 45 317 633 0
-172 -351 398 634 0
253 -87 134 635 0
187 331 134 636 0
-426 -2 -11 637 0
-242 468 -474 638 0
101 -372 62 639 0
-300 282 -168 640 0
-47 -380 -321 641 0
287 120 52 642 0
315 -474 292 643 0
345 383 -53 644 0
155 48 -326 645 0
-149 -423 466 646 0
303 305 423 647 0
298 -307 -221 648 0
-283 -416 184 649 0
281 -441 -269 650 0
-247 -373 -340 651 0
-381 -286 267 652 0
368 186 447 653 0
236 -277 342 654 0
456 -412 -101 655 0
-46 -104 339 656 0
255 212 63 657 0
-188 -478 454 658 0
133 -304 -235 659 0
270 204 -463 660 0
175 266 240 661 0
-11 446 118 662 0
8 95 350 663 0
-361 -206 478 664 0
-414 -102 -371 665 0
83 444 292 666 0
67 -451 -63 667 0
3 -257 -439 668 0
-350 -2 -233 669 0
170 -314 -427 670 0
161 375 -62 671 0
130 -489 -4 672 0
-137 374 -389 673 0
-409 54 -4 674 0
-42 469 454 675 0
423 -487 -388 676 0
43 -380 281 677 0
-171 389 147 678 0
352 -492 159 679 0
-313 77 -410 680 0
226 -121 355 681 0
-376 -213 -471 682 0
-5 -306 500 683 0
433 398 45 684 0
183 281 354 685 0
17 45 -394 686 0
-206 140 -102 687 0
-62 45 84 688 0
244 -170 -497 689 0
-118 86 -276 690 0
71 491 173 691 0
-308 486 -128 692 0
-107 349 -174 693 0
131 496 419 694 0
404 -307 -105 695 0
225 -193 103 696 0
13 155 -300 697 0
-475 -450 259 698 0
-215 204 252 699 0
44 -496 -455 700 0
-418 -443 29 701 0
-394 -382 121 702 0
-260 -204 -183 703 0
476 -70 87 704 0
497 -130 156 705 0
-28 -127 -432 706 0
367 40 120 707 0
-83 -316 225 708 0
86 9 -402 709 0
56 159 -131 710 0
327 50 -160 711 0
391 371 -56 712 0
124 380 327 713 0
149 361 -413 714 0
395 -476 -378 715 0
95 308 355 716 0
201 489 283 717 0
259 -100 296 718 0
273 90 413 719 0
371 471 364 720 0
380 487 468 721 0
-461 -34 127 722 0
-153 138 -325 723 0
470 353 337 724 0
-171 -490 107 725 0
-471 191 459 726 0
-222 -348 493 727 0
458 283 -16 728 0
48 77 180 729 0
-474 403 225 730 0
126 -446 -458 731 0
-358 470 460 732 0
114 35 473 733 0
-6 464 -207 734 0
-97 63 434 735 0
300 -154 63 736 0
-39 -432 308 737 0
496 -167 458 738 0
116 415 -430 739 0
-166 -12 406 740 0
202 -454 -347 741 0
-159 427 -64 742 0
-19 -52 -240 743 0
-181 -412 -219 744 0
-165 208 43 745 0
-62 -330 -454 746 0
367 182 17 747 0
-283 431 -428 748 0
-324 59 70 749 0
301 220 -69 750 0
-4 -196 -337 751 0
-256 338 468 752 0
-345 124 459 753 0
191 -63 35 754 0
28 146 71 755 0
-474 -26 65 756 0
-401 -417 -466 757 0
-322 127 -58 758 0
-432 -163 -339 759 0
388 440 208 760 0
118 -201 -124 761 0
231 -245 394 762 0
-403 342 260 763 0
15 -81 -490 764 0
433 312 -103 765 0
490 -31 -254 766 0
-189 192 -289 767 0
19 -348 326 768 0
236 -252 -45 769 0
323 90 222 770 0
45 -205 20 771 0
293 268 465 772 0
263 -489 64 773 0
-125 263 -400 774 0
-332 -373 155 775 0
-394 -9 -337 776 0
-61 288 -97 777 0
-261 339 264 778 0
-230 -168 208 779 0
61 -313 11 780 0
-363 -280 -247 781 0
-211 -240 -7 782 0
-371 -184 -228 783 0
271 120 -270 784 0
263 213 -41 785 0
-317 -181 368 786 0
-250 -479 292 787 0
421 -69 -229 788 0
179 377 499 789 0
-494 63 -244 790 0
135 467 -297 791 0
45 -295 366 792 0
131 341 237 793 0
-214 -111 255 794 0
170 -156 12 795 0
309 96 -248 796 0
-434 374 87 797 0
-449 -466 -122 798 0
72 -290 -92 799 0
-314 -299 -47 800 0
-209 17 402 801 0
124 387 487 802 0
345 -91 327 803 0
21 6 59 804 0
170 415 -322 805 0
313 456 -358 806 0
-413 -396 195 807 0
18 124 -358 808 0
-325 15 -153 809 0
116 -51 223 810 0
-377 -152 382 811 0
217 -142 236 812 0
-150 -173 16 813 0
328 201 -147 814 0
130 -289 -315 815 0
-56 338 169 816 0
132 -226 -136 817 0
-137 139 -114 818 0
399 -329 -194 819 0
190 91 -345 820 0
-16 380 -19 821 0
-211 -79 -247 822 0
157 -483 363 823 0
-397 144 326 824 0
84 423 134 825 0
-26 -241 -456 826 0
-190 -301 326 827 0
499 87 73 828 0
234 326 243 829 0
410 480 -485 830 0
19 413 -239 831 0
215 -67 395 832 0
-93 -230 -441 833 0
-253 176 -205 834 0
-354 -215 81 835 0
20 -146 287 836 0
-137 206 -380 837 0
334 348 65 838 0
-326 440 -403 839 0
-76 -422 342 840 0
290 386 240 841 0
283 407 -49 842 0
192 255 24 843 0
242 -93 -211 844 0
108 -211 -26 845 0
-269 15 -483 846 0
187 210 -475 847 0
-477 257 -422 848 0
177 -189 273 849 0
-336 -470 222 850 0
269 -494 325 851 0
189 408 104 852 0
370 -392 -161 853 0
-343 311 -412 854 0
-228 149 -291 855 0
-45 198 -450 856 0
35 174 107 857 0
-141 -399 159 858 0
11 254 53 859 0
-191 30 37 860 0
257 -463 -473 861 0
109 -193 -462 862 0
-202 297 -4 863 0
-330 366 -348 864 0
283 129 -447 865 0
218 346 -437 866 0
-36 309 -269 867 0
275 -39 -457 868 0
285 282 -300 869 0
-378 -467 -320 870 0
-183 110 -40 871 0
-475 18 -125 872 0
130 349 -5 873 0
410 -129 -473 874 0
-430 20 135 875 0
-23 -465 -370 876 0
-425 -14 37 877 0
-412 355 85 878 0
408 128 478 879 0
323 -34 466 880 0
-102 399 190 881 0
331 -152 -390 882 0
-419 -399 108 883 0
106 187 -435 884 0
-63 -75 -163 885 0
265 -43 -224 886 0
311 -439 -333 887 0
135 -180 -133 888 0
354 -342 423 889 0
304 18 -372 890 0
88 296 435 891 0
-93 -107 358 892 0
-154 -474 70 893 0
227 -430 -62 894 0
31 136 53 895 0
302 -490 337 896 0
-498 133 167 897 0
421 -351 -125 898 0
46 498 -162 899 0
-303 181 -395 900 0
-362 489 30 901 0
-439 -343 493 902 0
-371 -398 -412 903 0
336 -123 224 904 0
114 -48 415 905 0
188 410 -447 906 0
194 159 -366 907 0
258 378 441 908 0
-70 191 -100 909 0
-330 37 -171 910 0
-239 462 -425 911 0
366 -197 -36 912 0
380 -336 -290 913 0
-151 126 -231 914 0
-56 4 92 915 0
148 272 -445 916 0
-82 130 136 917 0
-283 435 -336 918 0
-127 449 -77 919 0
452 -495 219 920 0
-8 -197 -278 921 0
292 453 78 922 0
-340 -371 -358 923 0
-358 -230 -43 924 0
-257 -205 3 925 0
45 384 236 926 0
-54 17 -98 927 0
-344 90 -6 928 0
-79 -13 -115 929 0
-434 215 285 930 0
107 -42 -451 931 0
-272 16 -128 932 0
-164 355 -208 933 0
275 -366 -72 934 0
-273 -208 -182 935 0
-334 -363 -495 936 0
331 -318 123 937 0
114 125 256 938 0
468 117 390 939 0
-425 243 -202 940 0
194 241 -149 941 0
28 430 -451 942 0
246 -37 262 943 0
350 -48 302 944 0
-482 -393 -100 945 0
-262 -151 27 946 0
36 -346 -162 947 0
-348 480 -132 948 0
28 -60 133 949 0
-230 98 38 950 0
-441 488 -374 951 0
-342 427 239 952 0
-295 31 -457 953 0
-469 -138 -128 954 0
-9 -439 172 955 0
-103 114 -108 956 0
-304 59 259 957 0
384 -295 165 958 0
-343 12 133 959 0
144 -290 -476 960 0
-143 -59 99 961 0
167 -190 274 962 0
-471 175 64 963 0
-89 352 -449 964 0
478 -238 -136 965 0
-499 -468 -72 966 0
184 450 372 967 0
-408 -39 471 968 0
485 65 50 969 0
-38 -22 -498 970 0
-352 414 -320 971 0
381 -407 176 972 0
242 351 -231 973 0
87 256 388 974 0
-411 -104 -176 975 0
-147 -430 410 976 0
-433 296 291 977 0
-320 -492 -395 978 0
-446 56 148 979 0
-80 452 432 980 0
241 -386 423 981 0
4 -123 182 982 0
369 19 -102 983 0
351 331 -479 984 0
13 191 307 985 0
-302 -428 26 986 0
-322 -123 63 987 0
177 317 -11 988 0
-497 281 -160 989 0
359 -436 -28 990 0
-47 -469 255 991 0
-338 379 296 992 0
419 -20 125 993 0
358 288 -203 994 0
-180 -456 -348 995 0
-109 13 406 996 0
272 360 324 997 0
78 122 277 998 0
349 -28 110 999 0
475 480 462 1000 0
-491 -235 -38 1001 0
-465 -433 130 1002 0
413 -371 -382 1003 0
-290 -279 -480 1004 0
-278 -27 -370 1005 0
7 136 -368 1006 0
107 423 -474 1007 0
-286 327 173 1008 0
-39 -449 -455 1009 0
225 78 -196 1010 0
-447 345 -72 1011 0
-92 199 459 1012 0
225 -143 288 1013 0
-235 17 -250 1014 0
467 88 210 1015 0
-83 -353 -129 1016 0
114 109 -364 1017 0
-431 -35 463 1018 0
-17 46 -353 1019 0
-158 -170 219 1020 0
-392 -219 -8 1021 0
99 -153 -66 1022 0
388 -430 -415 1023 0
-265 68 386 1024 0
-39 -395 -373 1025 0
-125 -250 -162 1026 0
472 6 -250 1027 0
-400 364 313 1028 0
219 413 257 1029 0
206 -151 -362 1030 0
-382 162 -394 1031 0
319 189 -89 1032 0
77 163 391 1033 0
104 370 -327 1034 0
156 347 31 1035 0
287 109 -433 1036 0
-10 -42 427 1037 0
-164 -361 -226 1038 0
-224 -139 280 1039 0
-116 449 -334 1040 0
-49 180 -499 1041 0
-479 -440 332 1042 0
-469 380 22 1043 0
-409 356 -424 1044 0
403 -32 325 1045 0
476 -424 -64 1046 0
-267 -316 -124 1047 0
194 -262 -157 1048 0
437 -101 254 1049 0
-16 95 79 1050 0
-242 288 -298 1051 0
262 -339 211 1052 0
285 -376 85 1053 0
-12 -354 326 1054 0
-261 -227 -449 1055 0
-126 422 -90 1056 0
-105 429 -176 1057 0
-13 183 75 1058 0
60 -313 192 1059 0
128 413 -448 1060 0
379 -286 393 1061 0
-59 54 372 1062 0
212 159 -343 1063 0
-255 -299 -145 1064 0
292 -33 -312 1065 0
-430 436 222 1066 0
329 360 -361 1067 0
220 59 23 1068 0
-351 430 72 1069 0
-82 200 -74 1070 0
224 -203 -267 1071 0
-283 -479 -68 1072 0
179 -161 211 1073 0
173 120 -456 1074 0
260 100 29 1075 0
366 -100 351 1076 0
-298 -395 454 1077 0
425 97 -127 1078 0
-118 65 78 1079 0
381 378 -383 1080 0
-70 -115 385 1081 0
99 251 328 1082 0
48 436 -444 1083 0
-356 451 154 1084 0
200 -100 149 1085 0
-154 304 406 1086 0
-115 233 168 1087 0
281 154 75 1088 0
325 -153 422 1089 0
-334 -187 -149 1090 0
-153 -33 -208 1091 0
445 390 370 1092 0
-145 -152 -216 1093 0
76 426 -267 1094 0
193 443 -190 1095 0
294 1 -388 1096 0
432 -425 267 1097 0
-470 -106 -137 1098 0
109 397 -371 1099 0
300 -135 289 1100 0
199 171 18 1101 0
-261 -356 351 1102 0
-345 278 131 1103 0
428 21 -256 1104 0
-149 -253 -499 1105 0
123 -260 -264 1106 0
24 -119 -3 1107 0
-486 -243 186 1108 0
-324 -50 -27 1109 0
302 376 -277 1110 0
242 -26 -253 1111 0
-404 -389 263 1112 0
-22 70 404 1113 0
-283 -70 -310 1114 0
256 446 475 1115 0
-3 11 -22 1116 0
-328 -92 -39 1117 0
-313 426 480 1118 0
490 -66 -404 1119 0
102 142 -164 1120 0
-334 -140 127 1121 0
-435 -354 87 1122 0
-141 488 -277 1123 0
-326 -140 159 1124 0
-312 -300 95 1125 0
-195 -497 485 1126 0
421 344 -281 1127 0
-143 -434 381 1128 0
434 -181 442 1129 0
140 -495 -54 1130 0
407 372 138 1131 0
474 240 -381 1132 0
-162 212 5 1133 0
-319 420 160 1134 0
-341 -262 465 1135 0
-274 -145 470 1136 0
-306 82 25 1137 0
313 473 -488 1138 0
426 51 447 1139 0
-259 -98 -126 1140 0
-119 -23 49 1141 0
-305 261 277 1142 0
42 254 450 1143 0
12 2 461 1144 0
-213 -328 403 1145 0
275 20 497 1146 0
-420 444 -385 1147 0
-357 -342 -113 1148 0
169 -30 -73 1149 0
265 211 491 1150 0
22 358 57 1151 0
483 162 -163 1152 0
-177 259 -146 1153 0
146 -14 -190 1154 0
393 264 311 1155 0
-398 474 -388 1156 0
382 364 -265 1157 0
-279 -97 236 1158 0
208 -192 -416 1159 0
-376 -128 395 1160 0
368 -421 395 1161 0
87 487 126 1162 0
291 -406 331 1163 0
450 -356 234 1164 0
-278 156 298 1165 0
-104 28 132 1166 0
414 156 11 1167 0
480 300 490 1168 0
-355 164 3 1169 0
423 -415 65 1170 0
264 -297 345 1171 0
472 -383 290 1172 0
-354 412 -485 1173 0
316 444 -343 1174 0
-323 167 360 1175 0
17 334 -87 1176 0
-1 401 -50 1177 0
287 -22 465 1178 0
116 134 -242 1179 0
118 316 429 1180 0
-363 -437 -66 1181 0
442 -353 -16 1182 0
340 328 -322 1183 0
-445 164 -399 1184 0
-435 107 280 1185 0
-80 -17 -90 1186 0
-277 9 -138 1187 0
127 243 -87 1188 0
488 325 -70 1189 0
20 90 -450 1190 0
96 69 20 1191 0
-53 362 425 1192 0
351 134 -397 1193 0
-394 -350 -487 1194 0
372 -22 -61 1195 0
490 111 335 1196 0
-193 -491 26 1197 0
304 -27 -278 1198 0
-228 221 447 1199 0
-258 93 -316 1200 0
121 87 -366 1201 0
233 -86 -58 1202 0
-347 -19 284 1203 0
-408 357 -319 1204 0
477 -52 422 1205 0
11 120 449 1206 0
-495 439 -105 1207 0
154 382 23 1208 0
-325 -249 -357 1209 0
-27 469 281 1210 0
-169 -359 87 1211 0
-444 -245 -330 1212 0
177 293 -377 1213 0
-343 -171 488 1214 0
363 23 -171 1215 0
-145 363 485 1216 0
-497 421 -214 1217 0
115 59 190 1218 0
-254 -177 -60 1219 0
69 -343 -2 1220 0
-500 -489 215 1221 0
427 -123 -78 1222 0
-43 -92 -263 1223 0
272 21 398 1224 0
131 83 280 1225 0
-435 332 -84 1226 0
160 -202 -222 1227 0
-225 427 -274 1228 0
120 69 -264 1229 0
-24 -204 -275 1230 0
318 260 53 1231 0
-464 71 -217 1232 0
154 254 -465 1233 0
133 38 267 1234 0
313 -454 91 1235 0
204 140 337 1236 0
-282 239 7 1237 0
415 -469 -246 1238 0
-252 -340 -109 1239 0
220 -278 -12 1240 0
4 63 187 1241 0
-360 449 131 1242 0
-331 -459 -113 1243 0
47 -223 -337 1244 0
-375 294 -350 1245 0
100 -80 128 1246 0
145 -336 130 1247 0
111 353 -156 1248 0
-316 -481 409 1249 0
-493 -253 -274 1250 0
298 473 282 1251 0
127 -69 -223 1252 0
492 -245 -423 1253 0
346 -20 -299 1254 0
2 55 72 1255 0
256 324 -170 1256 0
253 -441 -393 1257 0
121 129 353 1258 0
-288 -47 172 1259 0
95 -209 272 1260 0
42 119 -351 1261 0
131 348 -323 1262 0
163 451 169 1263 0
440 -472 -319 1264 0
-4 447 -410 1265 0
-324 -207 -242 1266 0
367 -33 199 1267 0
198 -115 -495 1268 0
94 262 -82 1269 0
-484 254 -235 1270 0
137 -1 -207 1271 0
466 -402 224 1272 0
205 -12 -220 1273 0
-71 38 340 1274 0
-63 483 -445 1275 0
-84 326 -72 1276 0
135 380 -138 1277 0
-194 334 374 1278 0
-322 188 186 1279 0
398 473 -35 1280 0
-17 272 -51 1281 0
-136 -187 -351 1282 0
-332 156 -230 1283 0
-141 132 -452 1284 0
-124 -297 493 1285 0
360 -331 -168 1286 0
102 -85 -184 1287 0
-405 151 -167 1288 0
301 -79 179 1289 0
379 164 194 1290 0
-198 26 277 1291 0
295 -453 -454 1292 0
-32 -140 -243 1293 0
-316 44 -381 1294 0
419 -232 122 1295 0
334 -103 348 1296 0
-275 -102 -11 1297 0
338 -3 50 1298 0
107 -202 -16 1299 0
-342 139 -343 1300 0
-48 6 60 1301 0
-483 -418 492 1302 0
-406 -109 -497 1303 0
-191 406 -146 1304 0
266 -36 187 1305 0
-14 46 162 1306 0
386 77 -365 1307 0
490 254 226 1308 0
124 -97 -383 1309 0
105 -24 -288 1310 0
13 -471 -308 1311 0
-487 420 -244 1312 0
-22 -334 -35 1313 0
-431 222 38 1314 0
237 128 14 1315 0
-366 -6 81 1316 0
-229 218 -467 1317 0
354 319 341 1318 0
86 434 237 1319 0
-422 91 -128 1320 0
112 433 58 1321 0
-81 69 273 1322 0
-319 -497 -441 1323 0
347 168 -67 1324 0
-144 -33 448 1325 0
-233 487 159 1326 0
443 -167 130 1327 0
79 -318 -45 1328 0
-434 307 6 1329 0
-251 44 345 1330 0
146 258 -223 1331 0
37 473 208 1332 0
382 10 -38 1333 0
-173 349 -310 1334 0
-206 -365 213 1335 0
388 -34 -286 1336 0
102 73 214 1337 0
-167 457 97 1338 0
-316 -363 -440 1339 0
-322 294 357 1340 0
-40 408 459 1341 0
378 -233 -20 1342 0
-231 -298 -105 1343 0
237 179 -260 1344 0
180 -45 -225 1345 0
-11 1 257 1346 0
391 -265 -236 1347 0
5 310 156 1348 0
228 335 100 1349 0
-409 472 -157 1350 0
-241 426 177 1351 0
-463 -238 336 1352 0
129 370 -334 1353 0
-156 170 -484 1354 0
386 217 90 1355 0
-219 196 470 1356 0
376 393 476 1357 0
-433 219 91 1358 0
-202 261 8 1359 0
125 44 330 1360 0
99 -122 -433 1361 0
94 332 -494 1362 0
193 -156 -351 1363 0
300 -299 484 1364 0
-5 432 -179 1365 0
-58 464 -336 1366 0
376 -84 -179 1367 0
-335 67 250 1368 0
60 -350 -2 1369 0
-353 -32 144 1370 0
423 -479 -80 1371 0
258 -82 377 1372 0
386 -353 443 1373 0
-154 195 163 1374 0
221 -337 -472 1375 0
-328 -368 375 1376 0
34 -117 161 1377 0
91 310 163 1378 0
69 -221 184 1379 0
152 485 -57 1380 0
-352 -388 -362 1381 0
17 82 -225 1382 0
-188 -366 162 1383 0
83 98 -408 1384 0
256 -448 428 1385 0
274 127 291 1386 0
-244 -339 -105 1387 0
-327 8 110 1388 0
463 208 -269 1389 0
-200 -415 34 1390 0
32 -46 151 1391 0
-303 -52 41 1392 0
-15 -256 142 1393 0
80 465 -146 1394 0
-37 -80 178 1395 0
124 -471 230 1396 0
-160 213 405 1397 0
-89 372 214 1398 0
-12 42 -97 1399 0
446 -295 326 1400 0
280 62 -139 1401 0
-171 229 -450 1402 0
-48 476 344 1403 0
310 202 30 1404 0
-250 -491 -285 1405 0
-295 1 331 1406 0
221 -202 272 1407 0
239 -274 461 1408 0
318 247 4 1409 0
490 347 100 1410 0
49 89 424 1411 0
319 -417 279 1412 0
425 216 38 1413 0
-10 49 174 1414 0
476 -6 312 1415 0
-293 -325 242 1416 0
190 -60 -67 1417 0
462 -448 -217 1418 0
164 -341 295 1419 0
459 150 193 1420 0
-61 -159 -436 1421 0
382 415 390 1422 0
-483 -71 -161 1423 0
-493 -417 -14 1424 0
-431 -465 -497 1425 0
351 -431 -175 1426 0
-225 297 115 1427 0
499 -269 -129 1428 0
452 9 481 1429 0
-74 17 52 1430 0
287 381 -295 1431 0
243 21 -202 1432 0
-79 -466 -147 1433 0
-336 -258 -57 1434 0
-66 367 -116 1435 0
-258 470 50 1436 0
244 -154 -311 1437 0
-412 -45 56 1438 0
-133 -241 430 1439 0
24 379 215 1440 0
-474 -313 -362 1441 0
342 -119 12 1442 0
-180 -372 -352 1443 0
240 332 299 1444 0
-460 359 -125 1445 0
-162 292 10 1446 0
49 152 -71 1447 0
458 488 208 1448 0
-425 -391 -30 1449 0
-207 482 154 1450 0
-126 -236 386 1451 0
-452 132 -390 1452 0
-78 -14 96 1453 0
-456 411 -343 1454 0
210 -269 -94 1455 0
105 213 -365 1456 0
34 -328 231 1457 0
-470 460 -133 1458 0
-96 -175 163 1459 0
3 59 -177 1460 0
386 -196 246 1461 0
-239 -283 -151 1462 0
110 162 -352 1463 0
50 242 76 1464 0
451 49 -372 1465 0
231 -105 325 1466 0
-396 38 208 1467 0
-459 -1 110 1468 0
-269 -149 220 1469 0
-442 -7 401 1470 0
130 -189 -448 1471 0
353 -17 -441 1472 0
134 62 375 1473 0
458 -121 493 1474 0
93 251 -370 1475 0
374 -404 420 1476 0
-475 448 -293 1477 0
-309 -345 464 1478 0
-102 -355 27 1479 0
78 119 -138 1480 0
70 -36 120 1481 0
293 -155 420 1482 0
47 165 437 1483 0
-480 -289 135 1484 0
-480 -34 278 1485 0
-475 -477 -305 1486 0
451 -339 76 1487 0
-360 98 -354 1488 0
-32 141 -269 1489 0
484 407 -127 1490 0
39 -457 116 1491 0
335 -331 -237 1492 0
-443 352 -279 1493 0
-237 -143 398 1494 0
229 -147 -352 1495 0
-450 186 163 1496 0
-420 -35 -212 1497 0
9 -500 49 1498 0
-212 -179 -19 1499 0
-31 -44 474 1500 0
73 155 187 1501 0
-291 -469 -146 1502 0
82 -127 252 1503 0
106 434 -486 1504 0
-201 232 -360 1505 0
-296 -423 -478 1506 0
-89 -394 108 1507 0
76 144 -23 1508 0
124 8 -121 1509 0
404 168 -46 1510 0
341 -344 -332 1511 0
-263 -446 120 1512 0
18 -427 -59 1513 0
140 319 -413 1514 0
219 490 -378 1515 0
5 -295 148 1516 0
-337 55 -498 1517 0
-211 -248 135 1518 0
-304 -444 262 1519 0
126 178 -354 1520 0
-284 -172 133 1521 0
347 -279 479 1522 0
-393 380 130 1523 0
-96 347 173 1524 0
-424 -316 -106 1525 0
250 -224 137 1526 0
-491 -63 187 1527 0
-231 284 -471 1528 0
271 -393 -330 1529 0
-146 -446 -440 1530 0
210 -292 250 1531 0
423 -145 119 1532 0
-282 494 346 1533 0
219 314 -450 1534 0
-387 343 -222 1535 0
171 -125 413 1536 0
377 -72 -347 1537 0
374 -244 210 1538 0
158 -391 494 1539 0
80 145 -68 1540 0
-481 194 295 1541 0
-77 175 -117 1542 0
378 -238 -235 1543 0
280 198 -343 1544 0
498 -223 -486 1545 0
40 -390 381 1546 0
-219 72 -141 1547 0
98 -402 -407 1548 0
-99 65 -306 1549 0
298 -301 -25 1550 0
39 262 434 1551 0
-7 -433 -103 1552 0
26 -123 -192 1553 0
-320 -412 364 1554 0
-165 402 424 1555 0
-483 -80 480 1556 0
-49 412 201 1557 0
-479 104 -173 1558 0
-438 -404 -445 1559 0
-385 200 337 1560 0
214 85 -267 1561 0
-240 -214 -337 1562 0
-210 320 427 1563 0
356 59 250 1564 0
-342 -281 -87 1565 0
-230 126 54 1566 0
-201 -229 181 1567 0
41 -144 -109 1568 0
-304 -378 -29 1569 0
175 108 387 1570 0
363 91 -169 1571 0
-161 -248 -417 1572 0
-468 -328 453 1573 0
437 -365 -122 1574 0
134 -353 344 1575 0
102 -278 251 1576 0
-110 -315 390 1577 0
-335 -206 211 1578 0
-476 372 379 1579 0
56 493 -151 1580 0
173 102 249 1581 0
-146 -220 -475 1582 0
-35 -39 374 1583 0
448 -161 -317 1584 0
-70 311 -465 1585 0
8 318 -98 1586 0
220 -373 -89 1587 0
-241 -102 263 1588 0
461 -269 -126 1589 0
-185 -143 37 1590 0
350 -17 -140 1591 0
79 -8 239 1592 0
-9 -389 -211 1593 0
-354 412 401 1594 0
443 305 -20 1595 0
-26 178 -351 1596 0
-26 272 291 1597 0
455 -160 -161 1598 0
-182 -306 -247 1599 0
108 144 -128 1600 0
-500 477 281 1601 0
-36 269 -469 1602 0
-12 196 -286 1603 0
-57 -500 122 1604 0
-489 -284 342 1605 0
-294 -211 259 1606 0
-155 -438 -105 1607 0
85 442 -419 1608 0
-425 -442 90 1609 0
-181 -108 381 1610 0
-470 -467 227 1611 0
-470 -120 110 1612 0
271 312 322 1613 0
-166 347 31 1614 0
274 -162 226 1615 0
-309 -482 -86 1616 0
389 -47 97 1617 0
349 334 499 1618 0
-258 -395 -407 1619 0
-5 51 -199 1620 0
-11 233 -396 1621 0
-471 -62 -6 1622 0
208 146 372 1623 0
-72 70 -195 1624 0
-203 -180 -135 1625 0
284 -471 -9 1626 0
288 34 184 1627 0
431 382 16 1628 0
247 290 179 1629 0
326 -251 -310 1630 0
173 49 -158 1631 0
478 -304 50 1632 0
407 113 -159 1633 0
331 -329 -232 1634 0
465 47 492 1635 0
407 -195 -107 1636 0
380 -190 -247 1637 0
86 355 -371 1638 0
131 -356 475 1639 0
-416 -171 169 1640 0
16 441 362 1641 0
-477 -288 -482 1642 0
-348 389 -408 1643 0
468 -371 -236 1644 0
-28 364 -7 1645 0
-154 -10 -404 1646 0
171 212 124 1647 0
371 296 -21 1648 0
-196 316 221 1649 0
99 -368 -227 1650 0
194 -441 -359 1651 0
448 -335 -162 1652 0
444 -25 -228 1653 0
269 -316 -119 1654 0
-168 -60 205 1655 0
469 -387 287 1656 0
-317 -326 -230 1657 0
-469 430 -497 1658 0
478 -207 -435 1659 0
-201 -231 102 1660 0
480 -388 -162 1661 0
-193 -345 270 1662 0
-263 129 276 1663 0
-353 202 92 1664 0
271 -304 -163 1665 0
-430 61 -431 1666 0
-152 -321 -470 1667 0
495 -145 264 1668 0
-454 189 110 1669 0
478 118 -165 1670 0
442 -339 -459 1671 0
52 308 -282 1672 0
-278 -5 -189 1673 0
41 400 -197 1674 0
-491 -73 -370 1675 0
267 -21 -346 1676 0
292 -254 -100 1677 0
437 -253 243 1678 0
-402 370 -441 1679 0
-40 307 -29 1680 0
162 389 -154 1681 0
-299 147 204 1682 0
-169 86 74 1683 0
479 1 6 1684 0
68 -128 -443 1685 0
-206 -188 37 1686 0
443 290 -128 1687 0
478 -271 -75 1688 0
372 472 -222 1689 0
-59 352 -436 1690 0
-220 191 -103 1691 0
245 307 -201 1692 0
161 -30 -182 1693 0
316 -281 476 1694 0
479 -160 39 1695 0
397 -202 51 1696 0
-297 230 -334 1697 0
-442 -72 -497 1698 0
91 85 369 1699 0
-135 49 145 1700 0
-134 78 -350 1701 0
71 295 392 1702 0
313 336 -56 1703 0
363 40 -336 1704 0
138 269 -221 1705 0
-478 -407 -468 1706 0
306 -198 416 1707 0
-298 49 -364 1708 0
333 -132 -211 1709 0
-217 92 286 1710 0
428 104 -174 1711 0
371 -216 144 1712 0
-22 309 -303 1713 0
160 -428 -164 1714 0
-12 156 35 1715 0
340 492 -278 1716 0
469 376 395 1717 0
-185 -306 410 1718 0
-355 298 -44 1719 0
-57 362 288 1720 0
61 148 82 1721 0
-128 190 137 1722 0
-328 -2 73 1723 0
-326 71 -300 1724 0
10 28 -141 1725 0
-26 -224 318 1726 0
297 343 -240 1727 0
440 -63 -277 1728 0
-485 114 133 1729 0
46 47 422 1730 0
33 395 225 1731 0
128 -271 -407 1732 0
496 -185 -382 1733 0
97 63 -38 1734 0
186 -239 197 1735 0
19 -261 218 1736 0
-186 -134 -108 1737 0
-225 -442 387 1738 0
-489 -416 -29 1739 0
188 -139 -348 1740 0
-390 -227 264 1741 0
-144 51 40 1742 0
-447 -56 122 1743 0
494 59 145 1744 0
403 125 426 1745 0
480 149 183 1746 0
-164 491 19 1747 0
-307 -160 -66 1748 0
-404 -92 74 1749 0
27 -378 234 1750 0
174 69 220 1751 0
-163 46 153 1752 0
441 148 -468 1753 0
-177 119 -152 1754 0
248 -280 -107 1755 0
409 199 307 1756 0
43 191 213 1757 0
215 263 163 1758 0
-278 221 -163 1759 0
98 -67 8 1760 0
-91 -329 172 1761 0
123 186 -412 1762 0
-37 -303 4 1763 0
177 -344 98 1764 0
-76 -167 -397 1765 0
479 237 -186 1766 0
246 167 -156 1767 0
138 198 12 1768 0
387 -88 89 1769 0
63 -85 -298 1770 0
-365 127 439 1771 0
73 -353 -347 1772 0
219 -196 -366 1773 0
-218 -209 -270 1774 0
-359 216 -362 1775 0
-437 466 401 1776 0
-495 413 -372 1777 0
28 215 -219 1778 0
-455 -85 31 1779 0
131 -25 416 1780 0
359 309 -292 1781 0
125 7 281 1782 0
-375 135 -399 1783 0
-228 49 -103 1784 0
-222 55 60 1785 0
12 473 315 1786 0
16 500 265 1787 0
183 -204 476 1788 0
291 223 184 1789 0
-343 394 -121 1790 0
-197 -150 262 1791 0
451 81 437 1792 0
222 -85 -446 1793 0
198 125 318 1794 0
-170 -222 492 1795 0
144 -179 21 1796 0
465 -226 420 1797 0
120 267 491 1798 0
-365 -109 466 1799 0
-370 281 107 1800 0
-332 336 -164 1801 0
118 -269 -219 1802 0
-445 298 -482 1803 0
-252 463 -141 1804 0
486 206 245 1805 0
-86 437 387 1806 0
-417 116 115 1807 0
-318 -132 -344 1808 0
-169 -386 -296 1809 0
-322 389 388 1810 0
-388 -137 -276 1811 0
-285 397 -89 1812 0
300 477 -119 1813 0
301 -435 -67 1814 0
-291 280 117 1815 0
33 372 -219 1816 0
144 -124 285 1817 0
157 -34 -305 1818 0
425 470 -314 1819 0
233 -447 310 1820 0
-254 -270 434 1821 0
211 246 -194 1822 0
-29 499 -276 1823 0
-152 -130 -274 1824 0
-33 241 192 1825 0
-372 237 198 1826 0
122 205 19 1827 0
-499 -344 -249 1828 0
60 -378 -499 1829 0
-147 385 -95 1830 0
-249 -196 -133 1831 0
-446 309 391 1832 0
-79 -14 -305 1833 0
329 274 15 1834 0
-129 -136 -310 1835 0
204 -189 349 1836 0
339 -444 116 1837 0
129 -303 13 1838 0
244 344 163 1839 0
404 -54 457 1840 0
456 304 -43 1841 0
456 330 -333 1842 0
53 -96 309 1843 0
17 83 -323 1844 0
-12 104 27 1845 0
-78 -121 -484 1846 0
369 -125 -340 1847 0
81 -342 -318 1848 0
145 -300 432 1849 0
-236 351 -281 1850 0
244 -157 357 1851 0
288 -140 -54 1852 0
182 177 -205 1853 0
444 -266 106 1854 0
219 -227 -457 1855 0
-423 -211 -410 1856 0
-95 -141 390 1857 0
378 -451 -61 1858 0
-130 -193 171 1859 0
38 46 175 1860 0
343 225 482 1861 0
-84 -20 -481 1862 0
497 -461 -469 1863 0
462 -407 -310 1864 0
-344 239 350 1865 0
4 223 117 1866 0
224 -149 -442 1867 0
-338 485 433 1868 0
-259 468 24 1869 0
-21 -68 -71 1870 0
-279 57 -281 1871 0
288 263 55 1872 0
-495 319 367 1873 0
341 69 -441 1874 0
293 436 -438 1875 0
-263 -387 423 1876 0
4 223 66 1877 0
469 375 6 1878 0
233 -474 488 1879 0
246 -3 241 1880 0
442 3 -440 1881 0
-143 142 242 1882 0
-313 -122 -456 1883 0
105 -308 267 1884 0
-277 399 -330 1885 0
105 89 434 1886 0
-368 -164 405 1887 0
418 -328 236 1888 0
-102 412 -343 1889 0
291 -286 478 1890 0
-91 -64 -268 1891 0
129 -211 -419 1892 0
-6 -213 -325 1893 0
34 359 222 1894 0
246 160 425 1895 0
-444 346 121 1896 0
343 -132 -339 1897 0
-264 -125 148 1898 0
373 -175 289 1899 0
190 376 -44 1900 0
246 386 358 1901 0
250 36 -342 1902 0
299 -427 464 1903 0
-425 278 -388 1904 0
397 269 -214 1905 0
177 401 271 1906 0
-142 -451 458 1907 0
237 269 170 1908 0
301 207 477 1909 0
236 493 -162 1910 0
-4 -422 -424 1911 0
383 234 -292 1912 0
-457 470 -379 1913 0
500 -288 -377 1914 0
-144 116 82 1915 0
411 335 53 1916 0
197 -367 488 1917 0
154 326 -487 1918 0
-344 380 -437 1919 0
130 434 -470 1920 0
478 33 -21 1921 0
285 -3 493 1922 0
354 -405 -216 1923 0
64 87 -139 1924 0
-56 -308 242 1925 0
-174 189 -46 1926 0
-58 230 -478 1927 0
-365 222 -258 1928 0
-450 -489 -74 1929 0
104 391 -335 1930 0
-398 80 -467 1931 0
333 325 -195 1932 0
39 -123 -332 1933 0
237 -111 12 1934 0
112 -39 136 1935 0
-189 -490 -278 1936 0
305 -240 -23 1937 0
-228 445 -128 1938 0
-117 -300 -343 1939 0
453 170 228 1940 0
192 -476 229 1941 0
-301 -475 5 1942 0
258 423 -191 1943 0
-59 -408 -442 1944 0
298 322 442 1945 0
160 -421 442 1946 0
-357 263 430 1947 0
-338 356 49 1948 0
-257 294 -218 1949 0
-154 -382 391 1950 0
-191 -444 -417 1951 0
274 228 175 1952 0
-399 384 -204 1953 0
87 -460 129 1954 0
69 378 145 1955 0
-120 423 127 1956 0
198 301 -298 1957 0
-361 292 -26 1958 0
-298 -87 76 1959 0
326 -66 199 1960 0
64 135 -185 1961 0
378 314 339 1962 0
-100 -339 -228 1963 0
395 247 273 1964 0
445 329 484 1965 0
84 311 -238 1966 0
51 438 -389 1967 0
-153 334 -345 1968 0
-427 29 287 1969 0
-431 26 284 1970 0
343 -469 -362 1971 0
-51 -44 272 1972 0
-74 408 330 1973 0
272 132 474 1974 0
-430 -160 -91 1975 0
476 -81 199 1976 0
429 -324 413 1977 0
84 371 -113 1978 0
-214 -312 -319 1979 0
-440 132 166 1980 0
-283 -264 473 1981 0
-414 202 479 1982 0
-138 118 -208 1983 0
-199 140 168 1984 0
-301 251 -63 1985 0
-217 -306 224 1986 0
258 -233 210 1987 0
65 -117 -82 1988 0
431 -230 282 1989 0
-54 347 38 1990 0
-278 33 70 1991 0
-358 -499 -346 1992 0
-443 -281 125 1993 0
-423 474 214 1994 0
-361 477 -381 1995 0
-51 434 9 1996 0
393 184 -300 1997 0
-71 -342 -300 1998 0
-283 253 -246 1999 0
-467 -200 481 2000 0
227 294 5 2001 0
-151 -346 -76 2002 0
-317 -302 45 2003 0
288 224 -5 2004 0
-94 1 393 2005 0
-329 335 -67 2006 0
-491 331 278 2007 0
-266 262 129 2008 0
11 -126 -355 2009 0
216 183 5 2010 0
235 478 113 2011 0
-315 9 50 2012 0
424 365 225 2013 0
388 280 327 2014 0
95 471 272 2015 0
36 -42 -447 2016 0
95 90 55 2017 0
208 146 -468 2018 0
77 -139 212 2019 0
251 322 -305 2020 0
108 -226 259 2021 0
445 164 -172 2022 0
184 68 -497 2023 0
347 -443 126 2024 0
101 -93 70 2025 0
22 385 76 2026 0
-442 -158 -95 2027 0
-56 -218 -417 2028 0
-226 -327 -409 2029 0
443 -160 -269 2030 0
282 -393 -60 2031 0
341 216 -255 2032 0
-75 -128 -223 2033 0
-165 156 82 2034 0
406 -117 418 2035 0
-41 66 -217 2036 0
291 -458 -100 2037 0
373 -313 -68 2038 0
146 -11 -160 2039 0
271 315 -492 2040 0
417 316 283 2041 0
314 321 45 2042 0
196 258 -117 2043 0
54 318 76 2044 0
1 -266 -15 2045 0
-147 -349 -365 2046 0
-495 -157 177 2047 0
277 -285 -301 2048 0
458 323 -224 2049 0
-74 -327 -491 2050 0
-293 -280 -426 2051 0
-109 -148 -138 2052 0
404 242 -334 2053 0
-119 -240 -154 2054 0
190 149 -244 2055 0
126 -236 41 2056 0
-491 -467 411 2057 0
-339 -400 -420 2058 0
-447 -412 -150 2059 0
370 -447 318 2060 0
-51 8 -208 2061 0
-474 -150 363 2062 0
-210 311 -271 2063 0
-428 -439 195 2064 0
113 -465 -276 2065 0
-417 -473 199 2066 0
-436 -135 -109 2067 0
312 350 62 2068 0
343 -366 63 2069 0
-229 -177 -311 2070 0
85 -318 -259 2071 0
-79 -286 -66 2072 0
-443 22 407 2073 0
482 -277 -191 2074 0
-197 -414 149 2075 0
-176 -211 481 2076 0
-246 -414 -350 2077 0
-115 -18 -194 2078 0
-318 333 112 2079 0
391 -404 -131 2080 0
297 141 290 2081 0
-53 174 342 2082 0
363 440 -458 2083 0
-309 204 -361 2084 0
60 -402 341 2085 0
-312 54 352 2086 0
297 -467 96 2087 0
-401 -198 499 2088 0
-166 -55 271 2089 0
-77 29 -446 2090 0
60 106 253 2091 0
358 -179 -488 2092 0
305 87 37 2093 0
-172 -466 -198 2094 0
-146 251 60 2095 0
-105 84 -28 2096 0
126 -18 -66 2097 0
158 -483 -431 2098 0
-468 -414 -482 2099 0
407 -176 279 2100 0
411 -52 -427 2101 0
416 255 10 2102 0
-206 -298 -414 2103 0
273 -468 -437 2104 0
-101 426 -52 2105 0
456 -235 324 2106 0
-72 -136 212 2107 0
-205 71 232 2108 0
-315 -141 43 2109 0
464 -474 472 2110 0
138 170 -391 2111 0
-74 86 -89 2112 0
108 358 -338 2113 0
395 361 468 2114 0
-374 -56 -269 2115 0
72 354 -296 2116 0
151 -160 -152 2117 0
-60 250 477 2118 0
36 -260 -134 2119 0
111 207 -8 2120 0
407 -121 -339 2121 0
266 393 480 2122 0
162 -209 -200 2123 0
282 235 273 2124 0
50 -194 164 2125 0
355 266 384 2126 0
-210 -175 -137 2127 0
466 -44 305 2128 0
445 31 -183 2129 0
109 -197 -129 2130 0
-330 353 -18 2131 0
482 -486 -243 2132 0
-417 37 -229 2133 0
-223 62 336 2134 0
224 -237 -384 2135 0
-146 -336 -482 2136 0
-58 356 -285 2137 0
321 126 -138 2138 0
-93 433 268 2139 0
-440 239 366 2140 0
310 487 301 2141 0
-127 -99 224 2142 0
-283 119 -437 2143 0
-275 295 -32 2144 0
177 395 -220 2145 0
-29 237 326 2146 0
-2 458 -389 2147 0
-90 -77 -218 2148 0
108 261 303 2149 0
-146 -98 422 2150 0
298 -133 135 2151 0
-375 266 -449 2152 0
-68 468 34 2153 0
-444 -109 225 2154 0
244 -96 392 2155 0
72 221 496 2156 0
54 142 441 2157 0
-425 411 -239 2158 0
484 307 -432 2159 0
81 340 262 2160 0
496 -82 250 2161 0
391 445 -328 2162 0
-359 -50 -449 2163 0
-158 -338 -227 2164 0
-405 290 238 2165 0
-473 -4 318 2166 0
449 342 -383 2167 0
-349 -164 -80 2168 0
418 -469 -74 2169 0
10 171 108 2170 0
202 -80 291 2171 0
200 -175 -415 2172 0
-23 480 -417 2173 0
455 152 -423 2174 0
-400 -493 81 2175 0
-474 218 422 2176 0
150 -21 495 2177 0
116 184 -80 2178 0
400 32 189 2179 0
-52 -233 -439 2180 0
449 -212 -167 2181 0
-381 -441 -493 2182 0
193 -338 453 2183 0
-368 51 121 2184 0
-259 -109 61 2185 0
239 -489 238 2186 0
-284 215 -192 2187 0
-374 -155 16 2188 0
269 358 -410 2189 0
-91 -62 -323 2190 0
-231 82 -313 2191 0
-261 199 151 2192 0
363 -277 406 2193 0
-330 -33 238 2194 0
130 423 -437 2195 0
498 191 -421 2196 0
92 -81 -275 2197 0
-371 -458 313 2198 0
314 -495 310 2199 0
-330 -35 -450 2200 0
-222 307 -355 2201 0
411 -371 -99 2202 0
135 78 -288 2203 0
-377 -463 376 2204 0
300 387 316 2205 0
123 -291 -275 2206 0
387 282 -109 2207 0
44 -224 313 2208 0
138 -62 210 2209 0
-267 -391 132 2210 0
-7 391 -63 2211 0
-94 48 460 2212 0
248 412 42 2213 0
-403 -490 -189 2214 0
306 -341 -198 2215 0
-113 -143 453 2216 0
367 361 58 2217 0
185 318 416 2218 0
-437 -18 -35 2219 0
232 -217 -36 2220 0
-96 18 250 2221 0
-204 273 -453 2222 0
-93 255 -117 2223 0
-47 -330 256 2224 0
-101 -374 398 2225 0
368 -417 128 2226 0
-410 -274 -470 2227 0
-310 -123 -499 2228 0
232 -262 274 2229 0
-209 61 404 2230 0
424 425 -426 2231 0
96 -26 -416 2232 0
-20 354 -301 2233 0
-152 251 458 2234 0
40 -365 89 2235 0
-397 122 479 2236 0
-250 -136 147 2237 0
243 171 471 2238 0
-193 481 314 2239 0
-3 -297 45 2240 0
-489 -418 416 2241 0
-267 -54 253 2242 0
-211 419 -500 2243 0
96 -333 -310 2244 0
443 -368 -432 2245 0
-165 -39 274 2246 0
66 441 -22 2247 0
307 196 34 2248 0
3 -252 -31 2249 0
-58 377 -347 2250 0
322 -459 495 2251 0
-75 5 312 2252 0
398 -33 368 2253 0
155 448 -11 2254 0
256 -499 -434 2255 0
-305 -313 18 2256 0
222 286 33 2257 0
-336 -446 -38 2258 0
298 -398 -362 2259 0
151 380 -42 2260 0
369 -89 -320 2261 0
191 -242 -423 2262 0
371 -116 -8 2263 0
-372 112 91 2264 0
141 -446 -255 2265 0
388 -467 -145 2266 0
-42 -438 175 2267 0
-344 -170 -289 2268 0
217 491 56 2269 0
434 319 39 2270 0
-118 -34 278 2271 0
211 -173 -2 2272 0
-305 133 135 2273 0
-435 -212 434 2274 0
61 246 77 2275 0
398 319 -116 2276 0
-321 -36 -129 2277 0
183 490 -411 2278 0
352 346 -376 2279 0
295 -400 75 2280 0
-9 -139 -79 2281 0
164 236 -2 2282 0
498 -133 -16 2283 0
-140 -462 -128 2284 0
413 -283 4 2285 0
-379 480 88 2286 0
-147 -470 438 2287 0
-312 -462 65 2288 0
82 209 157 2289 0
-236 -486 -231 2290 0
172 335 460 2291 0
-299 -36 -124 2292 0
-493 -43 336 2293 0
-404 455 -371 2294 0
364 -20 -436 2295 0
-181 -243 197 2296 0
-228 336 340 2297 0
426 -353 -98 2298 0
58 -121 191 2299 0
237 270 -232 2300 0
-417 394 128 2301 0
34 167 -21 2302 0
-252 -441 212 2303 0
431 -73 34 2304 0
243 404 -104 2305 0
-494 -455 399 2306 0
259 -326 -189 2307 0
-303 192 -210 2308 0
-218 395 197 2309 0
182 181 -368 2310 0
-240 209 -184 2311 0
-104 -467 251 2312 0
-49 251 392 2313 0
-259 -180 186 2314 0
455 26 -211 2315 0
-492 -357 -228 2316 0
-469 -322 5 2317 0
-277 166 194 2318 0
-132 -176 232 2319 0
-308 -304 -164 2320 0
-329 303 249 2321 0
-408 184 155 2322 0
497 -126 -487 2323 0
-166 174 -189 2324 0
-173 -235 53 2325 0
176 -75 173 2326 0
65 -209 13 2327 0
-322 439 381 2328 0
211 -126 286 2329 0
-150 -201 -328 2330 0
-366 465 158 2331 0
366 198 -344 2332 0
119 -210 228 2333 0
-128 384 -371 2334 0
-215 -150 -88 2335 0
-366 10 354 2336 0
-408 -110 305 2337 0
-467 -444 -78 2338 0
-491 397 480 2339 0
-442 85 311 2340 0
-78 -130 -493 2341 0
92 374 95 2342 0
-66 259 -459 2343 0
222 376 302 2344 0
245 378 204 2345 0
-309 453 -141 2346 0
427 385 216 2347 0
467 -417 -443 2348 0
197 277 -226 2349 0
-486 200 479 2350 0
-293 300 -216 2351 0
28 148 -497 2352 0
-54 -30 117 2353 0
306 -457 -458 2354 0
338 184 262 2355 0
281 -326 -373 2356 0
315 -53 82 2357 0
46 259 -90 2358 0
322 459 367 2359 0
-388 -321 -181 2360 0
-358 485 207 2361 0
490 -400 -394 2362 0
-300 -467 71 2363 0
339 63 -239 2364 0
-439 -334 480 2365 0
464 -88 154 2366 0
-306 -165 -13 2367 0
281 311 -420 2368 0
292 343 -340 2369 0
-21 300 -96 2370 0
-283 -131 325 2371 0
149 138 500 2372 0
169 -80 431 2373 0
26 -157 202 2374 0
-439 -215 -225 2375 0
-50 473 -467 2376 0
474 -114 500 2377 0
363 -76 167 2378 0
232 63 -41 2379 0
188 -36 76 2380 0
-185 194 -21 2381 0
-112 393 -62 2382 0
98 413 -400 2383 0
373 -482 -74 2384 0
-494 308 307 2385 0
-98 -278 -251 2386 0
-160 -272 -271 2387 0
-40 299 -377 2388 0
22 253 -131 2389 0
-390 -418 336 2390 0
359 -496 -2 2391 0
452 -477 121 2392 0
-17 407 246 2393 0
-231 -101 154 2394 0
280 -93 -121 2395 0
-332 -66 419 2396 0
-301 -49 363 2397 0
448 28 -445 2398 0
314 279 -44 2399 0
305 121 -325 2400 0
72 -3 -137 2401 0
68 -143 -311 2402 0
346 -319 -328 2403 0
393 -332 -172 2404 0
13 332 -134 2405 0
-437 125 335 2406 0
-406 -491 460 2407 0
103 456 -343 2408 0
-5 -168 -327 2409 0
17 -364 285 2410 0
-312 -267 274 2411 0
102 174 -95 2412 0
-181 150 411 2413 0
-243 238 360 2414 0
112 218 -360 2415 0
365 -94 -454 2416 0
-102 447 -126 2417 0
-224 107 248 2418 0
-448 266 270 2419 0
247 -29 -255 2420 0
487 -430 -196 2421 0
487 103 446 2422 0
-500 39 425 2423 0
-88 34 -247 2424 0
241 -187 -50 2425 0
294 144 -482 2426 0
101 476 165 2427 0
263 -139 190 2428 0
117 -308 125 2429 0
-208 -244 441 2430 0
116 -196 -88 2431 0
497 -279 -129 2432 0
-80 407 429 2433 0
-73 432 488 2434 0
-151 -419 -187 2435 0
-40 -110 125 2436 0
-376 -227 196 2437 0
-154 25 -236 2438 0
-194 208 25 2439 0
113 95 -48 2440 0
-304 -32 -353 2441 0
-265 -156 208 2442 0
-399 103 483 2443 0
-481 44 90 2444 0
-251 466 284 2445 0
323 291 -247 2446 0
274 315 226 2447 0
-156 -93 162 2448 0
-200 -156 -105 2449 0
15 404 310 2450 0
477 -430 -101 2451 0
-366 250 143 2452 0
-385 44 -255 2453 0
-250 328 447 2454 0
224 -125 -302 2455 0
-184 271 436 2456 0
-493 -468 25 2457 0
-40 84 -351 2458 0
316 203 -355 2459 0
-103 -288 371 2460 0
-424 -47 117 2461 0
353 261 -3 2462 0
368 14 258 2463 0
-79 87 90 2464 0
-462 -14 494 2465 0
207 293 -420 2466 0
-354 -327 -348 2467 0
99 374 273 2468 0
-163 -14 -138 2469 0
27 81 300 2470 0
160 -217 24 2471 0
-279 -406 386 2472 0
-38 -222 -210 2473 0
-241 -198 -160 2474 0
-203 290 28 2475 0
313 -377 -273 2476 0
456 -272 277 2477 0
226 11 447 2478 0
40 278 326 2479 0
-94 160 -384 2480 0
240 29 -445 2481 0
-293 12 394 2482 0
409 153 -199 2483 0
-225 309 -256 2484 0
122 -445 489 2485 0
113 386 90 2486 0
150 -289 -323 2487 0
219 -392 94 2488 0
468 220 -307 2489 0
-279 269 -227 2490 0
69 302 411 2491 0
445 -428 -295 2492 0
401 -9 -35 2493 0
-311 -341 -310 2494 0
384 -52 -305 2495 0
-384 414 121 2496 0
-202 -334 -323 2497 0
-394 -342 -153 2498 0
363 163 94 2499 0
-486 -37 149 2500 0
-120 150 493 2501 0
393 13 -82 2502 0
190 -489 32 2503 0
-405 -419 423 2504 0
237 -400 299 2505 0
-476 -13 -470 2506 0
393 211 -150 2507 0
254 188 -279 2508 0
-224 326 154 2509 0
-216 -363 358 2510 0
-188 -227 -383 2511 0
253 -215 -485 2512 0
286 -193 372 2513 0
436 276 11 2514 0
181 -263 -137 2515 0
111 229 325 2516 0
284 -238 445 2517 0
424 -69 350 2518 0
243 -117 165 2519 0
245 32 215 2520 0
-279 182 -296 2521 0
-164 8 388 2522 0
82 5 341 2523 0
480 420 50 2524 0
301 -439 -134 2525 0
443 -52 -72 2526 0
-175 -233 294 2527 0
491 142 168 2528 0
320 376 43 2529 0
-428 -6 102 2530 0
131 240 122 2531 0
431 237 -30 2532 0
-348 228 499 2533 0
55 -115 -93 2534 0
79 -94 252 2535 0
319 318 -363 2536 0
-165 489 -169 2537 0
287 -15 45 2538 0
-357 464 243 2539 0
302 115 387 2540 0
316 77 117 2541 0
-372 2 151 2542 0
-130 97 345 2543 0
-139 483 445 2544 0
-413 16 -399 2545 0
-316 -105 -134 2546 0
-490 -232 -39 2547 0
-368 -114 421 2548 0
170 -266 478 2549 0
434 -54 329 2550 0
-45 -114 -275 2551 0
-266 35 23 2552 0
403 -112 -324 2553 0
50 -275 268 2554 0
481 489 -194 2555 0
422 -93 64 2556 0
206 253 139 2557 0
78 335 -243 2558 0
-142 -442 431 2559 0
382 332 -53 2560 0
-287 -119 -186 2561 0
-466 449 -57 2562 0
-109 -256 69 2563 0
-206 67 -395 2564 0
362 -489 317 2565 0
-406 -52 449 2566 0
-53 -391 -238 2567 0
241 132 -362 2568 0
190 464 -91 2569 0
-422 383 169 2570 0
337 -433 475 2571 0
449 -196 -487 2572 0
-369 -152 203 2573 0
68 421 -211 2574 0
219 -256 -362 2575 0
-96 276 -23 2576 0
-273 -227 -87 2577 0
-323 360 -496 2578 0
-400 -386 -116 2579 0
-340 282 -179 2580 0
-335 -367 94 2581 0
221 448 -385 2582 0
238 362 -464 2583 0
-385 362 -39 2584 0
38 67 -280 2585 0
-195 172 -257 2586 0
281 -160 -57 2587 0
112 458 -132 2588 0
-416 -398 201 2589 0
36 109 -137 2590 0
11 -483 128 2591 0
-463 -160 458 2592 0
46 -210 -435 2593 0
80 -107 -186 2594 0
-57 16 343 2595 0
58 457 226 2596 0
497 -454 332 2597 0
342 301 119 2598 0
468 103 455 2599 0
-413 303 -373 2600 0
188 358 489 2601 0
216 104 248 2602 0
382 -439 -229 2603 0
438 142 -237 2604 0
55 -356 334 2605 0
258 56 26 2606 0
-107 -485 -446 2607 0
390 405 -24 2608 0
-492 110 -431 2609 0
343 -455 7 2610 0
435 -142 6 2611 0
452 -472 214 2612 0
62 -92 -206 2613 0
67 345 -177 2614 0
468 -217 119 2615 0
465 -348 350 2616 0
398 151 -220 2617 0
153 -476 -234 2618 0
70 222 496 2619 0
268 -162 -108 2620 0
-308 112 312 2621 0
-188 -143 142 2622 0
-16 94 202 2623 0
-14 170 -143 2624 0
298 223 -203 2625 0
-129 89 -285 2626 0
287 -183 94 2627 0
158 463 -24 2628 0
234 320 191 2629 0
-311 -353 -409 2630 0
9 112 405 2631 0
126 -476 -442 2632 0
-239 -175 430 2633 0
119 322 142 2634 0
-38 -339 -297 2635 0
14 481 147 2636 0
314 158 80 2637 0
389 -318 58 2638 0
-7 322 -217 2639 0
-138 -74 -370 2640 0
465 374 296 2641 0
-356 -149 488 2642 0
137 97 338 2643 0
-38 -107 200 2644 0
-41 -93 -433 2645 0
389 112 343 2646 0
124 -417 -270 2647 0
299 61 57 2648 0
-425 205 4 2649 0
329 330 -180 2650 0
