p cnf 2650 2150
411 -64 297 501 0
-255 225 -322 502 0
382 -259 -89 503 0
146 -207 210 504 0
397 -449 133 505 0
-217 -65 140 506 0
-192 -308 15 507 0
-212 -462 35 508 0
-190 3 34 509 0
364 133 -341 510 0
287 -375 -91 511 0
-309 110 29 512 0
-34 177 -93 513 0
167 244 165 514 0
-103 -420 -201 515 0
-205 338 -122 516 0
419 -432 -308 517 0
64 -2 217 518 0
168 20 400 519 0
-445 464 143 520 0
-303 465 290 521 0
52 -267 42 522 0
249 223 36 523 0
89 378 -114 524 0
-343 -10 480 525 0
427 -74 220 526 0
-283 -387 -1 527 0
201 144 327 528 0
-230 -447 -215 529 0
165 109 365 530 0
-99 229 -360 531 0
-106 456 -359 532 0
281 65 -440 533 0
464 -486 -146 534 0
331 -1 -270 535 0
-407 -146 220 536 0
311 -6 -458 537 0
121 -204 450 538 0
497 477 251 539 0
282 410 -201 540 0
143 -450 -311 541 0
-91 -296 -186 542 0
-303 -219 229 543 0
-33 328 -432 544 0
-161 286 -386 545 0
-364 32 186 546 0
-58 -265 225 547 0
110 -351 53 548 0
-56 455 -219 549 0
-429 -219 383 550 0
138 222 -28 551 0
-468 -436 -199 552 0
-313 7 -141 553 0
-357 -55 229 554 0
69 -499 465 555 0
216 -286 -422 556 0
-249 239 363 557 0
-42 -354 -2 558 0
-84 400 49 559 0
369 346 -191 560 0
-70 -147 269 561 0
276 -251 -216 562 0
-193 -288 62 563 0
-495 -338 409 564 0
-217 24 296 565 0
422 136 110 566 0
188 -446 -223 567 0
-467 -117 93 568 0
-307 -63 387 569 0
-455 485 377 570 0
345 -210 434 571 0
-180 -473 228 572 0
-195 242 -496 573 0
89 -206 -172 574 0
-316 456 284 575 0
114 -361 28 576 0
462 -475 -419 577 0
75 -137 224 578 0
316 149 -39 579 0
-265 -99 377 580 0
-9 -48 354 581 0
237 392 457 582 0
461 -386 -286 583 0
83 -342 -238 584 0
275 164 106 585 0
-348 269 -387 586 0
-40 -147 -38 587 0
390 126 65 588 0
-403 372 270 589 0
110 -450 -112 590 0
80 145 376 591 0
341 -473 -482 592 0
320 331 409 593 0
-145 -398 -283 594 0
56 -229 -154 595 0
-120 -139 -256 596 0
-206 133 -221 597 0
174 -302 190 598 0
282 -58 444 599 0
-170 -321 -304 600 0
387 -224 82 601 0
-262 442 -52 602 0
147 -456 -457 603 0
211 -188 -291 604 0
344 -418 97 605 0
52 465 35 606 0
-223 434 -389 607 0
-89 -249 327 608 0
135 -57 55 609 0
179 -379 415 610 0
218 209 -250 611 0
231 174 8 612 0
-295 -315 91 613 0
-326 -104 160 614 0
256 401 -44 615 0
498 -7 360 616 0
-343 -163 445 617 0
-365 -386 484 618 0
182 266 39 619 0
446 277 301 620 0
-204 331 -214 621 0
42 46 -300 622 0
-131 144 -445 623 0
-261 -438 -47 624 0
-73 152 -18 625 0
-152 -126 365 626 0
95 -49 347 627 0
398 227 378 628 0
-136 -379 -425 629 0
371 -345 425 630 0
-476 316 271 631 0
-219 335 365 632 0
228 -237 -96 633 0
90 492 -289 634 0
-81 137 322 635 0
225 -22 -132 636 0
-179 144 -418 637 0
-497 371 74 638 0
-77 -174 422 639 0
16 -430 -470 640 0
-356 101 -23 641 0
446 -192 -132 642 0
-466 46 -319 643 0
498 -16 360 644 0
-393 -274 392 645 0
-478 -189 -20 646 0
-153 65 4 647 0
29 -442 309 648 0
118 -302 6 649 0
-307 253 490 650 0
-195 270 247 651 0
400 -457 54 652 0
-484 355 439 653 0
-500 362 -290 654 0
477 -57 468 655 0
117 467 -393 656 0
199 438 -208 657 0
-395 -161 -254 658 0
66 454 433 659 0
252 -442 -33 660 0
-117 -26 -149 661 0
-281 -76 300 662 0
-205 87 21 663 0
-364 163 -476 664 0
433 -152 -367 665 0
125 62 -98 666 0
215 -147 -450 667 0
-281 82 456 668 0
238 450 -466 669 0
43 394 366 670 0
-441 -483 -259 671 0
-118 -157 317 672 0
-402 370 427 673 0
-240 53 -319 674 0
-325 366 212 675 0
296 199 22 676 0
276 -186 455 677 0
-421 -462 -463 678 0
-279 -492 194 679 0
-56 -259 154 680 0
-435 -400 -484 681 0
-38 305 -429 682 0
-149 -476 -386 683 0
-419 126 -439 684 0
83 -457 370 685 0
-122 312 -417 686 0
-287 -353 -60 687 0
-182 -333 86 688 0
377 286 -325 689 0
-422 -214 -169 690 0
473 150 -225 691 0
238 -495 -66 692 0
24 -82 217 693 0
169 464 -436 694 0
36 -173 -192 695 0
407 168 346 696 0
-72 341 -64 697 0
-341 -477 343 698 0
414 -141 268 699 0
147 168 399 700 0
3 244 -253 701 0
36 97 -103 702 0
382 164 180 703 0
410 414 465 704 0
-225 273 420 705 0
470 -397 -293 706 0
128 -78 -130 707 0
379 -279 -313 708 0
-109 -87 73 709 0
-14 -381 448 710 0
399 157 105 711 0
11 -369 -490 712 0
194 351 -455 713 0
196 -406 335 714 0
-260 -175 -466 715 0
-153 123 -63 716 0
-105 201 15 717 0
-8 -384 215 718 0
-124 252 382 719 0
160 -385 94 720 0
-148 -46 -328 721 0
150 498 -221 722 0
392 175 291 723 0
-107 -214 57 724 0
499 -106 -223 725 0
-184 370 -438 726 0
-88 316 244 727 0
-289 -80 379 728 0
17 -359 321 729 0
-351 157 415 730 0
270 127 -252 731 0
-372 -491 -327 732 0
360 303 -275 733 0
-407 379 203 734 0
-145 -147 367 735 0
-284 -381 500 736 0
323 -193 -296 737 0
318 -274 -498 738 0
245 -95 499 739 0
-394 -484 203 740 0
248 -321 -243 741 0
-411 373 176 742 0
130 15 -43 743 0
79 -397 31 744 0
32 -274 -207 745 0
-170 348 -193 746 0
114 -217 -147 747 0
-394 85 371 748 0
-444 -72 192 749 0
-53 -387 231 750 0
85 -73 217 751 0
-225 -426 64 752 0
-470 203 421 753 0
-481 126 -465 754 0
-163 344 -255 755 0
-41 496 86 756 0
-266 11 132 757 0
-228 -212 -338 758 0
-446 -207 -247 759 0
-79 -20 -336 760 0
47 354 22 761 0
232 129 -254 762 0
362 236 -181 763 0
-383 203 15 764 0
101 -269 -34 765 0
-330 -164 249 766 0
212 136 83 767 0
491 6 -21 768 0
-376 -98 -146 769 0
428 213 79 770 0
387 -144 161 771 0
-458 -226 325 772 0
-299 156 -193 773 0
-125 -40 -475 774 0
-440 166 -242 775 0
-404 -5 -331 776 0
428 125 471 777 0
271 -150 414 778 0
-111 -62 -21 779 0
288 144 442 780 0
-268 -173 -41 781 0
-322 -43 93 782 0
-445 -291 286 783 0
475 76 -416 784 0
-316 -498 323 785 0
230 209 -177 786 0
102 -208 96 787 0
-41 -450 -365 788 0
228 -101 39 789 0
-329 -195 -182 790 0
-417 27 123 791 0
114 53 -232 792 0
161 -80 446 793 0
-26 458 42 794 0
181 217 -419 795 0
440 -205 466 796 0
384 -462 194 797 0
-87 146 142 798 0
-378 450 -476 799 0
490 -90 -29 800 0
-84 79 -340 801 0
-359 248 -483 802 0
-252 131 -166 803 0
-87 415 -500 804 0
-126 -115 -326 805 0
431 362 -349 806 0
-303 413 159 807 0
253 119 -269 808 0
-331 350 453 809 0
420 -350 251 810 0
-350 208 -19 811 0
-272 191 127 812 0
-364 66 165 813 0
-126 384 414 814 0
385 202 -203 815 0
129 -160 355 816 0
138 449 -241 817 0
-265 282 18 818 0
9 -390 442 819 0
369 466 236 820 0
334 442 243 821 0
357 -147 187 822 0
-223 44 -363 823 0
381 -386 420 824 0
216 -3 30 825 0
437 296 448 826 0
102 -98 -76 827 0
-367 -411 -56 828 0
-225 230 286 829 0
-26 -63 -344 830 0
165 415 426 831 0
-248 380 -13 832 0
-348 -103 56 833 0
163 229 25 834 0
139 350 109 835 0
207 -136 -303 836 0
291 -345 83 837 0
412 231 45 838 0
-480 -481 136 839 0
78 -440 -88 840 0
-180 474 -118 841 0
254 55 230 842 0
-426 -339 -91 843 0
-202 -5 -101 844 0
-301 149 180 845 0
174 473 -138 846 0
-378 313 198 847 0
-469 101 -12 848 0
500 -1 -359 849 0
-57 141 185 850 0
-81 -8 -35 851 0
314 452 -382 852 0
430 -201 499 853 0
-402 344 55 854 0
132 311 135 855 0
173 -257 93 856 0
201 -421 -157 857 0
404 213 288 858 0
342 -116 320 859 0
269 -307 218 860 0
56 235 32 861 0
-290 -69 -128 862 0
-482 -49 -443 863 0
10 454 -85 864 0
406 -355 411 865 0
-49 259 -413 866 0
188 -321 -190 867 0
27 -135 172 868 0
30 -290 178 869 0
80 276 -242 870 0
-364 -122 9 871 0
-273 195 233 872 0
-102 -46 257 873 0
215 -131 -371 874 0
401 -71 52 875 0
-465 161 -100 876 0
378 471 -110 877 0
25 99 -184 878 0
-53 -51 479 879 0
-204 -82 248 880 0
-373 89 -439 881 0
-495 319 475 882 0
-361 27 406 883 0
360 -293 435 884 0
-321 -37 -198 885 0
45 361 -143 886 0
384 396 225 887 0
-431 -398 254 888 0
-85 398 -371 889 0
322 375 -52 890 0
-278 246 -188 891 0
499 -339 -141 892 0
55 -255 -151 893 0
221 -469 488 894 0
448 63 -262 895 0
136 225 -227 896 0
326 -340 -486 897 0
-24 -50 -129 898 0
375 -334 -48 899 0
151 206 -144 900 0
96 246 49 901 0
-232 -438 343 902 0
-453 345 385 903 0
386 387 115 904 0
-196 390 227 905 0
-453 91 -78 906 0
491 135 55 907 0
-434 406 120 908 0
-422 -249 -383 909 0
199 -437 265 910 0
-484 -413 259 911 0
-482 304 223 912 0
-398 463 -140 913 0
-155 -410 -201 914 0
481 172 -298 915 0
-270 149 -315 916 0
-492 400 231 917 0
-393 -344 -350 918 0
-141 399 -423 919 0
51 388 -69 920 0
466 61 328 921 0
210 97 177 922 0
-158 311 279 923 0
-39 -66 -270 924 0
-416 -243 -57 925 0
-476 -286 -148 926 0
-165 -292 -200 927 0
286 154 458 928 0
166 139 -124 929 0
-21 -222 -144 930 0
245 353 -88 931 0
6 269 51 932 0
-234 94 -95 933 0
-318 -458 156 934 0
-128 -372 -120 935 0
-10 128 39 936 0
195 368 -85 937 0
161 194 -6 938 0
-287 -123 275 939 0
142 -267 431 940 0
240 -447 464 941 0
-302 -486 80 942 0
-460 -330 -359 943 0
203 -1 -450 944 0
261 -109 454 945 0
-351 -9 472 946 0
45 -367 183 947 0
210 45 355 948 0
-20 33 68 949 0
-15 7 -140 950 0
-463 -332 -169 951 0
236 -191 30 952 0
-296 121 70 953 0
203 -322 265 954 0
118 22 -405 955 0
110 -25 -380 956 0
-381 -394 -470 957 0
480 326 378 958 0
-134 -311 279 959 0
396 -280 -163 960 0
-185 209 -121 961 0
157 265 447 962 0
-460 309 -484 963 0
-414 498 -413 964 0
-168 169 -39 965 0
194 -426 180 966 0
-114 -307 -263 967 0
273 -480 145 968 0
-415 -65 107 969 0
391 -60 43 970 0
-452 362 459 971 0
431 -344 -211 972 0
228 -421 378 973 0
-382 405 -394 974 0
-435 -406 110 975 0
471 354 90 976 0
-440 115 -141 977 0
-388 -279 -316 978 0
71 -361 -159 979 0
246 8 312 980 0
241 58 -499 981 0
79 418 -296 982 0
-21 -121 193 983 0
130 388 267 984 0
-364 -67 -378 985 0
-496 328 -354 986 0
404 -302 93 987 0
-422 -337 447 988 0
471 371 247 989 0
-302 224 -133 990 0
-239 -253 323 991 0
112 -352 446 992 0
309 -258 151 993 0
201 288 -475 994 0
287 -265 271 995 0
-162 -49 -177 996 0
-109 388 -249 997 0
415 394 -140 998 0
427 -24 -235 999 0
472 249 369 1000 0
-269 34 330 1001 0
-117 -425 -41 1002 0
-370 -400 -32 1003 0
-215 488 -247 1004 0
339 -118 -133 1005 0
443 -286 477 1006 0
408 -405 -285 1007 0
493 -234 286 1008 0
-122 -103 340 1009 0
308 418 -402 1010 0
-82 377 187 1011 0
118 -81 -405 1012 0
206 307 335 1013 0
-375 66 -454 1014 0
-317 129 -58 1015 0
157 -344 68 1016 0
-441 -375 327 1017 0
130 -17 386 1018 0
24 -452 -395 1019 0
54 -258 380 1020 0
359 14 -303 1021 0
-165 -360 -329 1022 0
-44 -245 482 1023 0
97 -224 -301 1024 0
-370 239 58 1025 0
495 -228 -56 1026 0
460 476 -170 1027 0
449 114 -248 1028 0
111 -31 200 1029 0
-173 418 -389 1030 0
451 405 177 1031 0
-155 -173 -449 1032 0
450 341 -192 1033 0
-151 -305 98 1034 0
-68 -91 -345 1035 0
331 -469 -247 1036 0
410 404 -185 1037 0
119 -490 123 1038 0
-429 -207 397 1039 0
-291 122 258 1040 0
-224 374 -464 1041 0
-8 240 -426 1042 0
-346 -496 148 1043 0
-87 -448 -211 1044 0
-180 -386 496 1045 0
31 -477 -375 1046 0
223 274 -177 1047 0
435 124 -9 1048 0
-381 253 -153 1049 0
-104 296 231 1050 0
421 -180 -265 1051 0
-433 -420 443 1052 0
113 279 -82 1053 0
-107 144 7 1054 0
-441 -490 360 1055 0
376 271 114 1056 0
352 225 -98 1057 0
-477 -101 -55 1058 0
126 -301 50 1059 0
-23 294 -269 1060 0
-158 28 451 1061 0
414 -445 489 1062 0
367 423 -381 1063 0
62 -303 389 1064 0
471 -492 46 1065 0
-165 -177 269 1066 0
321 -38 109 1067 0
-174 494 -5 1068 0
-118 272 -132 1069 0
278 -337 421 1070 0
-359 -428 -222 1071 0
226 286 327 1072 0
299 -480 -397 1073 0
-147 -104 -244 1074 0
384 324 -181 1075 0
413 -381 -206 1076 0
9 -126 33 1077 0
360 -441 -244 1078 0
214 -353 -277 1079 0
8 -314 322 1080 0
457 99 -493 1081 0
163 232 -456 1082 0
-205 -312 -350 1083 0
-294 -134 -306 1084 0
58 -263 -311 1085 0
-444 343 233 1086 0
-283 -77 207 1087 0
249 -324 39 1088 0
-60 -163 66 1089 0
-104 -364 135 1090 0
-169 339 115 1091 0
430 267 -147 1092 0
472 135 291 1093 0
-341 40 221 1094 0
476 -81 -148 1095 0
-486 451 242 1096 0
448 445 192 1097 0
76 -371 230 1098 0
29 140 -13 1099 0
494 82 -54 1100 0
-123 -330 -347 1101 0
-481 -49 -360 1102 0
150 -33 -201 1103 0
-213 -2 -197 1104 0
-315 189 -438 1105 0
-233 277 -32 1106 0
352 -346 428 1107 0
166 14 -436 1108 0
-293 103 350 1109 0
88 487 470 1110 0
-213 180 8 1111 0
-309 241 -87 1112 0
108 -266 1 1113 0
404 -127 266 1114 0
348 335 -224 1115 0
-125 76 -54 1116 0
-466 51 -373 1117 0
285 268 276 1118 0
-327 60 465 1119 0
-279 123 144 1120 0
-393 381 202 1121 0
399 436 -360 1122 0
-59 -368 -295 1123 0
-434 -346 -8 1124 0
-101 -171 -41 1125 0
-395 -416 -123 1126 0
171 -244 -264 1127 0
14 -170 360 1128 0
207 -22 -121 1129 0
-132 -248 -418 1130 0
-243 119 361 1131 0
491 -374 -57 1132 0
-17 -181 -16 1133 0
466 -59 -125 1134 0
214 -92 424 1135 0
-159 -212 -375 1136 0
231 -40 383 1137 0
-211 449 290 1138 0
174 178 144 1139 0
-327 -177 -471 1140 0
-182 -332 -59 1141 0
288 427 277 1142 0
-373 279 250 1143 0
30 -128 301 1144 0
80 -344 -215 1145 0
255 110 139 1146 0
268 334 -273 1147 0
123 -96 336 1148 0
446 -12 -304 1149 0
-386 5 -40 1150 0
123 -170 -56 1151 0
-422 -423 -321 1152 0
-274 -185 -139 1153 0
250 -376 451 1154 0
286 -180 121 1155 0
124 102 -274 1156 0
-202 385 245 1157 0
465 -164 -318 1158 0
-465 -406 443 1159 0
-260 -403 229 1160 0
460 -5 -85 1161 0
-289 446 231 1162 0
-444 -485 157 1163 0
21 -29 -135 1164 0
-283 -262 -210 1165 0
35 -110 -446 1166 0
-417 -409 -300 1167 0
241 225 -393 1168 0
439 -320 154 1169 0
-72 -47 -10 1170 0
281 304 -144 1171 0
41 -393 -492 1172 0
-29 -296 -289 1173 0
-270 469 -316 1174 0
326 -109 -405 1175 0
-262 -299 -430 1176 0
-135 -497 -396 1177 0
-145 -338 67 1178 0
34 232 114 1179 0
471 -419 67 1180 0
-410 -200 -96 1181 0
152 -384 34 1182 0
379 232 341 1183 0
-224 -246 295 1184 0
221 -255 -309 1185 0
87 -289 -346 1186 0
41 476 -176 1187 0
434 461 -222 1188 0
311 -85 403 1189 0
393 -423 182 1190 0
-193 490 -49 1191 0
123 -257 435 1192 0
54 389 9 1193 0
429 133 -91 1194 0
39 -110 19 1195 0
355 139 -247 1196 0
466 -321 -341 1197 0
211 377 -273 1198 0
125 -302 -139 1199 0
-486 -468 -143 1200 0
118 -73 452 1201 0
-459 -161 446 1202 0
238 -367 475 1203 0
-251 79 -473 1204 0
323 239 -66 1205 0
-53 -118 55 1206 0
-288 -69 -271 1207 0
-270 -24 193 1208 0
167 222 481 1209 0
-383 420 -325 1210 0
330 -481 -247 1211 0
-79 -38 -146 1212 0
381 -376 166 1213 0
-332 -386 229 1214 0
-104 -457 -268 1215 0
285 299 169 1216 0
-301 443 -428 1217 0
-15 -217 130 1218 0
-433 -297 277 1219 0
328 452 435 1220 0
-351 492 -433 1221 0
-363 454 -15 1222 0
43 125 -397 1223 0
-326 -164 248 1224 0
397 104 -16 1225 0
466 241 -353 1226 0
-315 -4 397 1227 0
217 422 -396 1228 0
21 118 235 1229 0
-132 355 -489 1230 0
437 -200 256 1231 0
223 473 -162 1232 0
57 286 -170 1233 0
-10 -365 -278 1234 0
-441 412 64 1235 0
-408 8 -241 1236 0
362 158 50 1237 0
297 -87 142 1238 0
285 -469 356 1239 0
492 365 -172 1240 0
-313 470 384 1241 0
132 376 -120 1242 0
-38 -192 -324 1243 0
465 163 -237 1244 0
-280 22 -187 1245 0
-157 206 271 1246 0
-143 -55 113 1247 0
165 120 -121 1248 0
169 87 1 1249 0
-156 208 -38 1250 0
-52 82 494 1251 0
135 263 -264 1252 0
-493 -208 213 1253 0
-100 -395 357 1254 0
-398 -440 -290 1255 0
352 -47 452 1256 0
-261 243 -76 1257 0
246 -171 178 1258 0
-207 410 -309 1259 0
-108 366 -259 1260 0
-399 473 77 1261 0
-27 -169 233 1262 0
-407 -252 310 1263 0
128 -158 -186 1264 0
211 -29 354 1265 0
-335 344 -274 1266 0
129 -474 -496 1267 0
-424 4 -47 1268 0
267 -405 -113 1269 0
-250 87 20 1270 0
-357 -231 267 1271 0
-459 -119 280 1272 0
-316 -426 220 1273 0
-90 -383 -123 1274 0
433 -349 -456 1275 0
211 232 474 1276 0
192 -484 -373 1277 0
344 473 -499 1278 0
-31 106 467 1279 0
72 305 227 1280 0
484 235 240 1281 0
-80 -138 -82 1282 0
285 104 266 1283 0
-435 -236 -262 1284 0
-342 60 494 1285 0
64 196 391 1286 0
-257 1 245 1287 0
423 452 -464 1288 0
-106 23 -467 1289 0
-277 227 358 1290 0
-381 483 -63 1291 0
114 206 -88 1292 0
355 410 409 1293 0
-382 254 467 1294 0
148 -476 271 1295 0
-281 148 459 1296 0
-159 -279 93 1297 0
-350 -403 384 1298 0
-108 -313 460 1299 0
44 -461 -363 1300 0
-289 -179 -110 1301 0
-1 214 -188 1302 0
-385 -475 -114 1303 0
296 207 347 1304 0
-468 -447 276 1305 0
-95 205 -158 1306 0
252 307 366 1307 0
-282 446 294 1308 0
-285 -284 408 1309 0
-229 125 410 1310 0
-430 219 389 1311 0
133 103 -226 1312 0
345 136 204 1313 0
104 451 499 1314 0
408 -144 140 1315 0
412 275 441 1316 0
209 110 -175 1317 0
146 -200 36 1318 0
-385 233 -420 1319 0
-129 299 273 1320 0
-429 -187 -401 1321 0
-38 -454 -257 1322 0
220 -99 434 1323 0
337 -73 173 1324 0
55 307 266 1325 0
324 -57 111 1326 0
188 455 152 1327 0
250 -453 42 1328 0
-256 -168 -456 1329 0
-44 434 149 1330 0
263 -67 -193 1331 0
389 -109 -268 1332 0
381 3 -460 1333 0
139 -272 21 1334 0
-113 180 -128 1335 0
-276 137 107 1336 0
-53 151 -122 1337 0
-198 -373 -483 1338 0
110 -306 -354 1339 0
376 -234 -487 1340 0
428 -307 208 1341 0
-23 -385 180 1342 0
-250 293 326 1343 0
247 -211 -141 1344 0
391 189 398 1345 0
-425 -47 -196 1346 0
-419 67 -358 1347 0
-498 -48 -207 1348 0
220 -225 472 1349 0
351 -223 302 1350 0
356 387 -256 1351 0
70 149 -422 1352 0
218 394 9 1353 0
186 -333 -381 1354 0
-127 238 15 1355 0
165 -220 332 1356 0
335 -156 -87 1357 0
-162 -199 484 1358 0
-441 22 84 1359 0
102 150 35 1360 0
173 368 191 1361 0
-445 -235 -174 1362 0
316 -28 -125 1363 0
-272 -230 -360 1364 0
147 143 -499 1365 0
65 427 416 1366 0
291 -394 -496 1367 0
-486 -247 -43 1368 0
189 426 118 1369 0
-190 -58 339 1370 0
-231 -135 42 1371 0
442 -236 -306 1372 0
88 -351 -500 1373 0
-86 158 -280 1374 0
146 315 -152 1375 0
298 -43 -112 1376 0
418 -77 230 1377 0
-464 -29 -232 1378 0
97 168 -244 1379 0
378 414 -331 1380 0
-66 -494 -406 1381 0
-351 157 498 1382 0
499 58 56 1383 0
74 105 289 1384 0
-269 -390 -410 1385 0
-110 -140 482 1386 0
243 -249 -421 1387 0
-185 -345 84 1388 0
-70 -100 488 1389 0
-381 269 -173 1390 0
408 221 -164 1391 0
-301 308 495 1392 0
480 4 -403 1393 0
289 308 -470 1394 0
-98 456 101 1395 0
369 437 442 1396 0
-152 192 214 1397 0
-291 -22 62 1398 0
-232 -360 219 1399 0
-282 -27 -420 1400 0
-307 477 117 1401 0
266 -237 111 1402 0
51 -373 227 1403 0
-285 223 -77 1404 0
-434 -447 -226 1405 0
106 194 92 1406 0
279 -238 -219 1407 0
121 -189 -251 1408 0
264 87 437 1409 0
-199 98 -251 1410 0
99 -290 344 1411 0
34 -487 269 1412 0
482 167 109 1413 0
500 -38 175 1414 0
14 -148 290 1415 0
294 185 392 1416 0
-166 -322 -93 1417 0
-275 22 146 1418 0
100 34 256 1419 0
119 142 -201 1420 0
-233 149 153 1421 0
53 353 456 1422 0
-226 -360 314 1423 0
238 416 -263 1424 0
188 -90 -288 1425 0
114 291 325 1426 0
-317 471 -189 1427 0
326 69 483 1428 0
97 255 -201 1429 0
426 -254 -487 1430 0
-145 458 65 1431 0
269 -295 246 1432 0
-237 458 -433 1433 0
-447 339 -404 1434 0
-476 -204 -86 1435 0
-34 -369 394 1436 0
68 339 -100 1437 0
315 -185 -7 1438 0
-190 68 437 1439 0
-308 240 199 1440 0
-405 -444 49 1441 0
231 -70 359 1442 0
406 24 -378 1443 0
39 17 479 1444 0
-73 70 189 1445 0
95 -279 -243 1446 0
234 462 192 1447 0
-454 148 307 1448 0
83 278 270 1449 0
-135 180 -281 1450 0
304 233 29 1451 0
184 63 -146 1452 0
62 406 211 1453 0
342 -254 -207 1454 0
-16 -69 163 1455 0
82 -154 -30 1456 0
71 69 385 1457 0
-348 422 494 1458 0
237 400 -310 1459 0
5 111 183 1460 0
77 -66 -481 1461 0
-213 362 -329 1462 0
45 -277 118 1463 0
-430 -95 -44 1464 0
-56 4 -25 1465 0
8 -498 258 1466 0
-337 -26 -130 1467 0
-395 -473 -180 1468 0
377 485 -34 1469 0
210 -243 40 1470 0
8 -3 84 1471 0
280 146 -185 1472 0
73 -75 231 1473 0
438 -52 -298 1474 0
459 -210 294 1475 0
-180 -36 -147 1476 0
339 355 -461 1477 0
45 166 -17 1478 0
287 -142 286 1479 0
-410 -267 -100 1480 0
-438 223 430 1481 0
94 338 -165 1482 0
209 -343 -460 1483 0
-494 -455 -211 1484 0
475 87 -137 1485 0
151 -483 -73 1486 0
-252 243 -300 1487 0
242 -371 -348 1488 0
208 -470 239 1489 0
-11 -71 203 1490 0
-335 283 381 1491 0
-355 213 -298 1492 0
17 61 430 1493 0
-115 -496 329 1494 0
182 -450 -351 1495 0
307 201 154 1496 0
-496 367 -38 1497 0
-164 419 99 1498 0
-133 454 111 1499 0
271 -39 286 1500 0
39 -170 24 1501 0
-117 -184 -465 1502 0
-258 -89 -294 1503 0
61 -140 -477 1504 0
-244 -421 -389 1505 0
-491 341 -129 1506 0
-465 -196 471 1507 0
-355 113 467 1508 0
-330 -106 -111 1509 0
12 -85 -138 1510 0
-150 -279 -64 1511 0
181 66 63 1512 0
470 245 365 1513 0
-200 -217 419 1514 0
79 43 -308 1515 0
-489 -368 242 1516 0
-231 174 335 1517 0
473 325 381 1518 0
-368 236 -233 1519 0
-93 341 -33 1520 0
-27 429 41 1521 0
-470 235 -48 1522 0
-148 -398 -6 1523 0
170 -192 84 1524 0
275 -140 8 1525 0
-100 279 421 1526 0
96 196 251 1527 0
370 157 -449 1528 0
124 -304 434 1529 0
9 282 -236 1530 0
170 448 -370 1531 0
-50 -155 71 1532 0
-82 90 32 1533 0
416 -322 -11 1534 0
-239 233 261 1535 0
-497 -270 -74 1536 0
-371 -499 312 1537 0
88 -83 374 1538 0
117 87 -492 1539 0
201 -283 -118 1540 0
-299 -333 -54 1541 0
-426 414 34 1542 0
429 22 -495 1543 0
-297 -432 -112 1544 0
68 -350 222 1545 0
-309 -296 122 1546 0
-134 283 -136 1547 0
-195 -193 17 1548 0
371 470 84 1549 0
-450 -261 -289 1550 0
384 -74 -266 1551 0
451 -461 -210 1552 0
442 -418 -127 1553 0
20 128 -255 1554 0
18 -401 -123 1555 0
-345 -360 -397 1556 0
340 -453 -56 1557 0
462 -420 -99 1558 0
-424 -181 493 1559 0
-391 -138 -77 1560 0
-341 -203 115 1561 0
-262 -455 92 1562 0
-458 148 174 1563 0
-245 -75 -317 1564 0
-32 499 -323 1565 0
57 -30 489 1566 0
133 -41 -251 1567 0
61 -461 302 1568 0
-31 241 -475 1569 0
-158 -420 442 1570 0
-439 181 -92 1571 0
141 430 16 1572 0
-20 -480 164 1573 0
124 112 -169 1574 0
227 148 241 1575 0
419 -240 -230 1576 0
-164 314 98 1577 0
439 -392 302 1578 0
95 281 113 1579 0
-114 -73 -146 1580 0
218 213 -400 1581 0
63 -413 -351 1582 0
34 -42 -162 1583 0
-318 -393 -45 1584 0
-98 433 484 1585 0
151 -482 452 1586 0
-332 42 -3 1587 0
142 -401 -246 1588 0
-90 -141 -5 1589 0
308 -5 39 1590 0
408 209 74 1591 0
1 70 343 1592 0
-377 -213 -221 1593 0
-448 38 -360 1594 0
239 -385 262 1595 0
270 381 95 1596 0
377 312 -461 1597 0
-435 284 -199 1598 0
-88 174 369 1599 0
-4 -396 183 1600 0
-402 -21 -112 1601 0
-104 181 -491 1602 0
-211 -398 -455 1603 0
-488 -72 109 1604 0
-34 -220 -349 1605 0
-94 95 -304 1606 0
-488 -194 -296 1607 0
144 -293 -92 1608 0
398 -399 225 1609 0
-274 -224 -464 1610 0
-350 -423 -449 1611 0
261 -471 129 1612 0
-113 -8 -151 1613 0
-14 135 -240 1614 0
424 174 -167 1615 0
-250 5 -111 1616 0
-17 -305 129 1617 0
277 490 381 1618 0
-498 346 -25 1619 0
-290 -137 99 1620 0
445 190 493 1621 0
-403 -391 -315 1622 0
-229 -407 359 1623 0
235 259 289 1624 0
499 -114 196 1625 0
215 -449 22 1626 0
19 -242 -30 1627 0
392 348 -147 1628 0
60 15 224 1629 0
-3 -490 -478 1630 0
-469 -431 -382 1631 0
62 374 -46 1632 0
293 287 239 1633 0
-164 347 499 1634 0
467 -74 -56 1635 0
-176 25 -1 1636 0
-397 -170 326 1637 0
292 2 464 1638 0
87 494 -118 1639 0
220 424 305 1640 0
-18 -386 -383 1641 0
332 -367 312 1642 0
-370 248 -322 1643 0
-117 -131 252 1644 0
405 245 -75 1645 0
386 237 163 1646 0
-386 -216 -163 1647 0
-424 -394 -253 1648 0
-288 172 459 1649 0
-217 -46 28 1650 0
156 200 168 1651 0
63 58 22 1652 0
-116 99 -247 1653 0
-262 -37 -18 1654 0
-19 -347 215 1655 0
390 152 83 1656 0
-223 314 61 1657 0
-259 486 -161 1658 0
77 263 -470 1659 0
209 -92 252 1660 0
-15 -465 290 1661 0
147 -208 -462 1662 0
181 -445 486 1663 0
111 231 222 1664 0
-173 92 276 1665 0
-323 160 276 1666 0
269 -225 303 1667 0
-361 482 -31 1668 0
-473 260 -61 1669 0
-437 284 276 1670 0
-390 -47 -459 1671 0
328 296 156 1672 0
52 20 -300 1673 0
14 229 -65 1674 0
-432 485 -374 1675 0
-489 444 -203 1676 0
-489 294 53 1677 0
4 -171 -83 1678 0
-499 259 -59 1679 0
448 495 -36 1680 0
299 394 465 1681 0
-369 -279 -296 1682 0
-274 -398 -114 1683 0
299 101 184 1684 0
-475 417 -242 1685 0
-451 278 -367 1686 0
-493 -296 -395 1687 0
-369 423 268 1688 0
-442 -473 -167 1689 0
-352 431 455 1690 0
320 155 -182 1691 0
125 95 142 1692 0
-335 -423 -302 1693 0
458 242 -474 1694 0
-197 -233 -442 1695 0
-247 -217 490 1696 0
-85 -403 -30 1697 0
-492 -97 -247 1698 0
-445 -396 -37 1699 0
-353 366 -309 1700 0
289 111 446 1701 0
314 462 133 1702 0
248 88 428 1703 0
397 98 -36 1704 0
-243 135 320 1705 0
-464 152 391 1706 0
-181 -159 -224 1707 0
4 59 1 1708 0
376 -315 -406 1709 0
133 433 444 1710 0
387 428 -336 1711 0
-193 -326 286 1712 0
-448 -121 475 1713 0
332 -158 -380 1714 0
376 -184 189 1715 0
-365 -254 -391 1716 0
405 471 -18 1717 0
-247 -359 449 1718 0
200 -291 -21 1719 0
229 382 210 1720 0
-454 -33 447 1721 0
144 378 -224 1722 0
167 356 -413 1723 0
-90 352 233 1724 0
418 367 -59 1725 0
405 -192 -15 1726 0
306 -148 -249 1727 0
-30 -391 374 1728 0
-289 -328 -47 1729 0
-497 361 279 1730 0
-83 -283 -472 1731 0
-68 -310 134 1732 0
237 311 15 1733 0
-367 336 239 1734 0
-240 -87 264 1735 0
437 -341 17 1736 0
-143 -487 247 1737 0
382 484 -33 1738 0
126 397 66 1739 0
57 46 -359 1740 0
-462 -167 -366 1741 0
-418 487 -125 1742 0
-338 60 59 1743 0
-458 154 487 1744 0
309 -102 -95 1745 0
-13 -263 -399 1746 0
-105 -463 -194 1747 0
-374 403 83 1748 0
137 -52 347 1749 0
-452 125 -54 1750 0
204 353 413 1751 0
-441 -477 -385 1752 0
-15 148 364 1753 0
-221 100 140 1754 0
207 348 -435 1755 0
-464 93 304 1756 0
12 -252 490 1757 0
12 324 -285 1758 0
-154 260 273 1759 0
-162 484 -204 1760 0
395 -290 308 1761 0
-5 -268 321 1762 0
300 495 288 1763 0
-106 390 -237 1764 0
-214 498 380 1765 0
93 -168 324 1766 0
46 311 -261 1767 0
143 -265 48 1768 0
-225 -53 460 1769 0
483 -222 -29 1770 0
294 405 -234 1771 0
47 432 354 1772 0
343 -277 -181 1773 0
481 118 128 1774 0
454 340 -180 1775 0
18 -29 53 1776 0
-345 177 219 1777 0
-307 -166 -407 1778 0
-34 -299 440 1779 0
335 -93 332 1780 0
-446 83 340 1781 0
171 65 -452 1782 0
-168 440 233 1783 0
-418 273 321 1784 0
95 -409 336 1785 0
437 410 18 1786 0
404 70 -472 1787 0
263 359 -46 1788 0
301 120 -349 1789 0
146 368 -9 1790 0
456 -61 306 1791 0
-95 190 111 1792 0
-441 -253 497 1793 0
89 -143 -472 1794 0
499 160 -71 1795 0
345 298 375 1796 0
-277 -181 -178 1797 0
196 456 -247 1798 0
293 438 30 1799 0
-90 335 -458 1800 0
84 394 -44 1801 0
25 261 138 1802 0
217 -352 324 1803 0
369 480 -162 1804 0
-95 -264 428 1805 0
-397 369 186 1806 0
498 -364 -247 1807 0
38 -194 109 1808 0
57 -331 -257 1809 0
425 327 432 1810 0
56 -277 -65 1811 0
-62 -214 169 1812 0
-366 -65 -89 1813 0
-73 3 -427 1814 0
-368 -148 74 1815 0
388 391 -223 1816 0
-51 45 220 1817 0
-457 -467 -465 1818 0
306 -444 155 1819 0
321 -160 -386 1820 0
-428 48 -412 1821 0
156 392 -24 1822 0
420 -348 -131 1823 0
-306 -64 330 1824 0
-147 -445 154 1825 0
-208 -324 267 1826 0
-136 207 10 1827 0
473 -461 441 1828 0
402 125 35 1829 0
-72 406 3 1830 0
-60 274 -55 1831 0
275 456 -304 1832 0
21 -485 41 1833 0
493 -469 -273 1834 0
-66 -483 -210 1835 0
371 344 -167 1836 0
383 -336 145 1837 0
-91 108 -500 1838 0
147 300 -365 1839 0
469 229 -433 1840 0
-65 325 472 1841 0
-349 -442 -49 1842 0
283 336 -320 1843 0
-120 464 117 1844 0
223 389 -294 1845 0
-351 31 251 1846 0
-414 140 -369 1847 0
384 -496 -175 1848 0
-184 34 -52 1849 0
-310 -252 170 1850 0
141 170 -432 1851 0
329 -25 447 1852 0
237 -305 217 1853 0
-385 -208 -301 1854 0
-411 348 -64 1855 0
-197 -160 243 1856 0
-238 97 215 1857 0
-331 327 -290 1858 0
163 -11 361 1859 0
22 158 -20 1860 0
-131 287 -173 1861 0
5 -36 326 1862 0
-484 118 199 1863 0
-217 310 251 1864 0
-61 369 225 1865 0
290 357 -173 1866 0
297 423 -482 1867 0
-433 409 199 1868 0
-297 9 -341 1869 0
469 90 260 1870 0
-161 109 -312 1871 0
-206 -166 265 1872 0
-251 -80 -349 1873 0
94 -185 -480 1874 0
-40 222 -397 1875 0
-490 -408 -60 1876 0
-331 214 138 1877 0
-422 226 -314 1878 0
-192 -139 -489 1879 0
259 -363 413 1880 0
-274 -232 144 1881 0
-269 -485 -394 1882 0
454 -376 -385 1883 0
440 414 -229 1884 0
-287 405 -464 1885 0
-249 114 -170 1886 0
-485 -124 396 1887 0
1 111 65 1888 0
7 -225 -140 1889 0
21 50 113 1890 0
-310 372 359 1891 0
218 -168 -478 1892 0
233 -446 9 1893 0
188 -147 20 1894 0
-262 156 -39 1895 0
255 448 -184 1896 0
418 118 145 1897 0
38 -317 -292 1898 0
441 324 -129 1899 0
-174 -14 -10 1900 0
464 196 180 1901 0
-48 28 224 1902 0
-131 -214 416 1903 0
478 376 -460 1904 0
34 103 420 1905 0
-106 -245 -417 1906 0
320 61 -364 1907 0
100 16 265 1908 0
465 -488 -429 1909 0
210 -389 412 1910 0
318 121 -171 1911 0
63 -140 268 1912 0
-412 401 -387 1913 0
230 -414 -421 1914 0
-129 178 174 1915 0
-70 72 -178 1916 0
138 -92 103 1917 0
443 387 416 1918 0
126 -25 483 1919 0
-461 -234 85 1920 0
41 -449 -414 1921 0
-44 -365 424 1922 0
422 -461 173 1923 0
436 469 30 1924 0
476 395 177 1925 0
348 -177 98 1926 0
485 -146 410 1927 0
83 12 -293 1928 0
9 186 -315 1929 0
353 432 -458 1930 0
82 -33 453 1931 0
332 -251 -435 1932 0
-296 45 150 1933 0
-346 109 -321 1934 0
36 -362 432 1935 0
-271 -238 386 1936 0
-101 -320 -446 1937 0
101 -490 36 1938 0
24 -175 454 1939 0
335 328 -406 1940 0
168 -295 -7 1941 0
-130 -417 -99 1942 0
395 365 51 1943 0
-278 -383 -414 1944 0
-209 52 -123 1945 0
157 -296 -327 1946 0
-326 -7 337 1947 0
184 283 200 1948 0
-491 -301 9 1949 0
481 -410 88 1950 0
-475 415 -479 1951 0
-132 291 -245 1952 0
139 299 -465 1953 0
185 -476 -470 1954 0
349 206 230 1955 0
187 89 387 1956 0
29 21 -170 1957 0
-444 296 -325 1958 0
46 -265 -188 1959 0
320 421 -18 1960 0
-353 -384 -320 1961 0
167 -75 -157 1962 0
-457 39 -104 1963 0
-258 147 487 1964 0
-116 -481 477 1965 0
-140 -394 -301 1966 0
28 296 90 1967 0
105 403 266 1968 0
195 -497 120 1969 0
193 342 77 1970 0
415 -243 255 1971 0
-328 -407 157 1972 0
-204 -494 244 1973 0
-217 407 -211 1974 0
271 -269 423 1975 0
102 -97 412 1976 0
-242 269 340 1977 0
340 -226 4 1978 0
-348 -87 218 1979 0
-485 -190 -109 1980 0
-57 -156 -327 1981 0
20 -120 42 1982 0
-345 -21 52 1983 0
-328 85 -316 1984 0
184 497 -163 1985 0
-395 -299 401 1986 0
-44 -260 80 1987 0
300 -292 451 1988 0
135 474 324 1989 0
44 -171 403 1990 0
440 -365 422 1991 0
-271 245 342 1992 0
99 245 -487 1993 0
-428 58 -209 1994 0
-363 -487 -145 1995 0
-49 -185 -106 1996 0
315 -108 -346 1997 0
-72 -71 38 1998 0
160 -106 -305 1999 0
163 -147 -222 2000 0
340 -476 198 2001 0
438 188 -330 2002 0
243 211 -471 2003 0
50 165 106 2004 0
-139 47 -368 2005 0
-331 81 -33 2006 0
-17 -280 366 2007 0
141 -446 -468 2008 0
266 210 -253 2009 0
479 -133 -207 2010 0
-462 -374 -419 2011 0
-80 351 71 2012 0
-73 161 353 2013 0
350 -69 -446 2014 0
-324 -487 -88 2015 0
-82 -192 53 2016 0
95 -6 351 2017 0
326 -403 -225 2018 0
297 227 38 2019 0
-118 213 125 2020 0
253 -497 -187 2021 0
16 125 -146 2022 0
-51 -69 -217 2023 0
-162 212 72 2024 0
-393 -444 212 2025 0
-170 473 -268 2026 0
-238 -499 216 2027 0
216 -192 91 2028 0
-25 -59 413 2029 0
-35 -120 80 2030 0
129 334 112 2031 0
-130 -376 -459 2032 0
186 100 182 2033 0
438 186 417 2034 0
207 -36 -119 2035 0
-344 -457 330 2036 0
153 387 -262 2037 0
461 292 -399 2038 0
154 -440 447 2039 0
44 -173 -101 2040 0
-263 451 -183 2041 0
167 323 103 2042 0
-105 -430 136 2043 0
204 473 213 2044 0
-66 222 356 2045 0
190 426 390 2046 0
-321 -16 -54 2047 0
398 340 -440 2048 0
302 148 353 2049 0
-302 -41 488 2050 0
-24 223 -236 2051 0
142 -1 422 2052 0
-427 48 227 2053 0
339 413 241 2054 0
-469 366 -320 2055 0
410 303 492 2056 0
-5 114 -374 2057 0
-414 432 213 2058 0
198 -56 -278 2059 0
78 -235 -40 2060 0
-484 434 -448 2061 0
-10 277 117 2062 0
240 -128 277 2063 0
253 293 13 2064 0
-112 456 125 2065 0
-143 111 395 2066 0
-455 -170 104 2067 0
-460 -274 -324 2068 0
-426 -159 388 2069 0
-204 -31 -169 2070 0
2 329 62 2071 0
-134 136 -312 2072 0
-239 381 228 2073 0
370 -287 -316 2074 0
264 91 195 2075 0
489 -349 -139 2076 0
-193 -265 -235 2077 0
-252 55 406 2078 0
-345 -316 -125 2079 0
145 -120 241 2080 0
-317 236 249 2081 0
-428 84 -478 2082 0
182 -114 344 2083 0
-189 99 -356 2084 0
-335 -376 472 2085 0
232 -33 313 2086 0
-32 -140 -142 2087 0
-216 -292 -359 2088 0
-179 -479 443 2089 0
-202 -95 -368 2090 0
420 270 -199 2091 0
182 11 -400 2092 0
-499 40 125 2093 0
445 105 409 2094 0
164 94 117 2095 0
-327 393 -314 2096 0
-346 -57 -110 2097 0
99 -401 -389 2098 0
-307 203 190 2099 0
-174 -279 -211 2100 0
324 -362 -128 2101 0
-348 -176 -440 2102 0
-82 -494 377 2103 0
31 320 -399 2104 0
-43 -300 80 2105 0
425 -274 -144 2106 0
-426 -442 -453 2107 0
243 76 102 2108 0
-34 -356 430 2109 0
173 -429 -422 2110 0
-308 472 228 2111 0
417 33 -316 2112 0
134 -434 410 2113 0
481 -41 108 2114 0
49 105 103 2115 0
325 -276 449 2116 0
-431 -325 -25 2117 0
497 -243 339 2118 0
252 -430 343 2119 0
295 -134 -473 2120 0
265 -380 63 2121 0
451 76 139 2122 0
20 -202 442 2123 0
-36 -209 -251 2124 0
475 368 -330 2125 0
-259 62 -458 2126 0
-152 353 -458 2127 0
285 27 294 2128 0
338 -474 -160 2129 0
-32 80 362 2130 0
-358 -363 467 2131 0
146 -339 -162 2132 0
447 -254 -450 2133 0
-259 -299 -11 2134 0
467 339 -279 2135 0
60 -380 116 2136 0
75 311 424 2137 0
24 -427 -325 2138 0
-475 68 310 2139 0
-322 -197 -241 2140 0
128 363 -307 2141 0
-157 252 -343 2142 0
-171 39 288 2143 0
-10 -256 -288 2144 0
150 480 -489 2145 0
-219 -198 -314 2146 0
-371 194 -144 2147 0
-38 -70 133 2148 0
-364 484 253 2149 0
206 -123 200 2150 0
-425 494 -312 2151 0
310 -488 -234 2152 0
-241 461 409 2153 0
113 180 440 2154 0
326 -145 23 2155 0
492 -42 -34 2156 0
92 282 70 2157 0
376 491 -42 2158 0
491 127 238 2159 0
25 -296 -212 2160 0
-216 232 19 2161 0
-175 -9 -326 2162 0
96 245 -85 2163 0
-210 204 353 2164 0
456 -406 -52 2165 0
223 -159 -166 2166 0
-421 1 472 2167 0
137 -393 22 2168 0
351 37 458 2169 0
251 -296 -387 2170 0
-435 135 166 2171 0
391 88 -440 2172 0
-407 -256 69 2173 0
10 41 279 2174 0
497 -240 1 2175 0
-234 -183 94 2176 0
-214 36 -499 2177 0
-281 108 213 2178 0
-16 -77 -308 2179 0
-80 150 197 2180 0
336 -72 -404 2181 0
21 -295 -328 2182 0
-445 339 -359 2183 0
-258 -471 470 2184 0
204 55 -318 2185 0
-24 56 -128 2186 0
380 6 490 2187 0
365 305 -311 2188 0
144 120 -318 2189 0
72 234 12 2190 0
-252 -324 47 2191 0
285 -385 -39 2192 0
401 134 -213 2193 0
381 384 15 2194 0
-157 496 -401 2195 0
-23 214 -330 2196 0
392 -3 65 2197 0
-410 -338 -231 2198 0
476 -415 48 2199 0
362 -103 46 2200 0
307 456 -351 2201 0
48 293 -97 2202 0
-316 133 398 2203 0
403 -130 12 2204 0
-221 -161 338 2205 0
63 -412 -5 2206 0
-192 -119 53 2207 0
378 222 147 2208 0
-116 22 398 2209 0
17 483 -299 2210 0
354 130 -148 2211 0
369 167 158 2212 0
361 -97 495 2213 0
147 -389 -403 2214 0
-44 -466 51 2215 0
354 -147 63 2216 0
-27 -491 157 2217 0
-71 3 409 2218 0
-22 244 -309 2219 0
-391 -17 -368 2220 0
347 123 156 2221 0
495 266 232 2222 0
-382 78 129 2223 0
413 -162 337 2224 0
84 1 -494 2225 0
-376 489 -34 2226 0
-493 -339 45 2227 0
-252 -246 45 2228 0
-91 86 -466 2229 0
460 -49 204 2230 0
436 -174 450 2231 0
-340 26 -182 2232 0
-463 -426 77 2233 0
397 -110 382 2234 0
302 -306 459 2235 0
154 -60 -462 2236 0
-97 -397 -219 2237 0
-13 -116 -275 2238 0
-373 -231 287 2239 0
414 343 71 2240 0
-122 -126 86 2241 0
-69 364 367 2242 0
412 -490 381 2243 0
-455 -483 -65 2244 0
137 262 163 2245 0
-500 -407 -29 2246 0
437 234 -380 2247 0
380 -69 88 2248 0
107 157 -128 2249 0
305 424 336 2250 0
-353 -271 -489 2251 0
-121 -206 398 2252 0
55 275 94 2253 0
270 -318 -305 2254 0
-179 253 -264 2255 0
-438 -2 -75 2256 0
482 213 -161 2257 0
306 26 -272 2258 0
-23 -312 372 2259 0
169 -400 -401 2260 0
437 468 -239 2261 0
-3 -436 230 2262 0
-95 -337 -260 2263 0
405 174 -349 2264 0
25 28 -45 2265 0
-27 -344 487 2266 0
-295 84 229 2267 0
-451 450 420 2268 0
-397 490 47 2269 0
-258 -436 -225 2270 0
-307 -380 -216 2271 0
494 100 -432 2272 0
444 245 -435 2273 0
-177 318 323 2274 0
-209 428 -130 2275 0
162 448 369 2276 0
-388 -370 -250 2277 0
-452 186 462 2278 0
-283 -421 -13 2279 0
-232 288 -384 2280 0
-283 -275 -212 2281 0
2 -132 413 2282 0
138 360 -386 2283 0
-186 143 -390 2284 0
-78 -478 -467 2285 0
-291 -176 284 2286 0
-492 454 -99 2287 0
-250 133 -94 2288 0
-274 -166 -291 2289 0
-208 -104 -334 2290 0
349 40 406 2291 0
439 174 74 2292 0
400 93 46 2293 0
427 175 -374 2294 0
420 84 -279 2295 0
358 -43 416 2296 0
192 -5 -70 2297 0
345 153 -355 2298 0
190 263 -200 2299 0
-62 -240 -188 2300 0
34 488 230 2301 0
66 -389 -375 2302 0
-168 428 58 2303 0
388 148 -5 2304 0
-341 155 115 2305 0
-222 493 -350 2306 0
304 -299 -54 2307 0
-250 57 315 2308 0
313 -51 -278 2309 0
111 -159 194 2310 0
-320 349 -172 2311 0
-87 -176 -393 2312 0
-161 -420 -16 2313 0
160 -371 323 2314 0
339 -87 117 2315 0
-47 -27 262 2316 0
-52 -158 233 2317 0
53 -429 -286 2318 0
33 316 -100 2319 0
199 -230 447 2320 0
-332 118 302 2321 0
185 -390 -255 2322 0
-488 -246 -152 2323 0
-335 -41 50 2324 0
-442 -467 -242 2325 0
351 -46 -366 2326 0
139 -427 -475 2327 0
-24 77 -139 2328 0
-54 -338 158 2329 0
-485 -414 468 2330 0
-310 431 -182 2331 0
373 234 -21 2332 0
464 -404 447 2333 0
351 -243 -327 2334 0
-16 -422 368 2335 0
-462 -247 220 2336 0
-315 346 -110 2337 0
-187 374 275 2338 0
-48 -99 -328 2339 0
108 134 -327 2340 0
212 266 -224 2341 0
37 -6 -229 2342 0
-186 -445 266 2343 0
492 119 12 2344 0
349 446 375 2345 0
-313 -422 369 2346 0
117 240 -262 2347 0
267 -62 173 2348 0
-114 435 419 2349 0
-278 -401 -137 2350 0
-376 -96 -227 2351 0
-149 322 402 2352 0
74 -407 -353 2353 0
92 -324 -219 2354 0
228 62 449 2355 0
-321 73 175 2356 0
-416 -437 -399 2357 0
23 -438 -65 2358 0
154 -223 -376 2359 0
147 -352 -495 2360 0
329 212 8 2361 0
-180 463 490 2362 0
24 -163 10 2363 0
-205 -20 -278 2364 0
86 -370 -242 2365 0
43 103 -327 2366 0
48 169 465 2367 0
-61 217 -301 2368 0
-144 -96 234 2369 0
154 -75 160 2370 0
-349 -405 -35 2371 0
154 46 313 2372 0
-138 111 247 2373 0
-359 117 -374 2374 0
-337 166 316 2375 0
148 110 170 2376 0
290 -355 -361 2377 0
399 401 225 2378 0
433 -225 -261 2379 0
-444 25 380 2380 0
17 300 -485 2381 0
264 270 -380 2382 0
57 426 -446 2383 0
-362 -303 242 2384 0
-394 457 273 2385 0
117 -382 485 2386 0
97 353 418 2387 0
220 -31 11 2388 0
66 370 424 2389 0
-94 319 218 2390 0
367 -183 -419 2391 0
365 181 -430 2392 0
30 51 17 2393 0
191 365 259 2394 0
198 128 325 2395 0
-480 290 -48 2396 0
258 -45 394 2397 0
-211 142 -124 2398 0
196 117 -410 2399 0
167 433 -196 2400 0
-10 -415 326 2401 0
134 308 -273 2402 0
-92 -8 31 2403 0
-109 -98 120 2404 0
211 314 280 2405 0
219 146 -221 2406 0
-287 384 390 2407 0
139 52 -456 2408 0
-21 387 213 2409 0
-120 421 -313 2410 0
-263 11 -225 2411 0
-84 469 205 2412 0
-460 334 -464 2413 0
126 -13 244 2414 0
155 289 247 2415 0
-285 -348 -30 2416 0
307 368 458 2417 0
281 -103 159 2418 0
-386 -115 163 2419 0
396 208 393 2420 0
-405 67 176 2421 0
-192 328 296 2422 0
275 -405 -401 2423 0
-396 187 193 2424 0
76 138 -74 2425 0
472 -419 390 2426 0
340 -409 348 2427 0
92 -30 -43 2428 0
447 -327 -120 2429 0
432 -105 -266 2430 0
-195 500 -275 2431 0
-477 -437 296 2432 0
-176 -422 -408 2433 0
202 229 -335 2434 0
-132 89 -23 2435 0
-378 307 367 2436 0
-153 -143 -187 2437 0
-118 -141 -232 2438 0
-8 -446 -192 2439 0
-52 -319 -394 2440 0
-403 347 -183 2441 0
-367 -150 -340 2442 0
-354 22 -238 2443 0
483 -29 -432 2444 0
-326 -116 126 2445 0
362 74 -264 2446 0
-461 -80 -435 2447 0
338 -34 -491 2448 0
165 72 415 2449 0
401 -89 307 2450 0
1 454 -8 2451 0
-177 329 -255 2452 0
125 468 -173 2453 0
-320 -343 -280 2454 0
308 -85 360 2455 0
-117 -492 -152 2456 0
-163 -119 386 2457 0
187 400 271 2458 0
-426 360 -424 2459 0
-418 -313 415 2460 0
277 -252 -392 2461 0
-391 411 279 2462 0
-58 114 -219 2463 0
77 -90 352 2464 0
-316 264 319 2465 0
135 323 -171 2466 0
357 145 -346 2467 0
386 178 347 2468 0
60 465 -326 2469 0
-415 -228 -459 2470 0
223 90 263 2471 0
176 273 -91 2472 0
-53 -390 225 2473 0
87 -84 82 2474 0
-40 409 -117 2475 0
301 401 -423 2476 0
267 -34 -127 2477 0
453 -2 -275 2478 0
-173 -120 438 2479 0
-180 274 -319 2480 0
-220 24 150 2481 0
476 64 482 2482 0
322 -227 -24 2483 0
-292 421 -172 2484 0
-28 -257 -336 2485 0
489 392 151 2486 0
386 215 443 2487 0
-402 311 -322 2488 0
133 -170 416 2489 0
-179 -410 401 2490 0
-279 312 -373 2491 0
274 223 422 2492 0
-66 -38 29 2493 0
394 -216 298 2494 0
404 100 -338 2495 0
-331 71 252 2496 0
50 -455 255 2497 0
-362 424 -480 2498 0
-94 -59 -178 2499 0
-160 54 45 2500 0
-457 -181 -278 2501 0
326 -441 360 2502 0
-81 381 173 2503 0
334 -222 -161 2504 0
159 311 -164 2505 0
196 -91 258 2506 0
-403 287 277 2507 0
160 -215 399 2508 0
417 -465 53 2509 0
-408 431 -455 2510 0
-131 167 320 2511 0
30 -390 343 2512 0
434 33 -494 2513 0
-437 -357 -359 2514 0
-378 -309 -23 2515 0
338 402 -389 2516 0
-49 -366 455 2517 0
237 -355 -365 2518 0
-368 128 -428 2519 0
-302 121 422 2520 0
275 98 257 2521 0
-187 -481 -320 2522 0
-401 498 -50 2523 0
287 277 -457 2524 0
57 399 5 2525 0
109 -230 -41 2526 0
-333 -33 -392 2527 0
-194 62 255 2528 0
-449 57 18 2529 0
-246 237 326 2530 0
324 412 358 2531 0
-335 -241 56 2532 0
153 -89 -117 2533 0
-20 301 -163 2534 0
283 454 382 2535 0
172 -429 -355 2536 0
-494 393 -235 2537 0
209 429 -493 2538 0
259 460 -467 2539 0
302 -246 369 2540 0
-74 -300 344 2541 0
-65 -17 222 2542 0
-164 280 -4 2543 0
-416 -118 236 2544 0
-64 493 413 2545 0
395 -164 343 2546 0
497 -378 280 2547 0
-384 -7 -217 2548 0
-256 -273 -7 2549 0
7 58 371 2550 0
83 17 -92 2551 0
-264 -357 -235 2552 0
165 -91 -445 2553 0
-175 365 11 2554 0
-229 242 301 2555 0
-4 -145 160 2556 0
132 341 435 2557 0
-167 -358 40 2558 0
97 60 378 2559 0
195 33 280 2560 0
-387 145 -240 2561 0
-314 -471 -450 2562 0
-430 -485 422 2563 0
-156 -279 -59 2564 0
187 78 64 2565 0
466 -62 -442 2566 0
-393 13 -343 2567 0
212 -479 297 2568 0
451 114 -26 2569 0
-258 299 -169 2570 0
-164 -400 260 2571 0
43 -337 400 2572 0
-468 393 223 2573 0
-8 -229 -142 2574 0
226 -127 -115 2575 0
193 -456 -361 2576 0
-308 -195 -253 2577 0
-324 408 397 2578 0
123 451 60 2579 0
436 355 151 2580 0
244 221 -353 2581 0
-432 44 -278 2582 0
268 -347 -138 2583 0
98 -484 475 2584 0
-200 11 141 2585 0
382 -9 -488 2586 0
233 344 -346 2587 0
-160 19 215 2588 0
-42 48 -492 2589 0
389 -377 -120 2590 0
423 -323 -361 2591 0
-485 109 -151 2592 0
-146 485 292 2593 0
-186 308 88 2594 0
124 151 -319 2595 0
341 -483 -489 2596 0
114 -202 -365 2597 0
-29 260 -108 2598 0
-76 194 164 2599 0
-473 -45 -429 2600 0
-152 -169 -114 2601 0
268 -1 26 2602 0
113 65 -469 2603 0
105 -149 -195 2604 0
-80 -32 161 2605 0
-427 155 300 2606 0
-154 289 -148 2607 0
-381 -388 432 2608 0
-337 123 326 2609 0
-436 -251 250 2610 0
-438 237 -199 2611 0
23 154 161 2612 0
-427 -353 -210 2613 0
-458 450 407 2614 0
73 176 437 2615 0
426 46 -338 2616 0
9 -272 -281 2617 0
302 451 387 2618 0
34 -164 -98 2619 0
57 -421 212 2620 0
482 147 261 2621 0
-259 -314 -498 2622 0
242 481 -110 2623 0
111 -389 -348 2624 0
26 406 -197 2625 0
-135 -432 425 2626 0
66 309 191 2627 0
98 -135 184 2628 0
-460 -147 -237 2629 0
215 -407 -276 2630 0
18 -178 -132 2631 0
-243 -178 201 2632 0
-375 -89 -222 2633 0
97 -308 215 2634 0
-489 -420 -251 2635 0
419 -289 7 2636 0
-495 68 -246 2637 0
-470 -43 -282 2638 0
425 188 -458 2639 0
115 -199 -340 2640 0
-223 152 314 2641 0
348 -158 239 2642 0
187 -72 -355 2643 0
-453 -125 -36 2644 0
147 -90 -194 2645 0
-491 -374 -35 2646 0
276 324 -297 2647 0
-101 473 230 2648 0
42 187 116 2649 0
-455 87 464 2650 0
