p cnf 2650 2150
155 417 3 501 0
54 -463 -110 502 0
-114 22 238 503 0
-243 -201 -127 504 0
-214 -150 -469 505 0
475 -153 -5 506 0
-77 159 54 507 0
115 -380 -299 508 0
382 -155 -319 509 0
-412 -242 -99 510 0
-125 -129 -111 511 0
-128 -40 -116 512 0
-152 -177 256 513 0
131 -277 151 514 0
455 -51 294 515 0
138 24 358 516 0
69 150 316 517 0
-282 -265 -253 518 0
263 267 196 519 0
-173 -373 392 520 0
-27 390 -223 521 0
289 352 -305 522 0
189 -91 151 523 0
460 -396 -36 524 0
-468 -301 149 525 0
121 -373 -327 526 0
92 -72 315 527 0
-307 -147 -445 528 0
-105 278 18 529 0
-374 -177 -27 530 0
-287 462 -446 531 0
455 -55 444 532 0
496 -425 13 533 0
-306 193 -308 534 0
359 -66 -271 535 0
160 184 -76 536 0
481 -179 222 537 0
189 -129 74 538 0
-279 -189 12 539 0
-341 78 168 540 0
26 -219 -152 541 0
-382 -100 402 542 0
229 -14 -443 543 0
494 275 -478 544 0
451 -447 -181 545 0
-72 -491 353 546 0
-43 67 -291 547 0
-199 282 245 548 0
-441 483 217 549 0
-389 77 384 550 0
-333 -330 387 551 0
35 -331 340 552 0
-326 -430 295 553 0
-214 -394 279 554 0
-58 -311 -60 555 0
327 97 85 556 0
375 -218 -11 557 0
-65 -400 258 558 0
-367 -118 396 559 0
61 -44 313 560 0
272 451 -470 561 0
-71 -248 304 562 0
-314 108 90 563 0
-480 485 419 564 0
116 75 122 565 0
-160 -183 -145 566 0
-488 -147 -245 567 0
253 -221 317 568 0
477 199 -408 569 0
180 394 494 570 0
-443 3 -491 571 0
14 -500 -249 572 0
249 184 -375 573 0
296 -362 -27 574 0
-307 -287 -265 575 0
-308 -350 241 576 0
-203 -325 -105 577 0
108 122 -12 578 0
-44 -79 148 579 0
408 222 -415 580 0
-76 -396 -128 581 0
-396 276 256 582 0
-100 103 372 583 0
-76 425 -358 584 0
92 193 -102 585 0
194 -341 -322 586 0
-310 -246 254 587 0
-96 267 -438 588 0
-200 -104 -151 589 0
233 120 -308 590 0
-8 343 302 591 0
-283 -222 -251 592 0
-276 471 380 593 0
-68 423 -253 594 0
-117 -465 78 595 0
343 34 335 596 0
-500 -190 -450 597 0
-48 -200 454 598 0
-102 221 3 599 0
-133 34 153 600 0
-132 -18 476 601 0
94 -429 -371 602 0
-164 338 -126 603 0
416 224 -494 604 0
350 239 182 605 0
456 -494 -433 606 0
331 396 -313 607 0
126 365 60 608 0
-244 364 -465 609 0
-413 -10 249 610 0
194 -408 -242 611 0
-118 203 -357 612 0
-155 -407 -135 613 0
-167 -402 -236 614 0
-249 417 -150 615 0
-157 -310 461 616 0
304 67 341 617 0
308 -313 149 618 0
-463 -272 -70 619 0
-430 -475 323 620 0
-92 178 -306 621 0
-158 247 397 622 0
495 359 -227 623 0
-359 -22 -474 624 0
90 -110 -225 625 0
113 -60 -252 626 0
417 70 184 627 0
152 -204 203 628 0
197 411 157 629 0
-51 -446 174 630 0
393 -475 191 631 0
297 -454 -494 632 0
-44 -484 -379 633 0
-238 -357 -500 634 0
-103 73 439 635 0
-75 83 -169 636 0
-315 -180 -283 637 0
471 190 -443 638 0
332 -167 -306 639 0
484 -409 288 640 0
-85 -390 224 641 0
244 322 -188 642 0
246 -80 203 643 0
-221 337 -261 644 0
191 347 -92 645 0
-49 -331 -481 646 0
462 407 -481 647 0
-162 -195 293 648 0
431 -1 99 649 0
-439 -75 112 650 0
193 231 45 651 0
-25 375 -101 652 0
-158 212 -398 653 0
34 -199 431 654 0
-195 -199 -248 655 0
415 499 -147 656 0
-427 -351 429 657 0
-351 -194 23 658 0
481 -463 218 659 0
-258 -490 -100 660 0
226 -337 8 661 0
-107 483 -327 662 0
-299 4 163 663 0
-335 -431 452 664 0
-401 -354 -126 665 0
-268 146 476 666 0
-104 420 -11 667 0
-491 449 -475 668 0
478 296 463 669 0
349 96 415 670 0
-423 167 455 671 0
449 -330 -15 672 0
317 -75 275 673 0
91 358 435 674 0
200 63 -499 675 0
320 -260 -349 676 0
-387 255 429 677 0
345 -469 -398 678 0
301 -215 -438 679 0
-412 418 -159 680 0
-143 14 271 681 0
168 332 410 682 0
-201 -412 166 683 0
486 334 -69 684 0
290 490 333 685 0
81 -166 98 686 0
-403 453 63 687 0
333 145 -269 688 0
250 194 -113 689 0
-439 -154 121 690 0
251 -374 132 691 0
496 -452 351 692 0
40 133 -23 693 0
428 -114 -206 694 0
31 -244 397 695 0
325 -209 -446 696 0
250 -16 342 697 0
-418 -264 429 698 0
-258 -259 -442 699 0
-193 -265 -272 700 0
-24 223 128 701 0
-9 -346 410 702 0
-99 -249 257 703 0
372 -451 -257 704 0
49 490 -475 705 0
-131 433 158 706 0
180 118 -54 707 0
52 -370 -239 708 0
-342 302 -180 709 0
-87 107 -443 710 0
-451 87 -223 711 0
-35 -498 -240 712 0
-274 -42 421 713 0
-175 -484 -264 714 0
42 469 154 715 0
304 460 203 716 0
-112 104 -151 717 0
105 332 -215 718 0
123 20 -483 719 0
-195 244 -217 720 0
-278 27 17 721 0
-215 -446 -281 722 0
-465 257 -156 723 0
-364 -448 -79 724 0
-88 259 -48 725 0
218 -146 389 726 0
89 -488 -414 727 0
106 -204 -90 728 0
-357 -105 -258 729 0
73 180 -126 730 0
-103 212 -10 731 0
-70 -457 434 732 0
14 343 -118 733 0
-9 151 453 734 0
443 238 274 735 0
264 -367 -122 736 0
-339 -212 -211 737 0
-235 275 -358 738 0
353 298 -68 739 0
-388 27 18 740 0
292 -48 121 741 0
-3 -269 -477 742 0
65 352 -329 743 0
-65 141 343 744 0
-356 305 -199 745 0
403 330 -104 746 0
273 457 14 747 0
363 390 403 748 0
186 181 115 749 0
-285 362 -27 750 0
-134 129 118 751 0
131 297 -107 752 0
251 440 -25 753 0
161 278 160 754 0
-55 -202 109 755 0
465 -381 436 756 0
154 460 412 757 0
472 -304 -285 758 0
-252 97 338 759 0
-43 17 -16 760 0
354 234 488 761 0
171 -147 327 762 0
491 -117 344 763 0
-302 472 -70 764 0
-136 414 338 765 0
-443 -200 -288 766 0
-344 -246 -271 767 0
-288 337 -259 768 0
-139 -270 -143 769 0
-308 272 -434 770 0
-405 353 -455 771 0
-474 -38 21 772 0
464 -215 -156 773 0
-410 427 391 774 0
63 374 -99 775 0
135 -480 249 776 0
454 445 -4 777 0
471 -314 -130 778 0
-413 -433 -126 779 0
-113 349 -45 780 0
276 371 368 781 0
89 -398 -10 782 0
-181 -288 323 783 0
79 -107 115 784 0
378 -263 437 785 0
-19 -311 -335 786 0
371 404 -219 787 0
-243 370 447 788 0
-479 442 178 789 0
12 166 -261 790 0
222 357 -109 791 0
-299 225 -306 792 0
78 -381 96 793 0
-388 256 -202 794 0
209 -364 416 795 0
-310 -50 452 796 0
-146 399 128 797 0
-121 340 -144 798 0
-234 -61 -94 799 0
-457 62 -131 800 0
-179 293 -26 801 0
288 423 -306 802 0
115 295 -51 803 0
-42 -403 -420 804 0
-211 -188 224 805 0
382 255 -354 806 0
101 -366 25 807 0
436 288 -72 808 0
442 329 28 809 0
-142 276 -495 810 0
-100 297 -347 811 0
-184 182 147 812 0
-483 -442 -135 813 0
-269 456 58 814 0
45 -489 -469 815 0
-149 138 18 816 0
-60 -240 -202 817 0
-62 198 196 818 0
3 191 174 819 0
-283 -57 441 820 0
79 123 -258 821 0
27 -413 67 822 0
-47 136 -231 823 0
-367 374 430 824 0
448 -289 470 825 0
226 142 -126 826 0
-94 413 183 827 0
-415 238 -79 828 0
346 20 -244 829 0
-483 453 388 830 0
195 230 284 831 0
365 117 417 832 0
450 460 -191 833 0
-468 489 406 834 0
-208 -483 305 835 0
-340 -80 136 836 0
27 -78 355 837 0
365 -40 -467 838 0
229 29 440 839 0
-106 136 -84 840 0
106 202 -487 841 0
-367 282 210 842 0
249 -106 -87 843 0
35 126 -315 844 0
420 -220 -434 845 0
45 -468 259 846 0
495 415 -492 847 0
-141 -251 485 848 0
6 -107 -63 849 0
148 89 -426 850 0
-229 173 493 851 0
117 -457 383 852 0
446 -254 287 853 0
-238 -152 317 854 0
29 145 369 855 0
-242 -298 301 856 0
-230 -454 -462 857 0
-500 -450 -224 858 0
91 -149 -293 859 0
-169 433 231 860 0
-471 -209 -115 861 0
245 337 346 862 0
-451 261 231 863 0
-7 -470 360 864 0
205 15 304 865 0
408 288 50 866 0
-343 27 -209 867 0
-496 181 -228 868 0
296 339 -1 869 0
-112 444 363 870 0
396 -392 321 871 0
207 301 -486 872 0
-130 -345 299 873 0
-75 426 -339 874 0
481 223 -289 875 0
-308 20 376 876 0
-391 120 430 877 0
360 90 -303 878 0
-59 -127 241 879 0
-415 -135 -309 880 0
332 244 94 881 0
218 374 -489 882 0
470 -485 143 883 0
-275 189 288 884 0
214 212 -426 885 0
-483 52 -244 886 0
350 -216 -374 887 0
460 333 -307 888 0
-180 -158 132 889 0
-392 83 -278 890 0
-117 421 5 891 0
51 144 -354 892 0
260 361 271 893 0
450 119 -300 894 0
-229 -391 432 895 0
-52 297 465 896 0
-57 328 -314 897 0
-473 291 263 898 0
377 446 236 899 0
480 -25 -239 900 0
-133 -148 -27 901 0
-223 -495 481 902 0
9 -242 -175 903 0
-483 362 -457 904 0
490 -499 84 905 0
-385 281 5 906 0
209 355 45 907 0
88 -209 -124 908 0
382 -26 324 909 0
-318 18 -369 910 0
60 161 -327 911 0
419 -155 -245 912 0
-60 -211 235 913 0
16 -106 -309 914 0
366 449 420 915 0
241 -210 -423 916 0
437 -20 -191 917 0
139 166 123 918 0
122 -332 425 919 0
373 116 378 920 0
428 127 -237 921 0
333 -214 263 922 0
399 -334 -121 923 0
500 -499 178 924 0
81 69 -231 925 0
9 381 222 926 0
-392 407 -373 927 0
377 -215 325 928 0
453 -336 98 929 0
-234 -146 334 930 0
-143 479 -36 931 0
-279 -13 -118 932 0
-447 323 -116 933 0
-340 -426 -337 934 0
-172 421 225 935 0
-76 123 272 936 0
74 -29 -410 937 0
-214 -171 227 938 0
380 -387 -145 939 0
402 348 -198 940 0
-23 -231 -456 941 0
-206 -269 96 942 0
-392 -254 -482 943 0
402 8 -188 944 0
219 263 184 945 0
-242 322 -429 946 0
186 357 288 947 0
286 -480 -115 948 0
-147 281 -135 949 0
-438 94 239 950 0
321 -395 329 951 0
-106 -445 -483 952 0
392 307 -104 953 0
-454 300 -402 954 0
-136 -216 -134 955 0
-443 410 -49 956 0
-33 -289 455 957 0
-489 178 -458 958 0
269 -71 -30 959 0
431 -227 -82 960 0
-186 -261 -146 961 0
150 121 -341 962 0
62 -456 -335 963 0
441 -189 209 964 0
15 293 431 965 0
-311 -478 -439 966 0
-9 494 184 967 0
-251 471 31 968 0
159 248 -46 969 0
-321 163 -487 970 0
-371 124 91 971 0
-211 361 124 972 0
337 189 -282 973 0
499 403 347 974 0
-293 -190 -316 975 0
-248 98 -495 976 0
232 -500 332 977 0
154 -498 200 978 0
51 -26 -257 979 0
149 -318 -485 980 0
230 196 163 981 0
-92 340 473 982 0
500 -249 478 983 0
-499 373 287 984 0
-193 415 -274 985 0
-70 81 11 986 0
-405 -14 445 987 0
-395 291 139 988 0
-154 392 -436 989 0
-185 353 -383 990 0
-208 441 13 991 0
172 193 -143 992 0
-46 -305 -375 993 0
85 7 -385 994 0
1 -335 -334 995 0
167 -137 -180 996 0
218 336 -373 997 0
120 80 296 998 0
-298 62 -416 999 0
231 -309 -12 1000 0
-496 39 -433 1001 0
456 18 -451 1002 0
-79 366 -30 1003 0
422 135 417 1004 0
386 -381 -150 1005 0
-97 371 -54 1006 0
-439 -72 -349 1007 0
322 -305 457 1008 0
-245 -186 425 1009 0
-282 -205 91 1010 0
-22 -361 -196 1011 0
-331 380 281 1012 0
-116 -197 -15 1013 0
146 -473 105 1014 0
66 -316 77 1015 0
392 185 304 1016 0
120 -359 -54 1017 0
132 -394 -332 1018 0
-424 -343 -6 1019 0
-261 461 393 1020 0
-288 -113 356 1021 0
321 -275 289 1022 0
-277 -492 81 1023 0
-166 -341 79 1024 0
-458 -446 -262 1025 0
-313 318 108 1026 0
179 321 -202 1027 0
-307 -453 -27 1028 0
467 120 -476 1029 0
-395 -379 253 1030 0
113 -318 211 1031 0
-180 -408 -156 1032 0
114 -342 415 1033 0
140 357 -210 1034 0
-459 305 -128 1035 0
138 -20 238 1036 0
110 191 -75 1037 0
-271 63 -393 1038 0
310 -25 273 1039 0
-230 -471 -63 1040 0
-227 -237 59 1041 0
-109 235 33 1042 0
215 423 395 1043 0
-80 487 -406 1044 0
-150 -177 -378 1045 0
-466 487 -338 1046 0
51 -313 -262 1047 0
351 -482 307 1048 0
5 446 119 1049 0
237 -102 147 1050 0
-369 -414 461 1051 0
-183 -348 365 1052 0
-110 309 -201 1053 0
-350 460 383 1054 0
-114 463 -453 1055 0
-227 -278 -55 1056 0
-138 270 59 1057 0
-231 55 -200 1058 0
242 -252 136 1059 0
362 -256 -487 1060 0
394 478 425 1061 0
-91 -237 190 1062 0
437 -387 415 1063 0
323 86 400 1064 0
421 -357 -35 1065 0
416 429 226 1066 0
98 215 441 1067 0
-344 477 -480 1068 0
-185 489 -372 1069 0
-53 -482 -11 1070 0
186 -254 -319 1071 0
218 -145 314 1072 0
299 -4 -67 1073 0
140 -5 -238 1074 0
67 381 -257 1075 0
-347 443 119 1076 0
468 367 -369 1077 0
-170 403 95 1078 0
-62 286 381 1079 0
-10 -245 -225 1080 0
-350 125 206 1081 0
354 -295 -28 1082 0
26 -58 -274 1083 0
43 -121 164 1084 0
197 425 441 1085 0
431 -363 423 1086 0
-209 -233 368 1087 0
163 -430 221 1088 0
47 437 333 1089 0
449 293 354 1090 0
-375 214 411 1091 0
41 -118 240 1092 0
-434 -94 -262 1093 0
52 -127 186 1094 0
170 79 -147 1095 0
-31 286 247 1096 0
263 419 -124 1097 0
49 164 -431 1098 0
-468 420 54 1099 0
-471 285 397 1100 0
497 384 121 1101 0
217 -109 385 1102 0
415 15 -481 1103 0
-264 40 -154 1104 0
-465 -365 134 1105 0
406 184 116 1106 0
352 74 342 1107 0
-366 -18 404 1108 0
183 489 -69 1109 0
-267 269 201 1110 0
250 -397 91 1111 0
-36 284 295 1112 0
166 283 -27 1113 0
118 -176 127 1114 0
-336 -205 206 1115 0
-152 -316 407 1116 0
52 354 -146 1117 0
-484 -298 419 1118 0
-122 -97 303 1119 0
439 60 -405 1120 0
-5 -30 407 1121 0
-424 -402 -60 1122 0
158 -385 167 1123 0
-170 264 401 1124 0
265 108 77 1125 0
-187 216 406 1126 0
104 289 145 1127 0
28 101 -314 1128 0
172 -359 266 1129 0
23 -490 -363 1130 0
-497 360 -90 1131 0
-364 -253 -199 1132 0
477 -447 344 1133 0
-62 73 -441 1134 0
-152 -163 112 1135 0
-346 392 51 1136 0
123 -24 -98 1137 0
52 -458 -460 1138 0
56 -250 -57 1139 0
-359 65 488 1140 0
172 -484 30 1141 0
-437 -161 410 1142 0
-326 -135 -278 1143 0
-345 337 283 1144 0
320 -214 -82 1145 0
178 324 -337 1146 0
-267 -227 -436 1147 0
-497 89 429 1148 0
-282 447 140 1149 0
-416 408 274 1150 0
430 -364 -376 1151 0
450 391 -387 1152 0
206 248 -310 1153 0
-36 32 478 1154 0
-473 379 154 1155 0
-440 -251 -15 1156 0
154 72 -412 1157 0
-428 -48 -333 1158 0
-407 436 468 1159 0
-66 302 -473 1160 0
163 -257 -356 1161 0
-172 -342 80 1162 0
-72 197 -210 1163 0
402 222 362 1164 0
-403 -162 433 1165 0
-94 127 35 1166 0
-191 106 259 1167 0
-112 -481 433 1168 0
-414 252 -267 1169 0
-412 146 -193 1170 0
451 26 123 1171 0
6 73 396 1172 0
-313 -144 146 1173 0
-437 250 -230 1174 0
373 213 -356 1175 0
133 -59 218 1176 0
-358 -368 416 1177 0
-483 46 229 1178 0
-215 418 -173 1179 0
205 89 442 1180 0
303 234 -154 1181 0
325 252 -232 1182 0
450 -94 -170 1183 0
247 353 239 1184 0
359 -121 445 1185 0
262 -418 378 1186 0
-242 78 -295 1187 0
-66 -488 349 1188 0
94 490 388 1189 0
145 -168 239 1190 0
108 83 374 1191 0
-476 -217 126 1192 0
-98 395 -397 1193 0
-174 104 -274 1194 0
-415 191 -278 1195 0
202 -459 -192 1196 0
-380 192 -379 1197 0
-366 419 401 1198 0
-415 44 94 1199 0
293 13 -24 1200 0
-165 -237 468 1201 0
190 442 -485 1202 0
-285 -496 372 1203 0
-418 -277 466 1204 0
-145 459 -63 1205 0
209 455 -148 1206 0
198 -226 -45 1207 0
252 363 -495 1208 0
477 238 -61 1209 0
-209 348 -205 1210 0
-30 288 438 1211 0
30 -458 -177 1212 0
-95 433 -87 1213 0
212 57 379 1214 0
-452 -300 -472 1215 0
362 -275 -445 1216 0
-277 413 -322 1217 0
369 267 -422 1218 0
-166 335 130 1219 0
384 60 404 1220 0
-439 -421 94 1221 0
452 -230 -481 1222 0
10 353 -387 1223 0
-135 -216 -188 1224 0
406 279 205 1225 0
-404 -244 -339 1226 0
500 -14 217 1227 0
68 206 232 1228 0
377 -282 396 1229 0
272 -249 -349 1230 0
435 -129 -10 1231 0
157 452 -438 1232 0
-494 -121 369 1233 0
-430 357 12 1234 0
94 -392 -390 1235 0
34 -283 161 1236 0
-315 100 73 1237 0
-345 480 -378 1238 0
-226 163 200 1239 0
-42 83 144 1240 0
-306 -308 -19 1241 0
202 239 486 1242 0
-169 -324 -433 1243 0
-431 -70 417 1244 0
244 -20 -334 1245 0
-484 316 -489 1246 0
70 461 115 1247 0
-336 247 53 1248 0
-405 251 -347 1249 0
-425 -294 237 1250 0
-13 -199 -160 1251 0
-373 -122 311 1252 0
17 378 -251 1253 0
-497 -57 -242 1254 0
13 -124 451 1255 0
-400 138 -438 1256 0
266 201 223 1257 0
28 240 243 1258 0
-40 -18 80 1259 0
49 -406 -476 1260 0
-346 -467 162 1261 0
-479 -135 -374 1262 0
201 -10 416 1263 0
-113 322 244 1264 0
132 458 315 1265 0
-437 -474 -28 1266 0
-240 -265 -111 1267 0
210 -399 103 1268 0
-499 285 450 1269 0
432 -424 -127 1270 0
-248 441 -132 1271 0
202 414 -273 1272 0
-164 121 -253 1273 0
-375 -422 295 1274 0
-33 2 -45 1275 0
-176 -361 21 1276 0
-228 435 -78 1277 0
494 -336 -493 1278 0
134 483 216 1279 0
382 404 -220 1280 0
155 108 -224 1281 0
-454 395 260 1282 0
363 200 141 1283 0
-76 314 -498 1284 0
243 -36 -232 1285 0
396 341 -235 1286 0
-436 -182 238 1287 0
471 -223 23 1288 0
-267 -266 -78 1289 0
373 309 -232 1290 0
264 -177 -7 1291 0
-459 -90 288 1292 0
-85 271 448 1293 0
362 305 250 1294 0
-166 69 -353 1295 0
-271 96 29 1296 0
-38 480 -409 1297 0
-403 -200 409 1298 0
229 467 -42 1299 0
67 -161 -33 1300 0
7 -355 280 1301 0
180 5 365 1302 0
383 -355 53 1303 0
-180 21 248 1304 0
166 -305 168 1305 0
297 -45 -435 1306 0
23 -84 -82 1307 0
217 -344 -276 1308 0
-237 -244 434 1309 0
373 -205 -283 1310 0
468 -227 113 1311 0
-373 89 223 1312 0
-380 410 491 1313 0
-162 -157 -9 1314 0
-433 -397 91 1315 0
439 -90 -279 1316 0
-354 364 130 1317 0
191 -305 -485 1318 0
-261 271 -412 1319 0
440 -193 -164 1320 0
-38 413 -426 1321 0
-417 -486 -107 1322 0
-135 293 -181 1323 0
-401 -460 -154 1324 0
139 -114 337 1325 0
386 261 336 1326 0
-309 428 -496 1327 0
-94 -160 -404 1328 0
-169 -479 -464 1329 0
-373 358 6 1330 0
224 400 -302 1331 0
-435 341 -382 1332 0
41 -480 -350 1333 0
-183 -83 372 1334 0
-495 -234 -17 1335 0
24 -353 195 1336 0
-174 312 -275 1337 0
-85 -308 142 1338 0
-44 -71 167 1339 0
122 -326 304 1340 0
-428 453 -20 1341 0
272 93 475 1342 0
-24 -381 -424 1343 0
250 161 112 1344 0
420 -453 -340 1345 0
234 367 -240 1346 0
198 -245 -490 1347 0
-321 42 -271 1348 0
78 -146 -480 1349 0
-445 -474 -462 1350 0
-174 -387 -216 1351 0
183 -241 357 1352 0
343 -234 30 1353 0
313 60 -496 1354 0
175 455 155 1355 0
-201 167 296 1356 0
-404 177 156 1357 0
129 -327 192 1358 0
412 199 216 1359 0
225 -435 320 1360 0
-254 -373 89 1361 0
434 -355 -162 1362 0
86 75 48 1363 0
-139 -44 29 1364 0
191 -34 232 1365 0
475 -443 -125 1366 0
-172 -380 329 1367 0
203 -333 -380 1368 0
14 -485 299 1369 0
-202 490 -398 1370 0
23 15 -182 1371 0
-396 461 225 1372 0
-263 -202 -309 1373 0
-389 449 -338 1374 0
-115 -400 -392 1375 0
500 -83 -312 1376 0
86 140 441 1377 0
299 294 348 1378 0
79 -458 -466 1379 0
92 -112 210 1380 0
-265 -80 405 1381 0
207 -482 94 1382 0
-284 465 -276 1383 0
6 -182 -65 1384 0
-56 460 -100 1385 0
157 165 -277 1386 0
-10 15 473 1387 0
-450 -228 -344 1388 0
240 49 -489 1389 0
-447 -392 57 1390 0
-168 -202 396 1391 0
-215 -46 -316 1392 0
107 -384 -307 1393 0
-344 215 155 1394 0
-99 -344 -248 1395 0
200 -259 -336 1396 0
239 -488 -252 1397 0
-51 -403 -474 1398 0
-350 454 227 1399 0
391 334 -347 1400 0
209 -494 -312 1401 0
307 -262 408 1402 0
180 -339 -478 1403 0
478 493 269 1404 0
119 257 -177 1405 0
-459 -288 427 1406 0
225 58 61 1407 0
453 -252 425 1408 0
-158 -51 345 1409 0
282 -4 333 1410 0
487 206 -6 1411 0
98 487 75 1412 0
470 -48 -341 1413 0
-199 87 -205 1414 0
-281 418 -131 1415 0
400 -426 63 1416 0
-5 -241 -461 1417 0
-95 260 59 1418 0
405 -374 -106 1419 0
-101 295 416 1420 0
224 186 -164 1421 0
-310 369 409 1422 0
408 370 205 1423 0
448 -229 323 1424 0
-35 366 -100 1425 0
-381 377 -137 1426 0
162 -105 181 1427 0
120 482 494 1428 0
90 32 251 1429 0
411 117 -196 1430 0
33 -129 194 1431 0
181 142 69 1432 0
198 -246 339 1433 0
80 -370 365 1434 0
-334 328 -243 1435 0
303 -93 -97 1436 0
119 78 141 1437 0
336 257 -441 1438 0
411 -119 -276 1439 0
-459 174 -351 1440 0
-219 91 317 1441 0
21 316 -333 1442 0
162 182 -449 1443 0
3 241 486 1444 0
399 45 -344 1445 0
-153 -497 12 1446 0
-256 -179 -324 1447 0
112 16 441 1448 0
136 170 160 1449 0
-293 95 124 1450 0
-437 -50 -342 1451 0
478 -435 268 1452 0
-167 -131 -500 1453 0
419 -48 -331 1454 0
41 368 -200 1455 0
-298 474 92 1456 0
-337 309 -46 1457 0
-347 497 -476 1458 0
416 -29 84 1459 0
-24 135 -455 1460 0
314 -297 307 1461 0
323 492 161 1462 0
236 243 239 1463 0
-322 -233 -49 1464 0
79 -197 483 1465 0
-91 198 281 1466 0
-135 -163 -93 1467 0
56 -405 304 1468 0
108 354 -467 1469 0
28 -489 249 1470 0
-255 102 -135 1471 0
437 -294 -342 1472 0
344 -244 200 1473 0
51 217 -434 1474 0
-213 -365 403 1475 0
80 67 486 1476 0
-59 -221 360 1477 0
-157 118 -466 1478 0
105 319 -67 1479 0
342 -240 366 1480 0
373 -136 455 1481 0
-286 -495 -90 1482 0
-36 -202 143 1483 0
282 -214 -261 1484 0
-120 -161 -193 1485 0
-421 -228 -43 1486 0
167 500 109 1487 0
420 -259 244 1488 0
-208 28 -244 1489 0
62 -360 -139 1490 0
-493 318 -333 1491 0
-310 -54 213 1492 0
-459 465 -280 1493 0
259 368 -111 1494 0
-8 -317 -346 1495 0
178 -443 -358 1496 0
-44 -374 -461 1497 0
414 361 -251 1498 0
-52 -353 244 1499 0
-420 109 392 1500 0
-13 403 -485 1501 0
-265 207 -194 1502 0
-79 -399 417 1503 0
1 77 477 1504 0
-326 34 212 1505 0
340 -478 108 1506 0
415 48 -478 1507 0
197 -342 436 1508 0
-149 -231 339 1509 0
394 -143 62 1510 0
-261 338 -417 1511 0
391 -102 132 1512 0
-126 -92 -424 1513 0
-257 -242 125 1514 0
383 295 -388 1515 0
-52 197 219 1516 0
-250 45 -74 1517 0
72 328 -3 1518 0
54 -296 -457 1519 0
-40 249 -206 1520 0
128 446 -257 1521 0
-20 73 337 1522 0
486 433 -239 1523 0
-397 123 -473 1524 0
-96 -382 267 1525 0
67 -487 -448 1526 0
-458 -465 283 1527 0
-373 -303 -86 1528 0
6 213 449 1529 0
-133 -221 274 1530 0
-245 -331 444 1531 0
-89 -224 -429 1532 0
61 -12 277 1533 0
-108 -435 236 1534 0
-468 -177 -168 1535 0
-275 -85 369 1536 0
-129 480 463 1537 0
-183 500 117 1538 0
314 -132 210 1539 0
336 -34 245 1540 0
-76 -151 -390 1541 0
61 292 235 1542 0
350 -98 239 1543 0
-73 -49 406 1544 0
-376 438 491 1545 0
-218 -71 -493 1546 0
9 -312 484 1547 0
-365 276 -411 1548 0
131 301 -177 1549 0
18 -302 -130 1550 0
433 -475 216 1551 0
-394 -135 364 1552 0
404 -166 102 1553 0
123 322 49 1554 0
-399 349 426 1555 0
-273 463 256 1556 0
-365 41 -152 1557 0
-240 459 -10 1558 0
-147 367 149 1559 0
-356 311 -277 1560 0
103 -61 421 1561 0
312 325 -286 1562 0
-48 -258 161 1563 0
306 426 -167 1564 0
-277 252 304 1565 0
-388 -37 378 1566 0
-439 46 -174 1567 0
359 211 385 1568 0
-277 -303 208 1569 0
-312 316 -230 1570 0
-43 414 -279 1571 0
105 64 118 1572 0
-372 483 138 1573 0
49 207 467 1574 0
221 -495 -116 1575 0
275 367 350 1576 0
453 -90 50 1577 0
-86 194 -351 1578 0
158 426 -247 1579 0
-162 -105 -401 1580 0
461 -285 136 1581 0
-210 86 -344 1582 0
280 144 91 1583 0
413 -158 -141 1584 0
56 -55 28 1585 0
210 -273 23 1586 0
-119 128 -220 1587 0
193 -8 128 1588 0
403 397 321 1589 0
-298 -383 262 1590 0
55 -176 -282 1591 0
-204 224 462 1592 0
277 409 102 1593 0
-201 405 81 1594 0
-113 -134 22 1595 0
337 -369 295 1596 0
16 -200 418 1597 0
457 -314 229 1598 0
453 -160 -261 1599 0
434 365 -416 1600 0
-141 -214 -315 1601 0
-151 -334 -52 1602 0
-498 492 45 1603 0
-173 -178 -38 1604 0
-255 -197 -1 1605 0
-382 -336 -374 1606 0
-435 341 -225 1607 0
292 -384 26 1608 0
53 371 293 1609 0
16 107 -305 1610 0
-368 363 389 1611 0
-68 -179 -174 1612 0
-439 186 228 1613 0
85 117 -82 1614 0
20 390 145 1615 0
203 -156 139 1616 0
-146 385 442 1617 0
214 -411 -94 1618 0
-453 60 -267 1619 0
65 393 322 1620 0
427 34 -174 1621 0
88 115 60 1622 0
-411 -457 300 1623 0
-182 276 235 1624 0
-224 183 257 1625 0
24 35 438 1626 0
70 461 57 1627 0
406 -144 -431 1628 0
-344 385 472 1629 0
192 -276 205 1630 0
-451 -340 -71 1631 0
135 -243 29 1632 0
-114 -447 430 1633 0
-105 355 462 1634 0
353 -422 -10 1635 0
-185 -68 -122 1636 0
332 188 -30 1637 0
-208 -331 406 1638 0
-365 236 -146 1639 0
-311 -198 -300 1640 0
-433 -173 426 1641 0
-284 -160 -245 1642 0
497 345 486 1643 0
-391 209 -134 1644 0
-110 -39 314 1645 0
446 158 -268 1646 0
203 -249 -348 1647 0
164 229 95 1648 0
138 323 399 1649 0
456 212 -8 1650 0
-337 347 467 1651 0
-302 -381 198 1652 0
-491 -292 259 1653 0
-137 -146 -480 1654 0
-320 352 367 1655 0
206 416 29 1656 0
-485 -34 -426 1657 0
-434 -384 258 1658 0
-386 -465 -230 1659 0
-93 -419 -6 1660 0
151 380 488 1661 0
-44 86 16 1662 0
342 234 153 1663 0
-110 -421 282 1664 0
-143 -129 -32 1665 0
-320 -330 148 1666 0
-443 91 -271 1667 0
53 234 -43 1668 0
254 386 -84 1669 0
-86 -82 56 1670 0
65 332 -97 1671 0
-246 -172 -475 1672 0
-486 -173 448 1673 0
-87 -272 205 1674 0
121 -355 292 1675 0
-374 38 216 1676 0
77 -493 -38 1677 0
-146 310 329 1678 0
253 60 402 1679 0
-324 -169 -241 1680 0
-395 421 121 1681 0
126 -385 284 1682 0
-209 104 229 1683 0
82 218 343 1684 0
-458 -492 364 1685 0
-113 35 168 1686 0
231 -20 -126 1687 0
-478 377 340 1688 0
367 233 -207 1689 0
267 107 -237 1690 0
-336 249 -478 1691 0
-72 -454 90 1692 0
-273 332 -199 1693 0
224 -63 -293 1694 0
-328 -94 -310 1695 0
56 392 224 1696 0
-162 -394 -97 1697 0
-93 439 -155 1698 0
212 33 -285 1699 0
479 -359 -458 1700 0
-364 -9 -319 1701 0
85 452 -421 1702 0
-483 229 310 1703 0
197 109 -373 1704 0
44 -9 -234 1705 0
-421 -133 297 1706 0
432 238 373 1707 0
-291 -397 478 1708 0
-331 -411 398 1709 0
-52 -310 23 1710 0
148 257 -102 1711 0
402 -430 434 1712 0
443 12 162 1713 0
-82 232 185 1714 0
377 -234 -214 1715 0
450 -280 296 1716 0
-61 67 -409 1717 0
108 -151 391 1718 0
-321 201 -291 1719 0
77 -138 103 1720 0
-122 309 -304 1721 0
450 343 -306 1722 0
88 -188 388 1723 0
253 480 341 1724 0
-113 110 -437 1725 0
329 -131 -200 1726 0
-124 -349 -361 1727 0
289 170 -328 1728 0
21 -235 89 1729 0
158 489 -228 1730 0
-99 -190 -488 1731 0
-184 -178 -367 1732 0
25 94 291 1733 0
133 -205 75 1734 0
476 -57 -16 1735 0
238 186 65 1736 0
47 87 -96 1737 0
-26 -246 -12 1738 0
46 219 -349 1739 0
-211 319 -43 1740 0
-339 231 -246 1741 0
483 114 250 1742 0
71 -377 90 1743 0
153 310 270 1744 0
-207 206 331 1745 0
-96 -6 92 1746 0
-311 -273 331 1747 0
-430 -400 -210 1748 0
-230 252 16 1749 0
187 -110 404 1750 0
-175 265 -77 1751 0
-389 33 105 1752 0
-341 267 -47 1753 0
-401 -9 467 1754 0
-287 119 -342 1755 0
-310 -459 -422 1756 0
374 -313 113 1757 0
-72 -426 -43 1758 0
25 -469 -54 1759 0
477 278 209 1760 0
46 -136 115 1761 0
-94 352 -228 1762 0
-257 260 -365 1763 0
162 -320 -150 1764 0
-500 -336 -207 1765 0
334 460 78 1766 0
403 -213 -347 1767 0
1 -109 -9 1768 0
136 -70 -176 1769 0
-417 476 39 1770 0
237 210 231 1771 0
-312 70 -496 1772 0
-489 369 386 1773 0
32 -228 311 1774 0
-151 -8 212 1775 0
-244 -284 200 1776 0
398 -403 -347 1777 0
356 107 74 1778 0
301 194 -193 1779 0
466 -15 -323 1780 0
436 -41 -457 1781 0
-8 -462 229 1782 0
392 27 82 1783 0
-21 25 -26 1784 0
-200 89 -17 1785 0
321 423 356 1786 0
-148 168 82 1787 0
-198 -114 -319 1788 0
31 -133 -267 1789 0
162 -12 463 1790 0
-238 -384 -198 1791 0
-70 264 168 1792 0
73 -185 -254 1793 0
-425 334 -231 1794 0
435 -27 -35 1795 0
-172 -471 154 1796 0
-381 -385 225 1797 0
471 372 -101 1798 0
17 -423 45 1799 0
354 209 83 1800 0
437 474 380 1801 0
-309 411 -47 1802 0
215 379 41 1803 0
1 -48 -18 1804 0
-436 -440 74 1805 0
68 -356 -129 1806 0
358 8 353 1807 0
308 -358 484 1808 0
432 57 -287 1809 0
454 32 -331 1810 0
359 -220 24 1811 0
-442 445 -45 1812 0
-120 -129 212 1813 0
-495 159 469 1814 0
174 482 -141 1815 0
400 133 -60 1816 0
309 226 -430 1817 0
121 -193 333 1818 0
-180 -496 -19 1819 0
-312 135 499 1820 0
-268 -135 164 1821 0
-460 -265 -3 1822 0
242 458 -20 1823 0
-259 427 334 1824 0
399 182 445 1825 0
170 -322 -348 1826 0
202 -327 22 1827 0
145 485 62 1828 0
-426 -428 -90 1829 0
215 -306 -262 1830 0
-311 -450 -202 1831 0
218 -47 166 1832 0
144 -327 -40 1833 0
-38 441 -158 1834 0
398 51 -306 1835 0
-252 -196 -494 1836 0
-82 -200 -301 1837 0
225 312 -472 1838 0
-360 -453 -302 1839 0
-122 -127 -338 1840 0
-9 -14 176 1841 0
-30 -74 457 1842 0
252 -336 -237 1843 0
83 -410 -368 1844 0
-99 13 24 1845 0
128 58 -294 1846 0
329 -160 -144 1847 0
-71 -208 -55 1848 0
-241 -295 -284 1849 0
498 -464 -251 1850 0
422 -413 -161 1851 0
-485 -62 -101 1852 0
-62 425 370 1853 0
196 379 -346 1854 0
-127 184 216 1855 0
-185 464 -358 1856 0
473 -252 -209 1857 0
315 76 -332 1858 0
221 -322 238 1859 0
-201 -266 398 1860 0
-326 126 156 1861 0
-78 314 178 1862 0
-50 -344 -416 1863 0
-271 -32 -213 1864 0
-72 -452 -455 1865 0
174 489 -169 1866 0
284 427 106 1867 0
-154 -203 489 1868 0
-219 -228 -221 1869 0
266 254 267 1870 0
495 -457 39 1871 0
-49 -296 223 1872 0
-454 339 421 1873 0
-93 116 230 1874 0
379 -303 -475 1875 0
-257 127 -179 1876 0
-137 -471 -168 1877 0
-423 -85 380 1878 0
-358 490 -366 1879 0
-177 460 66 1880 0
-115 -324 -329 1881 0
160 359 -265 1882 0
341 -492 -156 1883 0
-378 -262 -223 1884 0
21 174 -321 1885 0
-372 -181 408 1886 0
141 -54 373 1887 0
-342 246 299 1888 0
184 132 450 1889 0
85 302 -111 1890 0
200 -56 -431 1891 0
-76 275 112 1892 0
-493 -459 -386 1893 0
-234 125 222 1894 0
105 350 -416 1895 0
124 -165 75 1896 0
380 -102 327 1897 0
-328 -218 -464 1898 0
488 111 140 1899 0
-390 -40 -343 1900 0
-25 165 -150 1901 0
-33 189 35 1902 0
-77 288 253 1903 0
443 -50 -412 1904 0
-85 126 -137 1905 0
145 -397 -317 1906 0
-236 -48 -283 1907 0
370 -194 1 1908 0
423 -252 202 1909 0
-263 157 -413 1910 0
213 288 363 1911 0
165 414 145 1912 0
-194 438 284 1913 0
-364 -229 -405 1914 0
-294 -119 438 1915 0
-32 -146 -9 1916 0
-263 188 -213 1917 0
465 -30 -452 1918 0
-105 -460 425 1919 0
399 -315 -424 1920 0
-450 348 444 1921 0
-276 -393 93 1922 0
347 -483 57 1923 0
-197 397 32 1924 0
140 -128 360 1925 0
486 470 -75 1926 0
-195 -122 477 1927 0
-307 95 -141 1928 0
-345 -430 202 1929 0
-267 -23 350 1930 0
267 232 472 1931 0
-337 280 -426 1932 0
218 -208 72 1933 0
-311 -383 283 1934 0
-355 72 386 1935 0
-226 479 -305 1936 0
366 -439 198 1937 0
63 74 -40 1938 0
-164 -181 273 1939 0
-302 317 -162 1940 0
-173 48 392 1941 0
-233 -272 -294 1942 0
264 -150 433 1943 0
-375 -232 -447 1944 0
229 462 -416 1945 0
-145 214 425 1946 0
133 416 142 1947 0
274 -358 -306 1948 0
83 -10 71 1949 0
293 -241 372 1950 0
42 -144 356 1951 0
362 351 76 1952 0
103 216 -378 1953 0
367 365 478 1954 0
34 356 -290 1955 0
359 122 -201 1956 0
-415 12 198 1957 0
225 -142 -430 1958 0
481 -226 -12 1959 0
357 192 53 1960 0
-90 32 162 1961 0
-335 -293 449 1962 0
403 -278 437 1963 0
-51 182 277 1964 0
176 -260 -120 1965 0
68 337 -130 1966 0
101 488 62 1967 0
26 -335 -42 1968 0
171 -272 63 1969 0
244 -89 -58 1970 0
-154 445 -493 1971 0
229 -195 327 1972 0
-311 -174 129 1973 0
-156 201 -42 1974 0
-376 289 93 1975 0
494 68 -66 1976 0
453 466 109 1977 0
-341 -360 391 1978 0
-152 395 -108 1979 0
33 -453 95 1980 0
115 -255 -79 1981 0
-302 141 -209 1982 0
-283 -482 326 1983 0
-326 224 -238 1984 0
-64 -70 -35 1985 0
67 457 242 1986 0
196 107 361 1987 0
-497 -481 -272 1988 0
-375 338 12 1989 0
211 429 -294 1990 0
239 254 -450 1991 0
68 147 -102 1992 0
-257 261 -311 1993 0
-284 169 127 1994 0
-78 237 -252 1995 0
-305 337 84 1996 0
180 -41 300 1997 0
230 -420 -363 1998 0
-317 161 -436 1999 0
-460 -459 -124 2000 0
406 -444 -460 2001 0
-417 182 -341 2002 0
425 461 -371 2003 0
-79 -107 112 2004 0
135 -161 130 2005 0
202 395 -340 2006 0
-50 460 -246 2007 0
43 -69 421 2008 0
-216 -347 184 2009 0
-155 -438 235 2010 0
27 -155 299 2011 0
246 -352 234 2012 0
161 50 87 2013 0
412 -486 326 2014 0
-145 -115 -362 2015 0
137 -402 411 2016 0
-101 -68 -340 2017 0
-382 -58 -25 2018 0
352 -70 10 2019 0
-197 285 72 2020 0
-168 86 -37 2021 0
256 -90 -442 2022 0
30 -110 269 2023 0
177 297 -172 2024 0
50 456 -353 2025 0
243 -93 211 2026 0
-201 269 -236 2027 0
-214 -227 -97 2028 0
-103 480 77 2029 0
-111 -484 -187 2030 0
188 133 -433 2031 0
-264 464 3 2032 0
-105 70 -454 2033 0
495 -69 88 2034 0
-209 -67 95 2035 0
305 -132 231 2036 0
-45 489 -32 2037 0
-189 -409 -135 2038 0
122 -143 453 2039 0
225 1 -36 2040 0
-68 397 -321 2041 0
-39 -285 23 2042 0
-493 -241 -407 2043 0
305 386 -331 2044 0
450 -394 209 2045 0
-202 -249 247 2046 0
261 -421 -101 2047 0
-497 -286 419 2048 0
-306 -323 432 2049 0
-150 109 -386 2050 0
-381 -453 -500 2051 0
334 245 -230 2052 0
-114 -187 -217 2053 0
254 44 302 2054 0
255 -169 98 2055 0
75 -188 -449 2056 0
-351 6 392 2057 0
-419 -208 237 2058 0
184 -105 236 2059 0
-464 -299 48 2060 0
101 -207 108 2061 0
396 -294 -318 2062 0
138 -358 407 2063 0
202 102 256 2064 0
-234 -241 427 2065 0
-439 -193 -326 2066 0
170 233 -471 2067 0
79 63 364 2068 0
328 -217 -207 2069 0
109 -108 174 2070 0
312 23 211 2071 0
-396 -280 177 2072 0
-217 -168 -269 2073 0
393 178 17 2074 0
96 300 387 2075 0
-219 113 -310 2076 0
300 170 -417 2077 0
-449 346 260 2078 0
134 211 441 2079 0
256 -493 -414 2080 0
328 -317 -69 2081 0
-221 387 -277 2082 0
265 -441 327 2083 0
446 -189 348 2084 0
359 -24 -142 2085 0
406 140 -444 2086 0
247 -285 -459 2087 0
210 379 -150 2088 0
426 -47 308 2089 0
200 258 -155 2090 0
-394 186 -318 2091 0
75 259 -483 2092 0
473 496 -109 2093 0
139 -454 209 2094 0
-1 -313 -435 2095 0
317 150 85 2096 0
-176 305 -245 2097 0
391 298 265 2098 0
424 63 313 2099 0
162 77 -479 2100 0
-97 19 380 2101 0
-397 189 458 2102 0
-411 300 -158 2103 0
79 164 34 2104 0
-282 276 381 2105 0
-29 -466 482 2106 0
-166 -326 -79 2107 0
-441 -18 327 2108 0
-348 335 -14 2109 0
127 -475 -224 2110 0
349 478 -452 2111 0
-183 -221 -322 2112 0
460 -488 -52 2113 0
-334 45 -263 2114 0
232 -418 -344 2115 0
-278 -55 -25 2116 0
-77 168 136 2117 0
412 11 -328 2118 0
303 122 32 2119 0
403 79 -492 2120 0
450 -404 74 2121 0
291 8 108 2122 0
-203 338 49 2123 0
350 -64 -11 2124 0
-85 -150 442 2125 0
117 56 -107 2126 0
-19 247 52 2127 0
61 306 -481 2128 0
270 435 340 2129 0
-354 -278 -399 2130 0
-187 325 434 2131 0
-200 2 -476 2132 0
378 109 190 2133 0
117 -279 -19 2134 0
486 193 -176 2135 0
404 -268 -317 2136 0
338 275 -315 2137 0
-357 123 -396 2138 0
351 460 -272 2139 0
421 261 337 2140 0
33 193 329 2141 0
-316 -331 343 2142 0
274 111 271 2143 0
79 -92 -296 2144 0
24 -430 -271 2145 0
494 426 -81 2146 0
-158 84 13 2147 0
-243 301 -469 2148 0
95 -129 -390 2149 0
277 78 414 2150 0
-127 -54 -128 2151 0
-80 -427 205 2152 0
-498 -459 -416 2153 0
-445 -54 318 2154 0
-68 485 -458 2155 0
50 -253 -49 2156 0
-77 19 249 2157 0
348 -137 -65 2158 0
-9 227 82 2159 0
315 53 6 2160 0
184 -456 -371 2161 0
-434 -249 368 2162 0
144 -363 -49 2163 0
362 -48 -20 2164 0
-392 -192 -447 2165 0
-158 -358 296 2166 0
471 444 19 2167 0
-398 -396 233 2168 0
-135 482 74 2169 0
15 35 242 2170 0
165 102 373 2171 0
-408 140 -248 2172 0
181 -66 196 2173 0
204 -74 -493 2174 0
405 -357 -300 2175 0
401 -469 -260 2176 0
165 -93 369 2177 0
-423 -26 -425 2178 0
-455 82 36 2179 0
-59 93 359 2180 0
199 329 -295 2181 0
106 387 360 2182 0
-50 123 352 2183 0
133 154 -459 2184 0
485 466 476 2185 0
-17 -195 62 2186 0
-387 -246 -100 2187 0
154 119 -25 2188 0
56 167 287 2189 0
-293 -90 -386 2190 0
210 -15 -382 2191 0
-252 255 116 2192 0
308 44 -392 2193 0
35 183 -136 2194 0
75 -154 345 2195 0
29 -236 164 2196 0
-89 -458 362 2197 0
-71 82 -373 2198 0
97 244 -155 2199 0
-182 -180 467 2200 0
-489 -410 497 2201 0
-411 -343 -34 2202 0
-372 -116 442 2203 0
488 89 142 2204 0
-19 -448 115 2205 0
-192 361 434 2206 0
-373 -343 -35 2207 0
-322 -82 9 2208 0
-315 -173 147 2209 0
-268 380 -473 2210 0
-192 -137 -473 2211 0
-371 -350 401 2212 0
177 128 -132 2213 0
-251 359 185 2214 0
305 373 -481 2215 0
-359 5 179 2216 0
146 -19 431 2217 0
-198 53 125 2218 0
383 -312 -373 2219 0
-495 387 -275 2220 0
-498 -113 427 2221 0
-25 -120 449 2222 0
-228 428 445 2223 0
-471 431 243 2224 0
384 377 105 2225 0
-316 268 -368 2226 0
-95 131 480 2227 0
-203 455 42 2228 0
447 225 -169 2229 0
363 493 -483 2230 0
-177 -90 -119 2231 0
379 413 189 2232 0
-321 -274 -312 2233 0
-46 198 239 2234 0
-460 -101 99 2235 0
-218 238 -145 2236 0
-216 -490 -133 2237 0
428 -403 274 2238 0
-266 118 35 2239 0
480 6 470 2240 0
370 11 414 2241 0
-345 -257 422 2242 0
437 -220 -50 2243 0
168 -124 287 2244 0
349 -165 -201 2245 0
433 -13 364 2246 0
221 76 208 2247 0
218 -43 86 2248 0
-119 -273 459 2249 0
225 -322 363 2250 0
-249 -90 -9 2251 0
-277 -211 -135 2252 0
60 201 -412 2253 0
161 285 -16 2254 0
-202 319 420 2255 0
-203 132 -204 2256 0
-82 -302 -362 2257 0
-255 382 -27 2258 0
-320 -195 124 2259 0
323 -85 -285 2260 0
-60 -475 474 2261 0
-205 -254 218 2262 0
-415 301 121 2263 0
-186 -434 -37 2264 0
111 -73 350 2265 0
-186 -483 -38 2266 0
-117 480 217 2267 0
-248 -111 349 2268 0
-50 362 347 2269 0
12 274 -405 2270 0
264 -5 351 2271 0
314 -45 -296 2272 0
-113 243 -96 2273 0
-406 -87 -457 2274 0
-380 -388 -343 2275 0
-280 -208 421 2276 0
444 -242 -155 2277 0
-500 122 -158 2278 0
-326 -295 -124 2279 0
124 100 23 2280 0
224 19 131 2281 0
-294 421 131 2282 0
-218 366 23 2283 0
61 -47 -398 2284 0
249 313 86 2285 0
-78 -467 -119 2286 0
135 152 131 2287 0
279 486 -278 2288 0
108 252 482 2289 0
-487 93 -244 2290 0
-325 25 -8 2291 0
165 -131 -13 2292 0
199 73 52 2293 0
368 -40 -109 2294 0
-62 -437 298 2295 0
128 118 -269 2296 0
-371 -344 -146 2297 0
427 85 424 2298 0
108 -79 284 2299 0
-125 239 -194 2300 0
-363 320 25 2301 0
24 15 393 2302 0
-338 34 8 2303 0
288 -95 332 2304 0
-351 183 194 2305 0
483 135 49 2306 0
103 331 -209 2307 0
277 -360 311 2308 0
-226 7 -100 2309 0
126 357 -39 2310 0
-309 -338 -480 2311 0
400 -358 405 2312 0
76 65 108 2313 0
326 -115 -287 2314 0
447 324 -187 2315 0
292 -218 -199 2316 0
-474 401 -30 2317 0
-259 -299 -203 2318 0
-131 -169 -307 2319 0
31 -196 -224 2320 0
179 -9 432 2321 0
-296 207 213 2322 0
-129 -342 242 2323 0
-54 -370 447 2324 0
-236 51 13 2325 0
305 -108 369 2326 0
-315 -63 -480 2327 0
-169 -164 -42 2328 0
435 -314 487 2329 0
287 205 -161 2330 0
-321 -280 -26 2331 0
-71 -327 -337 2332 0
-454 -162 -59 2333 0
103 141 -248 2334 0
-285 -316 -17 2335 0
-323 -271 212 2336 0
117 -116 -212 2337 0
-21 417 -27 2338 0
-432 -482 -407 2339 0
-476 473 -120 2340 0
289 -280 212 2341 0
-267 -28 -394 2342 0
270 -438 18 2343 0
-227 -123 217 2344 0
-258 268 -44 2345 0
-188 -240 -386 2346 0
-293 -118 469 2347 0
466 411 97 2348 0
455 -461 -269 2349 0
113 -265 -357 2350 0
455 -196 22 2351 0
-457 -496 458 2352 0
-268 309 -52 2353 0
-399 200 480 2354 0
169 -342 -222 2355 0
286 -44 -464 2356 0
310 222 402 2357 0
-339 268 126 2358 0
-460 47 121 2359 0
-260 201 -78 2360 0
-339 333 -250 2361 0
223 -273 305 2362 0
378 -469 186 2363 0
-225 106 -324 2364 0
-147 -110 -198 2365 0
-116 387 382 2366 0
-297 -118 207 2367 0
-8 -315 426 2368 0
-93 450 -273 2369 0
308 123 478 2370 0
328 138 49 2371 0
-403 110 -124 2372 0
148 -484 -399 2373 0
-415 206 420 2374 0
-382 -449 -355 2375 0
-242 115 109 2376 0
363 366 -357 2377 0
-164 -24 218 2378 0
283 254 313 2379 0
-269 131 414 2380 0
-207 268 301 2381 0
140 -365 -178 2382 0
416 -160 252 2383 0
88 -483 473 2384 0
73 -184 -196 2385 0
-15 305 -313 2386 0
-448 406 123 2387 0
-151 57 -317 2388 0
53 161 265 2389 0
65 379 -145 2390 0
340 -10 468 2391 0
-368 69 402 2392 0
460 490 48 2393 0
-120 -315 -261 2394 0
-55 210 386 2395 0
341 289 -304 2396 0
488 131 289 2397 0
-248 187 260 2398 0
-442 -199 -287 2399 0
372 135 -48 2400 0
-364 -483 -98 2401 0
404 383 205 2402 0
-85 -332 62 2403 0
59 -290 373 2404 0
9 -147 203 2405 0
385 83 303 2406 0
468 353 -126 2407 0
-8 -361 248 2408 0
302 304 130 2409 0
-141 317 117 2410 0
1 -449 108 2411 0
-64 292 -444 2412 0
-270 372 -435 2413 0
240 229 -33 2414 0
-353 274 -11 2415 0
-299 -486 209 2416 0
-364 312 -73 2417 0
205 45 272 2418 0
149 -443 235 2419 0
29 310 392 2420 0
-296 193 -112 2421 0
448 -486 317 2422 0
11 387 386 2423 0
225 -197 -67 2424 0
324 147 387 2425 0
434 -344 407 2426 0
-386 363 213 2427 0
326 199 175 2428 0
-171 196 -161 2429 0
39 -38 10 2430 0
225 -252 -255 2431 0
-399 -170 -48 2432 0
243 -191 -455 2433 0
-103 332 490 2434 0
275 -81 319 2435 0
-8 132 -197 2436 0
-133 163 -427 2437 0
-499 -438 -58 2438 0
-111 377 339 2439 0
267 -352 249 2440 0
-175 180 83 2441 0
-233 217 -101 2442 0
212 370 -324 2443 0
-500 -287 90 2444 0
121 -273 94 2445 0
25 -234 6 2446 0
-485 -472 188 2447 0
-277 141 486 2448 0
-49 -481 25 2449 0
-274 -483 -78 2450 0
-380 -430 162 2451 0
312 -288 253 2452 0
-282 -70 295 2453 0
-184 -143 -351 2454 0
315 431 -228 2455 0
48 -247 -165 2456 0
428 -484 75 2457 0
-88 -183 65 2458 0
85 -477 183 2459 0
-417 -37 46 2460 0
-471 -124 -140 2461 0
194 192 -457 2462 0
484 462 -276 2463 0
-301 430 368 2464 0
64 -90 -97 2465 0
-238 -491 -271 2466 0
358 397 92 2467 0
-405 48 -39 2468 0
111 -241 214 2469 0
254 -117 449 2470 0
368 487 237 2471 0
52 45 -140 2472 0
-228 118 449 2473 0
469 45 411 2474 0
215 -69 -196 2475 0
477 -73 -117 2476 0
-56 -439 296 2477 0
-280 -320 154 2478 0
-87 -41 -152 2479 0
-55 262 -285 2480 0
-273 410 492 2481 0
426 -252 -8 2482 0
64 213 347 2483 0
70 -325 141 2484 0
-106 -412 187 2485 0
-315 107 322 2486 0
95 155 488 2487 0
-321 206 242 2488 0
-117 81 -268 2489 0
-229 450 473 2490 0
442 398 -317 2491 0
234 -424 -464 2492 0
-20 -282 64 2493 0
-484 194 -216 2494 0
-16 412 418 2495 0
348 -2 415 2496 0
492 -2 -325 2497 0
-125 -414 239 2498 0
345 274 -118 2499 0
-412 -395 104 2500 0
264 427 -273 2501 0
-123 401 -120 2502 0
9 -105 424 2503 0
174 -346 62 2504 0
-390 -225 170 2505 0
385 -341 -271 2506 0
-280 148 -129 2507 0
-266 326 331 2508 0
205 -93 395 2509 0
217 -160 454 2510 0
-313 -384 202 2511 0
-388 169 145 2512 0
404 -102 387 2513 0
215 203 66 2514 0
-181 209 383 2515 0
-71 -356 -185 2516 0
408 -357 -7 2517 0
-331 51 157 2518 0
457 -87 231 2519 0
-250 280 -198 2520 0
476 145 379 2521 0
104 65 13 2522 0
421 -433 328 2523 0
100 -253 -394 2524 0
-475 -232 -365 2525 0
-183 68 267 2526 0
-479 201 114 2527 0
224 263 132 2528 0
276 282 -163 2529 0
251 -332 71 2530 0
364 412 370 2531 0
187 489 -416 2532 0
-90 342 260 2533 0
-241 284 346 2534 0
405 119 264 2535 0
-222 78 34 2536 0
56 452 288 2537 0
409 -107 -248 2538 0
-349 265 -273 2539 0
-113 242 449 2540 0
370 -214 -473 2541 0
333 -178 -446 2542 0
61 297 8 2543 0
-23 -331 313 2544 0
-480 -402 302 2545 0
217 9 270 2546 0
93 395 -52 2547 0
227 -57 -468 2548 0
180 176 205 2549 0
252 -81 -172 2550 0
134 433 28 2551 0
148 -227 253 2552 0
-93 14 -240 2553 0
-148 466 369 2554 0
145 86 -404 2555 0
-438 470 84 2556 0
288 79 27 2557 0
16 -405 -367 2558 0
280 361 475 2559 0
-192 413 -39 2560 0
-325 -44 -380 2561 0
-408 258 485 2562 0
-70 -229 339 2563 0
-254 -463 -399 2564 0
279 -494 175 2565 0
467 223 -5 2566 0
86 -98 -349 2567 0
302 252 -123 2568 0
-41 -360 -346 2569 0
115 129 -422 2570 0
-66 3 190 2571 0
135 244 -107 2572 0
-119 407 -448 2573 0
4 -412 -11 2574 0
-253 297 370 2575 0
-61 105 -395 2576 0
-339 357 -108 2577 0
-410 489 399 2578 0
-61 -444 329 2579 0
136 -276 205 2580 0
285 -93 200 2581 0
148 -404 -58 2582 0
255 443 -374 2583 0
-372 391 47 2584 0
-355 -249 479 2585 0
-148 -386 402 2586 0
-66 423 263 2587 0
-392 481 188 2588 0
-299 -457 440 2589 0
80 391 -176 2590 0
-400 -330 22 2591 0
-16 394 -127 2592 0
-411 -325 479 2593 0
-452 -285 -429 2594 0
-398 -469 -258 2595 0
481 474 42 2596 0
21 -496 -147 2597 0
-53 -286 -132 2598 0
82 245 388 2599 0
37 -230 478 2600 0
198 136 -486 2601 0
-170 -430 135 2602 0
-188 459 -245 2603 0
196 286 -6 2604 0
236 -189 283 2605 0
268 287 485 2606 0
53 -374 407 2607 0
-368 -202 7 2608 0
218 158 -446 2609 0
-230 369 -499 2610 0
-230 -450 -240 2611 0
-86 -418 130 2612 0
-36 -331 205 2613 0
-453 165 296 2614 0
-123 358 24 2615 0
-39 -482 48 2616 0
-133 76 298 2617 0
439 264 186 2618 0
465 -461 29 2619 0
221 457 367 2620 0
44 -340 -106 2621 0
14 3 -251 2622 0
79 72 -417 2623 0
381 227 -257 2624 0
-350 -335 -376 2625 0
-16 -259 451 2626 0
-393 399 -120 2627 0
298 92 -420 2628 0
-296 -139 254 2629 0
5 -131 -189 2630 0
301 183 121 2631 0
333 228 430 2632 0
440 -255 76 2633 0
176 -65 15 2634 0
-247 -181 -461 2635 0
-252 154 449 2636 0
490 374 -49 2637 0
-278 179 -185 2638 0
232 366 191 2639 0
-453 -149 319 2640 0
112 -285 441 2641 0
421 452 307 2642 0
49 -6 347 2643 0
-303 -105 -4 2644 0
366 214 -408 2645 0
11 -387 -125 2646 0
41 -283 175 2647 0
495 172 183 2648 0
-485 -197 -433 2649 0
201 -81 332 2650 0
