p cnf 2650 2150
-183 332 244 501 0
387 271 339 502 0
-456 -404 -317 503 0
-165 115 310 504 0
-258 355 -155 505 0
-162 -354 -321 506 0
-165 -428 -241 507 0
-55 196 428 508 0
382 -146 253 509 0
304 295 -53 510 0
-321 -226 -424 511 0
474 -468 -94 512 0
-345 -165 411 513 0
-483 -487 402 514 0
-148 475 -316 515 0
293 269 -31 516 0
290 -484 -309 517 0
-426 146 399 518 0
39 333 366 519 0
-338 -287 383 520 0
329 -455 -87 521 0
472 249 -446 522 0
145 442 -490 523 0
204 359 -480 524 0
311 56 152 525 0
88 -24 107 526 0
-126 -475 465 527 0
-474 -183 116 528 0
218 -156 494 529 0
183 -46 257 530 0
414 1 -98 531 0
43 235 22 532 0
-445 -247 412 533 0
-82 185 -275 534 0
-363 388 -87 535 0
320 -299 431 536 0
-465 -17 -431 537 0
143 347 188 538 0
456 370 481 539 0
-100 25 472 540 0
-23 480 -182 541 0
317 215 162 542 0
443 -306 -55 543 0
342 54 -487 544 0
-45 -294 230 545 0
-444 -120 225 546 0
433 129 -277 547 0
48 270 -378 548 0
-98 212 163 549 0
-111 -52 160 550 0
346 177 -349 551 0
79 368 -192 552 0
36 -89 321 553 0
-423 265 138 554 0
-418 -446 -376 555 0
356 -140 476 556 0
-352 -108 320 557 0
466 259 105 558 0
-201 182 40 559 0
214 -419 26 560 0
-450 125 -382 561 0
301 -70 198 562 0
-184 -334 299 563 0
484 216 477 564 0
-255 -102 -319 565 0
-13 -479 491 566 0
-166 -101 -120 567 0
-85 365 28 568 0
-358 322 114 569 0
46 -241 -360 570 0
-71 -160 192 571 0
125 114 204 572 0
-132 320 221 573 0
483 -425 -103 574 0
-118 23 152 575 0
-484 -201 369 576 0
89 423 316 577 0
-485 96 265 578 0
-452 76 -124 579 0
-347 138 253 580 0
-226 403 -106 581 0
351 -131 -188 582 0
-327 51 -382 583 0
-129 354 -427 584 0
-293 -397 133 585 0
76 472 -286 586 0
-48 428 331 587 0
110 236 154 588 0
40 219 -44 589 0
151 500 157 590 0
112 -236 250 591 0
115 -41 216 592 0
270 250 145 593 0
-277 -244 120 594 0
-307 69 -105 595 0
22 255 -295 596 0
123 89 3 597 0
340 190 449 598 0
-129 197 391 599 0
-177 -356 206 600 0
-163 -237 318 601 0
346 390 -486 602 0
47 -110 -53 603 0
274 404 -393 604 0
195 -211 31 605 0
59 -88 178 606 0
-40 209 394 607 0
454 -472 96 608 0
-336 -120 -429 609 0
-410 -141 129 610 0
-5 -130 316 611 0
-361 335 66 612 0
-41 -158 460 613 0
-21 -407 373 614 0
491 -266 255 615 0
226 -136 -81 616 0
410 -73 -379 617 0
112 -476 196 618 0
494 392 63 619 0
460 323 290 620 0
-164 -80 -105 621 0
-254 308 311 622 0
-175 287 -167 623 0
-29 210 -404 624 0
295 276 331 625 0
144 -307 110 626 0
258 271 477 627 0
-362 287 25 628 0
-307 -274 366 629 0
397 215 220 630 0
-428 168 -409 631 0
70 -231 -48 632 0
323 -390 -181 633 0
8 -188 -210 634 0
-354 -80 -247 635 0
-183 421 -331 636 0
-47 -253 -348 637 0
446 300 -291 638 0
-296 360 -446 639 0
-52 -150 383 640 0
423 402 -385 641 0
386 -183 -232 642 0
-457 -181 307 643 0
-12 132 479 644 0
-186 68 397 645 0
398 351 445 646 0
409 429 491 647 0
-390 370 -116 648 0
-429 -112 -215 649 0
415 303 266 650 0
-435 383 436 651 0
275 -139 -454 652 0
-76 -220 -59 653 0
-159 -267 416 654 0
-450 -173 -395 655 0
440 -251 -442 656 0
233 170 197 657 0
378 221 -1 658 0
138 201 124 659 0
-466 440 416 660 0
-318 164 -357 661 0
50 -228 3 662 0
266 344 -468 663 0
-90 -129 -7 664 0
452 -262 284 665 0
-484 424 448 666 0
-344 -216 -50 667 0
321 -72 -296 668 0
-101 -75 235 669 0
-432 -112 479 670 0
-231 -347 -419 671 0
211 336 177 672 0
-347 350 -474 673 0
296 154 -453 674 0
-417 239 153 675 0
319 -225 -75 676 0
-160 -205 429 677 0
311 446 -35 678 0
370 -148 326 679 0
37 -385 46 680 0
199 -58 -386 681 0
158 -179 176 682 0
450 -128 -301 683 0
-261 -186 -498 684 0
-259 -469 -117 685 0
-39 96 416 686 0
-52 -386 -480 687 0
77 283 398 688 0
-14 310 324 689 0
363 -121 500 690 0
112 165 -463 691 0
-56 -277 -481 692 0
-14 194 -393 693 0
385 -268 409 694 0
-303 100 -435 695 0
130 281 -400 696 0
-213 493 -56 697 0
-386 167 31 698 0
255 274 -456 699 0
45 -179 -381 700 0
84 -495 -302 701 0
-35 -46 432 702 0
247 -485 436 703 0
419 354 85 704 0
406 -205 -308 705 0
43 140 -158 706 0
-126 22 285 707 0
-145 -366 -338 708 0
230 83 494 709 0
155 36 493 710 0
259 261 94 711 0
486 -352 433 712 0
94 -398 -408 713 0
-72 -231 88 714 0
-447 -369 -411 715 0
101 102 -128 716 0
-2 -228 113 717 0
-238 -370 408 718 0
-248 441 -65 719 0
-131 392 -315 720 0
483 -19 446 721 0
319 -374 370 722 0
-394 4 -303 723 0
-318 343 1 724 0
275 435 -240 725 0
274 62 49 726 0
-196 250 -214 727 0
-44 -468 -262 728 0
294 -340 -177 729 0
160 247 166 730 0
-122 -168 -91 731 0
-292 -44 -425 732 0
-161 138 -366 733 0
-445 345 120 734 0
-279 347 249 735 0
-296 45 -342 736 0
445 -233 -53 737 0
225 -294 393 738 0
-64 290 -176 739 0
257 54 -21 740 0
204 289 -412 741 0
148 -228 88 742 0
-323 -442 -277 743 0
115 -441 62 744 0
-305 93 -477 745 0
143 118 -288 746 0
364 -275 71 747 0
-86 372 -313 748 0
437 479 463 749 0
-460 271 249 750 0
324 431 368 751 0
-318 -64 -80 752 0
-338 237 370 753 0
471 -411 310 754 0
76 27 -229 755 0
-222 226 388 756 0
-451 -367 118 757 0
-220 476 -70 758 0
-287 265 -492 759 0
363 -16 -303 760 0
-37 154 355 761 0
-438 178 78 762 0
317 -163 313 763 0
291 -231 375 764 0
-418 73 -51 765 0
-179 105 183 766 0
-487 -361 -257 767 0
-209 419 62 768 0
189 -112 428 769 0
-49 -107 -423 770 0
447 133 235 771 0
218 -307 -337 772 0
106 -104 113 773 0
-313 332 -470 774 0
-253 2 -433 775 0
255 128 472 776 0
121 19 256 777 0
-380 36 -389 778 0
216 -341 -176 779 0
-404 -456 -332 780 0
-153 381 354 781 0
13 -477 -171 782 0
-304 130 467 783 0
-412 35 169 784 0
41 -369 421 785 0
273 180 -281 786 0
-1 42 330 787 0
362 179 -305 788 0
99 -289 -172 789 0
20 375 392 790 0
-121 -449 -188 791 0
138 -124 -443 792 0
328 -455 -74 793 0
224 -311 -293 794 0
206 -335 -171 795 0
-77 -136 -479 796 0
12 55 307 797 0
233 111 279 798 0
-366 -354 -62 799 0
283 108 105 800 0
-93 348 41 801 0
300 47 -351 802 0
-358 408 279 803 0
-287 289 -131 804 0
-160 231 -298 805 0
-382 365 249 806 0
-424 -213 -417 807 0
-31 168 -467 808 0
-440 -227 -80 809 0
-334 344 -265 810 0
174 122 170 811 0
-5 -252 241 812 0
291 420 -396 813 0
297 -253 151 814 0
349 99 186 815 0
-496 412 349 816 0
-299 -253 29 817 0
409 -45 -224 818 0
-281 347 53 819 0
-488 302 258 820 0
476 -242 -418 821 0
-91 -71 -479 822 0
453 -406 229 823 0
408 474 157 824 0
329 -247 -51 825 0
421 237 490 826 0
-405 -260 -328 827 0
-226 165 110 828 0
-235 -3 351 829 0
85 -405 480 830 0
72 -351 337 831 0
-338 353 -283 832 0
443 420 -280 833 0
65 -443 127 834 0
411 -433 16 835 0
-173 195 347 836 0
-329 370 45 837 0
104 165 488 838 0
-239 -356 -119 839 0
351 498 390 840 0
209 -446 224 841 0
-70 276 -161 842 0
-73 35 79 843 0
199 487 -305 844 0
482 -435 -243 845 0
-442 -479 -274 846 0
104 -287 -88 847 0
-437 -389 14 848 0
62 -63 394 849 0
-392 179 -345 850 0
380 444 -280 851 0
-365 87 386 852 0
308 -370 -249 853 0
4 -166 232 854 0
448 -424 -63 855 0
411 -230 6 856 0
33 -335 -207 857 0
438 120 51 858 0
376 343 327 859 0
206 -313 -302 860 0
-330 -92 -316 861 0
266 290 149 862 0
-455 242 -73 863 0
-318 -88 -428 864 0
-193 -317 -261 865 0
-474 -150 -229 866 0
148 278 -204 867 0
57 382 242 868 0
-1 324 119 869 0
349 -164 -376 870 0
100 -304 -36 871 0
133 341 384 872 0
53 -436 268 873 0
297 355 -338 874 0
22 333 -278 875 0
-148 -379 19 876 0
160 328 269 877 0
-199 -214 -322 878 0
366 466 -243 879 0
345 416 45 880 0
-42 369 -9 881 0
84 298 -122 882 0
-140 302 -435 883 0
-443 177 200 884 0
62 -336 104 885 0
157 -81 -104 886 0
143 297 -42 887 0
209 189 -77 888 0
6 307 123 889 0
396 392 -152 890 0
-292 -153 322 891 0
-492 324 -366 892 0
292 156 291 893 0
276 425 -269 894 0
298 225 350 895 0
298 228 346 896 0
188 54 328 897 0
454 -119 189 898 0
207 308 461 899 0
-239 -492 43 900 0
350 148 -227 901 0
-274 394 -31 902 0
-469 -58 78 903 0
-390 262 372 904 0
48 442 -66 905 0
-481 95 485 906 0
42 -83 -412 907 0
382 66 441 908 0
429 455 -6 909 0
214 -289 495 910 0
426 418 -90 911 0
121 -124 453 912 0
102 -493 447 913 0
93 180 -266 914 0
-63 166 -180 915 0
-415 358 -372 916 0
-76 208 -174 917 0
-125 80 -368 918 0
217 454 -398 919 0
-212 13 393 920 0
-478 313 -448 921 0
-346 354 200 922 0
-389 -489 238 923 0
-265 44 18 924 0
-334 203 33 925 0
-219 -392 -310 926 0
-401 -235 -26 927 0
30 49 -7 928 0
62 -200 -187 929 0
-250 -131 153 930 0
331 196 281 931 0
-402 247 -201 932 0
-353 -418 491 933 0
-344 329 -407 934 0
246 315 41 935 0
-361 59 60 936 0
482 155 346 937 0
3 128 -210 938 0
478 319 2 939 0
-396 415 39 940 0
-304 362 -45 941 0
332 128 148 942 0
-85 382 327 943 0
-430 -88 -230 944 0
2 5 32 945 0
-284 215 -318 946 0
305 -66 52 947 0
450 -424 412 948 0
-371 -477 -231 949 0
-425 -303 314 950 0
-297 -160 -431 951 0
363 51 342 952 0
-198 -406 -54 953 0
219 -483 -133 954 0
265 287 -88 955 0
-229 474 -62 956 0
-262 187 500 957 0
-295 -285 401 958 0
177 36 -280 959 0
32 343 -480 960 0
433 359 432 961 0
-279 -466 421 962 0
18 423 52 963 0
-269 57 111 964 0
451 61 -412 965 0
-27 170 -147 966 0
-223 157 274 967 0
211 -464 -91 968 0
198 -486 21 969 0
-114 -146 -457 970 0
159 122 -440 971 0
9 -244 88 972 0
-297 -103 119 973 0
-214 269 2 974 0
440 -203 -282 975 0
-150 414 313 976 0
-217 -249 304 977 0
-22 25 -110 978 0
-134 147 -487 979 0
141 418 -180 980 0
306 -390 368 981 0
-266 -8 -133 982 0
-184 -77 -486 983 0
318 -428 -422 984 0
224 -382 111 985 0
-469 156 215 986 0
-474 -267 -319 987 0
250 -224 -245 988 0
207 458 248 989 0
-239 -220 -151 990 0
-26 -135 335 991 0
449 84 381 992 0
466 -155 280 993 0
-216 -224 -467 994 0
-94 448 81 995 0
-131 -338 483 996 0
97 407 -185 997 0
-187 -368 -226 998 0
289 270 452 999 0
-52 -93 303 1000 0
201 -499 286 1001 0
-121 -232 -162 1002 0
-423 291 -87 1003 0
381 350 -385 1004 0
-19 -264 153 1005 0
26 -164 -392 1006 0
175 262 -2 1007 0
324 167 26 1008 0
92 -431 -203 1009 0
-342 232 -80 1010 0
119 359 75 1011 0
163 328 -155 1012 0
54 -56 -165 1013 0
-381 400 259 1014 0
53 266 -78 1015 0
-130 -394 7 1016 0
-381 422 -451 1017 0
-277 -410 456 1018 0
112 389 218 1019 0
82 -222 420 1020 0
-52 -203 1 1021 0
-446 36 -174 1022 0
331 95 -67 1023 0
74 273 -31 1024 0
129 -473 -124 1025 0
-154 262 291 1026 0
301 -230 346 1027 0
199 -5 358 1028 0
-198 -319 -409 1029 0
414 417 -355 1030 0
46 371 271 1031 0
-281 -6 -335 1032 0
416 -296 206 1033 0
-137 457 397 1034 0
189 -140 297 1035 0
-430 367 5 1036 0
-17 66 267 1037 0
337 221 257 1038 0
-122 282 -38 1039 0
5 -24 444 1040 0
118 18 -244 1041 0
-130 -95 -301 1042 0
149 447 -94 1043 0
-186 25 -436 1044 0
-44 72 410 1045 0
-146 -148 -97 1046 0
-129 -455 217 1047 0
-277 -50 -35 1048 0
-341 196 -166 1049 0
-224 187 -102 1050 0
30 387 -364 1051 0
485 -313 337 1052 0
107 384 421 1053 0
-226 453 -421 1054 0
476 -84 -464 1055 0
-477 473 -366 1056 0
19 -339 196 1057 0
172 183 -431 1058 0
-415 414 -68 1059 0
16 430 -13 1060 0
-207 -199 477 1061 0
-92 215 -292 1062 0
-348 -24 279 1063 0
-147 -498 -372 1064 0
238 202 462 1065 0
492 -312 152 1066 0
229 -431 12 1067 0
-370 181 -101 1068 0
240 -356 355 1069 0
-79 -90 -217 1070 0
-157 472 -363 1071 0
-286 -123 -404 1072 0
364 400 -246 1073 0
-456 -115 363 1074 0
348 382 465 1075 0
180 -367 -91 1076 0
-343 155 -72 1077 0
-56 -214 234 1078 0
288 -312 136 1079 0
-52 351 -349 1080 0
29 -459 -99 1081 0
-108 490 -310 1082 0
406 -211 -402 1083 0
16 -340 42 1084 0
169 -237 -140 1085 0
473 286 118 1086 0
-499 448 -36 1087 0
-71 -480 343 1088 0
-462 142 -363 1089 0
237 -236 391 1090 0
-44 -289 5 1091 0
-146 -430 -14 1092 0
-428 275 -62 1093 0
53 -199 -423 1094 0
-202 -208 471 1095 0
-294 -262 -48 1096 0
181 -162 260 1097 0
143 211 180 1098 0
-41 239 -320 1099 0
147 -213 -47 1100 0
-481 183 354 1101 0
-327 185 -203 1102 0
-438 -407 455 1103 0
-276 -358 129 1104 0
-193 -418 -278 1105 0
313 -384 -245 1106 0
-188 -465 228 1107 0
93 -455 254 1108 0
-309 348 -270 1109 0
-336 367 -476 1110 0
-286 357 468 1111 0
-235 -65 318 1112 0
-48 374 325 1113 0
300 444 -442 1114 0
-75 132 231 1115 0
12 -408 -205 1116 0
-126 -123 -228 1117 0
-241 -324 349 1118 0
-195 141 251 1119 0
-359 370 -390 1120 0
-167 -388 -137 1121 0
-226 393 114 1122 0
209 -48 -327 1123 0
-236 -237 -339 1124 0
-491 -430 151 1125 0
-172 -118 -288 1126 0
-78 475 -237 1127 0
133 182 442 1128 0
-241 9 -309 1129 0
-178 222 322 1130 0
-151 317 499 1131 0
228 63 -295 1132 0
303 262 -20 1133 0
-271 399 -147 1134 0
376 383 -60 1135 0
-6 295 326 1136 0
81 143 435 1137 0
333 275 472 1138 0
-239 -351 242 1139 0
218 -207 3 1140 0
-279 247 41 1141 0
347 344 178 1142 0
477 53 435 1143 0
-195 -114 -359 1144 0
-267 -313 -480 1145 0
23 -498 189 1146 0
31 348 -372 1147 0
342 224 -436 1148 0
-236 120 312 1149 0
146 -72 381 1150 0
178 314 202 1151 0
-190 -344 -128 1152 0
-371 -220 386 1153 0
-339 -17 -155 1154 0
-320 -206 184 1155 0
168 -142 -85 1156 0
212 30 -148 1157 0
-277 500 -210 1158 0
-241 -298 56 1159 0
-458 176 381 1160 0
402 130 277 1161 0
-174 -187 -367 1162 0
-270 -385 -485 1163 0
423 -496 -477 1164 0
-208 239 370 1165 0
66 499 -473 1166 0
-73 50 139 1167 0
270 -252 -409 1168 0
473 -159 -284 1169 0
-180 -150 -425 1170 0
-343 490 228 1171 0
373 -340 459 1172 0
332 426 206 1173 0
246 -67 315 1174 0
-324 -67 -51 1175 0
-43 193 144 1176 0
-449 292 -462 1177 0
-97 324 -71 1178 0
-138 128 -115 1179 0
-412 415 479 1180 0
-85 485 283 1181 0
-498 1 44 1182 0
-368 28 364 1183 0
-150 -155 -345 1184 0
-73 255 -174 1185 0
-268 369 -307 1186 0
407 494 -376 1187 0
-428 -86 355 1188 0
-302 -243 -345 1189 0
-87 336 -229 1190 0
-90 -268 237 1191 0
172 -126 161 1192 0
58 -148 -431 1193 0
-351 201 198 1194 0
-262 -253 149 1195 0
80 -415 248 1196 0
387 -386 438 1197 0
361 -343 -238 1198 0
-499 -130 -365 1199 0
-226 -375 -443 1200 0
212 -221 -358 1201 0
-243 -50 99 1202 0
-395 -103 -163 1203 0
49 297 404 1204 0
-273 374 -412 1205 0
-488 -448 -471 1206 0
-344 308 -389 1207 0
140 188 -305 1208 0
255 114 494 1209 0
121 -352 -46 1210 0
331 -20 493 1211 0
367 -384 193 1212 0
194 -482 15 1213 0
-353 -126 363 1214 0
-168 305 237 1215 0
257 -214 382 1216 0
-255 89 -264 1217 0
398 274 241 1218 0
-89 485 144 1219 0
181 -431 -236 1220 0
488 16 -449 1221 0
-136 154 407 1222 0
-72 -315 -64 1223 0
176 -422 363 1224 0
-167 -500 -94 1225 0
147 -450 474 1226 0
249 288 -38 1227 0
481 -447 289 1228 0
-75 160 489 1229 0
461 473 -433 1230 0
-297 130 -36 1231 0
-167 491 -196 1232 0
216 275 -126 1233 0
-445 126 443 1234 0
187 -107 -162 1235 0
296 -452 69 1236 0
-9 281 306 1237 0
-240 178 -280 1238 0
222 -3 -105 1239 0
-330 376 236 1240 0
209 478 3 1241 0
-483 -345 -142 1242 0
-154 243 -500 1243 0
-221 206 -187 1244 0
403 407 434 1245 0
-122 -140 -62 1246 0
-70 -45 -477 1247 0
-161 -320 285 1248 0
455 92 -159 1249 0
185 -206 62 1250 0
469 224 -132 1251 0
379 -497 -89 1252 0
-28 -383 30 1253 0
-111 368 -123 1254 0
-209 -314 289 1255 0
-275 469 -353 1256 0
237 333 -473 1257 0
235 319 -110 1258 0
444 118 148 1259 0
-460 -310 -449 1260 0
-175 89 -169 1261 0
-125 244 317 1262 0
-86 445 307 1263 0
-70 357 -311 1264 0
309 113 56 1265 0
491 112 -255 1266 0
-159 -36 -330 1267 0
201 -330 -317 1268 0
434 18 208 1269 0
352 297 328 1270 0
352 119 195 1271 0
449 -116 -351 1272 0
447 -385 483 1273 0
-61 -76 -72 1274 0
-168 171 -126 1275 0
345 -83 136 1276 0
445 -210 352 1277 0
-234 245 180 1278 0
-86 145 -225 1279 0
-13 69 236 1280 0
-129 -146 -492 1281 0
-126 -436 260 1282 0
-199 -356 -413 1283 0
-183 430 227 1284 0
-64 94 -331 1285 0
386 -421 -101 1286 0
-379 143 -389 1287 0
231 451 272 1288 0
187 325 214 1289 0
87 319 442 1290 0
-74 437 229 1291 0
394 472 -79 1292 0
377 -348 -135 1293 0
67 11 -397 1294 0
479 -361 489 1295 0
-69 -227 -28 1296 0
160 109 349 1297 0
23 -420 -98 1298 0
-486 147 299 1299 0
103 300 377 1300 0
-51 -254 -296 1301 0
197 419 94 1302 0
377 263 -316 1303 0
-8 82 400 1304 0
274 -365 -57 1305 0
126 229 -209 1306 0
390 -232 18 1307 0
-199 -120 20 1308 0
58 45 421 1309 0
114 -383 -387 1310 0
226 296 -153 1311 0
98 -448 -175 1312 0
95 422 -195 1313 0
20 -460 254 1314 0
-268 -391 -398 1315 0
120 -192 -146 1316 0
-120 277 405 1317 0
-377 256 -93 1318 0
-290 -234 153 1319 0
-37 373 -192 1320 0
50 92 -300 1321 0
-317 -186 -286 1322 0
-199 315 301 1323 0
436 320 -204 1324 0
-266 -146 167 1325 0
-240 481 263 1326 0
418 -477 -337 1327 0
-138 11 -494 1328 0
-139 87 369 1329 0
187 40 -16 1330 0
19 471 155 1331 0
-211 285 256 1332 0
175 -14 199 1333 0
-362 425 186 1334 0
-128 233 168 1335 0
143 85 228 1336 0
-445 -251 346 1337 0
-216 -249 -427 1338 0
208 136 -494 1339 0
90 -80 405 1340 0
335 68 -492 1341 0
268 417 -42 1342 0
-125 -334 51 1343 0
186 77 -398 1344 0
291 131 -297 1345 0
-69 -193 -407 1346 0
-10 230 300 1347 0
158 -118 -261 1348 0
-182 -354 -460 1349 0
70 -40 -401 1350 0
187 367 -89 1351 0
-103 -104 -288 1352 0
22 312 -472 1353 0
207 29 -190 1354 0
410 -224 2 1355 0
-451 243 -378 1356 0
-273 -268 445 1357 0
466 114 -20 1358 0
-95 279 446 1359 0
473 -112 -165 1360 0
-427 19 -293 1361 0
-161 -164 426 1362 0
-50 -405 463 1363 0
464 456 -304 1364 0
398 -1 79 1365 0
466 -475 231 1366 0
493 307 20 1367 0
-225 22 369 1368 0
101 491 49 1369 0
-387 131 -213 1370 0
236 287 37 1371 0
-152 -349 96 1372 0
-26 -331 -403 1373 0
-494 160 -411 1374 0
123 8 -26 1375 0
459 332 -165 1376 0
490 -478 -497 1377 0
250 -410 -233 1378 0
269 114 -23 1379 0
-125 -57 240 1380 0
-240 214 81 1381 0
-116 343 301 1382 0
348 471 -172 1383 0
472 66 -419 1384 0
-34 233 -179 1385 0
61 191 -377 1386 0
23 -159 277 1387 0
-319 403 110 1388 0
98 -76 -109 1389 0
-418 -151 113 1390 0
-111 -386 298 1391 0
389 -386 -197 1392 0
-418 -358 419 1393 0
-168 -243 229 1394 0
-303 -253 -190 1395 0
-476 -429 488 1396 0
353 102 254 1397 0
391 -71 174 1398 0
308 -155 -117 1399 0
-413 -134 -410 1400 0
196 101 -187 1401 0
-368 387 -358 1402 0
124 -95 -195 1403 0
167 -296 343 1404 0
71 -337 420 1405 0
414 342 -103 1406 0
-345 246 -323 1407 0
55 -211 -247 1408 0
-12 328 -22 1409 0
453 -358 9 1410 0
274 44 154 1411 0
-445 376 312 1412 0
339 -109 -78 1413 0
420 396 246 1414 0
250 274 140 1415 0
297 411 -209 1416 0
-235 -252 -230 1417 0
374 436 122 1418 0
-328 -310 112 1419 0
256 -464 5 1420 0
-140 292 467 1421 0
-457 159 -440 1422 0
75 417 -286 1423 0
6 -268 -24 1424 0
70 -410 348 1425 0
-18 80 457 1426 0
476 -131 107 1427 0
48 -85 363 1428 0
-413 374 180 1429 0
-95 253 375 1430 0
58 -276 149 1431 0
478 364 434 1432 0
-11 123 493 1433 0
73 416 -400 1434 0
450 43 -212 1435 0
-382 -462 -387 1436 0
304 374 296 1437 0
-284 75 258 1438 0
-372 -487 -122 1439 0
302 -267 72 1440 0
63 334 -307 1441 0
427 -319 -407 1442 0
-474 -30 60 1443 0
329 22 352 1444 0
395 -37 85 1445 0
-241 -133 -446 1446 0
-356 429 430 1447 0
-365 231 -476 1448 0
-196 256 55 1449 0
-79 -247 262 1450 0
-44 395 481 1451 0
-131 -284 -408 1452 0
369 -300 -412 1453 0
-382 -274 -451 1454 0
419 -12 148 1455 0
454 -135 -237 1456 0
-124 -207 -218 1457 0
278 188 358 1458 0
-233 -155 161 1459 0
295 -13 -114 1460 0
-417 216 444 1461 0
-113 -83 93 1462 0
-86 137 -109 1463 0
464 211 -423 1464 0
44 -331 -200 1465 0
50 -12 211 1466 0
-452 491 286 1467 0
-81 349 -479 1468 0
379 -174 302 1469 0
50 -147 -125 1470 0
49 -342 -126 1471 0
121 132 -80 1472 0
201 310 292 1473 0
-136 -344 415 1474 0
466 42 -333 1475 0
-245 -342 -74 1476 0
389 85 -257 1477 0
421 -99 381 1478 0
-51 -236 -159 1479 0
-327 -274 -100 1480 0
88 -399 -150 1481 0
447 -229 -285 1482 0
175 -463 222 1483 0
477 -22 -457 1484 0
-198 290 496 1485 0
-413 -382 -452 1486 0
-79 483 -438 1487 0
-392 -108 89 1488 0
415 454 -247 1489 0
-499 -426 390 1490 0
-53 -167 -97 1491 0
368 -387 170 1492 0
-49 -449 62 1493 0
-258 430 428 1494 0
306 263 227 1495 0
-328 -463 -241 1496 0
-351 -495 242 1497 0
288 10 -174 1498 0
-159 -9 -136 1499 0
-448 -476 387 1500 0
70 -54 300 1501 0
-374 320 -164 1502 0
-347 -214 223 1503 0
88 -104 -34 1504 0
355 8 116 1505 0
-473 470 474 1506 0
175 -86 -256 1507 0
364 -327 139 1508 0
71 -238 -222 1509 0
-80 -417 155 1510 0
369 -24 389 1511 0
325 409 -254 1512 0
-63 -54 -99 1513 0
-75 -115 -211 1514 0
463 343 -287 1515 0
-78 166 170 1516 0
255 -262 -462 1517 0
345 -436 -280 1518 0
482 -196 -307 1519 0
-353 -96 249 1520 0
-198 -72 327 1521 0
283 -138 -207 1522 0
-112 282 121 1523 0
-434 -321 264 1524 0
-231 -201 -244 1525 0
294 -235 -365 1526 0
-299 -47 -477 1527 0
382 -401 -435 1528 0
-216 351 244 1529 0
-282 129 238 1530 0
279 348 -46 1531 0
441 165 -222 1532 0
-371 -149 -82 1533 0
-91 61 132 1534 0
494 -270 -251 1535 0
-399 132 -145 1536 0
-190 -500 -13 1537 0
36 134 98 1538 0
-360 -361 226 1539 0
-431 -144 -190 1540 0
356 474 57 1541 0
-403 238 -374 1542 0
115 124 403 1543 0
-316 -198 89 1544 0
-297 -255 354 1545 0
287 25 391 1546 0
-60 -10 -38 1547 0
486 -218 -438 1548 0
310 319 -300 1549 0
149 -385 299 1550 0
367 -471 -105 1551 0
-166 -243 -482 1552 0
408 -26 -496 1553 0
283 500 -228 1554 0
-259 -28 -264 1555 0
7 177 172 1556 0
242 -131 -406 1557 0
380 382 -333 1558 0
-264 315 -423 1559 0
172 -243 -260 1560 0
-200 -236 137 1561 0
336 56 112 1562 0
45 40 -174 1563 0
-280 -45 -436 1564 0
88 -273 416 1565 0
-15 -80 -333 1566 0
361 248 -286 1567 0
-499 60 -179 1568 0
69 385 447 1569 0
-341 -438 289 1570 0
-47 105 -300 1571 0
-173 433 245 1572 0
329 -150 -336 1573 0
157 340 269 1574 0
-404 -434 -217 1575 0
-39 314 -348 1576 0
-365 2 38 1577 0
29 186 334 1578 0
-196 -287 194 1579 0
336 245 -45 1580 0
157 -410 -56 1581 0
379 -456 -325 1582 0
343 -322 -352 1583 0
-118 -257 493 1584 0
-366 177 -286 1585 0
489 -54 134 1586 0
179 -335 6 1587 0
81 -202 -103 1588 0
-268 -293 73 1589 0
208 -331 336 1590 0
-254 37 -367 1591 0
-209 37 392 1592 0
-46 -211 378 1593 0
-104 -12 -285 1594 0
-23 -148 -132 1595 0
189 -67 292 1596 0
13 -453 70 1597 0
393 -172 -370 1598 0
404 499 -288 1599 0
142 -423 27 1600 0
220 425 317 1601 0
-494 27 154 1602 0
-354 -99 -83 1603 0
128 299 35 1604 0
-149 281 -151 1605 0
-111 214 59 1606 0
-369 -480 458 1607 0
-270 -336 227 1608 0
84 -458 -438 1609 0
-364 486 96 1610 0
446 295 8 1611 0
227 -348 -86 1612 0
321 -230 -378 1613 0
141 173 -137 1614 0
-321 225 -89 1615 0
-229 -56 403 1616 0
15 -379 269 1617 0
433 -36 -320 1618 0
-434 285 -300 1619 0
-341 -110 -424 1620 0
-289 394 251 1621 0
307 213 -362 1622 0
-156 -406 -407 1623 0
5 75 277 1624 0
173 297 415 1625 0
328 312 -173 1626 0
-241 -120 -450 1627 0
336 418 -111 1628 0
432 -31 -491 1629 0
191 -107 93 1630 0
60 -495 -206 1631 0
163 -331 7 1632 0
-219 465 285 1633 0
435 128 -20 1634 0
-171 285 -148 1635 0
-465 -358 494 1636 0
322 -116 185 1637 0
138 -151 -447 1638 0
230 -352 -417 1639 0
143 124 -355 1640 0
-395 322 -418 1641 0
35 -389 -282 1642 0
-163 197 61 1643 0
428 -107 494 1644 0
50 -135 -9 1645 0
304 -283 -7 1646 0
-139 411 30 1647 0
-78 -483 -209 1648 0
499 172 -371 1649 0
115 -227 -399 1650 0
305 167 39 1651 0
-409 -359 52 1652 0
-353 -300 -424 1653 0
101 -251 489 1654 0
164 96 84 1655 0
-418 35 -288 1656 0
-419 21 279 1657 0
177 355 -41 1658 0
-413 348 61 1659 0
-85 -159 372 1660 0
-394 -87 351 1661 0
495 463 -147 1662 0
368 -267 -351 1663 0
-33 194 -466 1664 0
23 223 322 1665 0
270 -9 239 1666 0
-271 -36 435 1667 0
-193 58 348 1668 0
-79 256 266 1669 0
-73 -392 455 1670 0
24 498 398 1671 0
346 376 470 1672 0
175 -91 -114 1673 0
414 -128 -177 1674 0
93 147 365 1675 0
37 489 -119 1676 0
-318 -427 -359 1677 0
-60 -24 -21 1678 0
-151 37 -393 1679 0
168 374 31 1680 0
149 -63 466 1681 0
293 345 -163 1682 0
-142 -480 338 1683 0
-335 -192 307 1684 0
364 439 -4 1685 0
189 187 396 1686 0
-435 -158 -298 1687 0
-337 9 287 1688 0
473 226 -37 1689 0
126 343 -296 1690 0
321 -159 -378 1691 0
153 242 -132 1692 0
104 49 497 1693 0
16 253 -381 1694 0
445 -240 499 1695 0
-268 -261 305 1696 0
495 -23 455 1697 0
422 -357 -417 1698 0
27 456 -499 1699 0
-412 17 343 1700 0
-115 258 -254 1701 0
-495 449 75 1702 0
8 -104 354 1703 0
-145 246 397 1704 0
491 149 -77 1705 0
16 406 33 1706 0
-214 -45 303 1707 0
-41 411 242 1708 0
193 -52 -365 1709 0
-294 -445 -208 1710 0
-424 395 -275 1711 0
-214 25 -253 1712 0
185 -297 190 1713 0
-41 -426 -10 1714 0
316 145 487 1715 0
-331 147 -358 1716 0
-21 -226 -447 1717 0
113 -40 446 1718 0
420 108 -474 1719 0
243 -361 223 1720 0
-203 400 -378 1721 0
-418 301 113 1722 0
349 147 -242 1723 0
-337 404 -467 1724 0
-81 -90 -9 1725 0
313 -375 411 1726 0
-21 -11 -435 1727 0
120 420 -228 1728 0
20 126 350 1729 0
361 101 370 1730 0
-338 34 123 1731 0
352 -212 -215 1732 0
479 114 481 1733 0
-48 27 -344 1734 0
-334 -390 341 1735 0
271 -75 96 1736 0
-27 171 270 1737 0
266 -28 -177 1738 0
-484 347 210 1739 0
218 375 -145 1740 0
476 413 -225 1741 0
-367 40 149 1742 0
-219 -473 163 1743 0
-484 -268 204 1744 0
413 -50 29 1745 0
-104 -329 96 1746 0
-60 206 -163 1747 0
-475 130 -305 1748 0
188 378 327 1749 0
-169 186 -121 1750 0
487 -330 88 1751 0
-500 -408 70 1752 0
-287 354 425 1753 0
-336 215 -326 1754 0
-404 460 -68 1755 0
-21 237 425 1756 0
419 -178 -372 1757 0
-201 257 352 1758 0
197 55 487 1759 0
-389 327 117 1760 0
-150 400 61 1761 0
-222 -2 196 1762 0
280 186 95 1763 0
-82 -500 455 1764 0
-34 22 220 1765 0
-281 26 -106 1766 0
100 159 -183 1767 0
79 224 -188 1768 0
58 48 -180 1769 0
-433 -394 -313 1770 0
-200 -84 41 1771 0
-85 -356 229 1772 0
-473 427 456 1773 0
-157 8 -247 1774 0
-395 -49 -403 1775 0
101 -230 -393 1776 0
-256 29 -87 1777 0
-183 375 42 1778 0
478 196 75 1779 0
312 326 250 1780 0
396 204 357 1781 0
128 -271 113 1782 0
297 298 -99 1783 0
-196 312 238 1784 0
-141 111 194 1785 0
-12 450 13 1786 0
-346 233 402 1787 0
19 216 -239 1788 0
442 81 49 1789 0
305 -477 399 1790 0
-107 291 -380 1791 0
92 -440 343 1792 0
471 402 145 1793 0
-485 -423 -247 1794 0
35 230 -460 1795 0
-207 -296 -367 1796 0
-260 -175 406 1797 0
145 -344 276 1798 0
-198 -380 -257 1799 0
-230 -97 -110 1800 0
-22 -242 15 1801 0
464 -37 281 1802 0
321 274 241 1803 0
320 -76 6 1804 0
335 -84 157 1805 0
-257 481 303 1806 0
-31 127 19 1807 0
-353 -368 6 1808 0
205 44 -399 1809 0
110 465 -86 1810 0
304 268 334 1811 0
434 -191 -41 1812 0
32 245 403 1813 0
-309 -7 102 1814 0
227 -400 128 1815 0
42 -30 -499 1816 0
-7 419 189 1817 0
481 359 -81 1818 0
481 -44 -228 1819 0
7 -166 -192 1820 0
-257 460 28 1821 0
-163 491 405 1822 0
-47 -83 -208 1823 0
-95 102 367 1824 0
-104 -144 -237 1825 0
56 131 -371 1826 0
-81 -168 370 1827 0
152 328 473 1828 0
151 -27 -33 1829 0
81 -215 -41 1830 0
308 494 -199 1831 0
174 376 194 1832 0
400 447 -71 1833 0
474 290 -309 1834 0
120 292 -401 1835 0
-303 -287 116 1836 0
39 270 -192 1837 0
160 -67 -33 1838 0
-205 -78 45 1839 0
-31 -273 -474 1840 0
-200 -159 365 1841 0
-335 -406 -17 1842 0
226 -299 -98 1843 0
-58 78 -98 1844 0
424 -323 -291 1845 0
227 -370 -334 1846 0
-130 -266 454 1847 0
-333 -78 474 1848 0
69 -351 -34 1849 0
167 461 27 1850 0
-95 482 373 1851 0
-237 488 -250 1852 0
-417 414 100 1853 0
-83 -337 -57 1854 0
-292 -418 242 1855 0
410 -22 -398 1856 0
-369 -285 -136 1857 0
220 -474 -433 1858 0
-380 387 319 1859 0
377 409 -242 1860 0
467 118 -40 1861 0
-55 -206 -200 1862 0
-408 -424 58 1863 0
-108 469 434 1864 0
-118 -341 415 1865 0
144 -229 124 1866 0
-202 281 67 1867 0
-32 -195 -201 1868 0
-190 -407 213 1869 0
-65 -131 -311 1870 0
9 417 455 1871 0
167 323 -26 1872 0
-54 -148 -475 1873 0
-111 499 424 1874 0
-20 146 -400 1875 0
-380 328 313 1876 0
-75 179 193 1877 0
-478 76 -235 1878 0
-79 -233 20 1879 0
-277 46 291 1880 0
296 219 -33 1881 0
-49 294 -125 1882 0
-11 -447 67 1883 0
-361 -275 32 1884 0
315 -3 -174 1885 0
180 -334 433 1886 0
-269 -368 -148 1887 0
471 130 60 1888 0
-355 -399 -212 1889 0
-99 234 -178 1890 0
-50 406 -301 1891 0
477 226 310 1892 0
44 -130 -426 1893 0
-372 59 -151 1894 0
231 422 492 1895 0
-349 -285 395 1896 0
357 -267 -180 1897 0
-268 -328 -485 1898 0
220 227 -130 1899 0
-141 149 -39 1900 0
-39 -308 -359 1901 0
16 498 445 1902 0
154 165 443 1903 0
-436 431 485 1904 0
11 -236 -244 1905 0
-409 -160 -25 1906 0
352 -315 467 1907 0
434 74 -193 1908 0
-298 472 208 1909 0
88 -219 456 1910 0
441 -417 -201 1911 0
-487 384 67 1912 0
423 319 -49 1913 0
463 375 -396 1914 0
-217 230 -329 1915 0
250 -144 -226 1916 0
-476 -459 317 1917 0
446 -9 485 1918 0
-28 -261 -282 1919 0
-95 113 326 1920 0
-389 454 8 1921 0
16 -229 -456 1922 0
-93 250 160 1923 0
250 -240 93 1924 0
220 307 -144 1925 0
-304 -481 -131 1926 0
-188 -349 47 1927 0
235 206 -461 1928 0
-303 292 -121 1929 0
178 259 378 1930 0
37 418 -346 1931 0
-47 103 -65 1932 0
120 -145 -151 1933 0
460 -166 52 1934 0
464 291 -123 1935 0
330 -378 -180 1936 0
-321 276 153 1937 0
424 -127 -304 1938 0
-324 -182 141 1939 0
-360 -202 -324 1940 0
-329 -462 70 1941 0
318 170 77 1942 0
-499 438 480 1943 0
91 294 -395 1944 0
-490 119 -325 1945 0
-73 165 -14 1946 0
39 238 107 1947 0
88 -116 139 1948 0
190 -376 148 1949 0
-424 347 356 1950 0
266 162 261 1951 0
197 -424 -42 1952 0
460 -316 137 1953 0
490 432 11 1954 0
229 -6 -310 1955 0
468 161 -452 1956 0
313 -159 83 1957 0
93 -41 -422 1958 0
-443 472 366 1959 0
-287 232 124 1960 0
494 260 -442 1961 0
-224 -134 -373 1962 0
-3 440 362 1963 0
338 -472 333 1964 0
-238 -113 214 1965 0
-469 -143 -202 1966 0
-38 -344 -289 1967 0
386 252 -120 1968 0
-303 325 -127 1969 0
79 -328 -20 1970 0
-481 -253 304 1971 0
-155 -417 406 1972 0
-302 416 473 1973 0
-328 383 -245 1974 0
97 -366 -46 1975 0
204 -403 -333 1976 0
333 90 423 1977 0
433 308 -428 1978 0
294 -244 82 1979 0
343 462 -419 1980 0
-88 57 239 1981 0
258 342 -396 1982 0
-365 152 -27 1983 0
289 463 -398 1984 0
-126 213 -56 1985 0
-311 -331 -13 1986 0
-210 163 -413 1987 0
-30 -115 463 1988 0
163 431 -141 1989 0
-418 153 -339 1990 0
-393 221 333 1991 0
105 -70 174 1992 0
-316 381 -207 1993 0
-411 421 229 1994 0
336 -485 500 1995 0
-379 30 -433 1996 0
19 -238 414 1997 0
-8 306 -414 1998 0
174 -82 97 1999 0
285 -46 -398 2000 0
322 499 -30 2001 0
-41 466 -254 2002 0
-233 -305 245 2003 0
-81 250 -410 2004 0
-380 298 500 2005 0
-441 -483 -410 2006 0
188 -235 -426 2007 0
-284 -231 -176 2008 0
-31 -333 351 2009 0
398 467 -347 2010 0
-274 331 457 2011 0
-160 499 -204 2012 0
5 357 198 2013 0
-267 15 -273 2014 0
111 -109 494 2015 0
-271 -474 -493 2016 0
432 -43 -325 2017 0
372 -86 251 2018 0
131 460 -83 2019 0
-355 82 -288 2020 0
-192 109 -45 2021 0
-210 -18 476 2022 0
-91 118 -119 2023 0
270 -493 102 2024 0
-316 -425 -308 2025 0
346 -206 -261 2026 0
-214 -487 -338 2027 0
-275 -238 300 2028 0
-235 157 477 2029 0
-151 -379 190 2030 0
379 153 297 2031 0
74 -498 -483 2032 0
-271 -68 288 2033 0
-440 53 358 2034 0
-353 304 84 2035 0
-244 466 376 2036 0
478 -401 -459 2037 0
-80 -192 -143 2038 0
-494 -73 459 2039 0
496 -407 -387 2040 0
-67 498 -146 2041 0
315 252 281 2042 0
345 -289 -494 2043 0
80 -423 -58 2044 0
-309 316 248 2045 0
209 199 179 2046 0
283 84 119 2047 0
110 -312 -222 2048 0
258 -336 350 2049 0
317 -376 -320 2050 0
-499 490 361 2051 0
-135 -434 -170 2052 0
-59 123 120 2053 0
176 227 -393 2054 0
232 361 289 2055 0
18 -70 146 2056 0
-133 -134 277 2057 0
-215 -450 -406 2058 0
-212 -298 -300 2059 0
-370 282 -464 2060 0
-359 275 -43 2061 0
-68 294 -330 2062 0
-186 449 -398 2063 0
-182 225 -255 2064 0
-462 422 -90 2065 0
-398 -471 -499 2066 0
-233 -296 90 2067 0
-299 6 -178 2068 0
325 -174 -205 2069 0
-461 -497 362 2070 0
-252 -363 28 2071 0
265 245 -97 2072 0
-126 -147 136 2073 0
489 377 -212 2074 0
298 296 447 2075 0
1 -465 216 2076 0
488 -249 -414 2077 0
226 187 271 2078 0
-68 424 -55 2079 0
-421 273 -260 2080 0
205 -271 -500 2081 0
-382 389 132 2082 0
220 -254 443 2083 0
-86 -479 283 2084 0
-33 100 478 2085 0
444 -271 -338 2086 0
-437 431 -299 2087 0
-210 -164 141 2088 0
176 149 123 2089 0
-166 -194 -271 2090 0
-423 27 -262 2091 0
-51 -68 -119 2092 0
-402 16 86 2093 0
-401 232 282 2094 0
328 265 -450 2095 0
-311 278 7 2096 0
486 -487 33 2097 0
-171 -4 -162 2098 0
442 310 -197 2099 0
-78 60 307 2100 0
458 -306 239 2101 0
-137 130 -419 2102 0
158 326 -470 2103 0
-82 71 480 2104 0
308 -269 11 2105 0
156 320 -500 2106 0
170 366 261 2107 0
243 -276 417 2108 0
-14 131 -128 2109 0
116 401 -459 2110 0
284 -148 146 2111 0
-204 252 -27 2112 0
-82 162 -219 2113 0
-168 48 -199 2114 0
-179 -80 357 2115 0
463 457 408 2116 0
185 -386 -148 2117 0
371 174 203 2118 0
-65 -86 -496 2119 0
12 -318 -410 2120 0
101 7 333 2121 0
161 -96 361 2122 0
-354 -99 -106 2123 0
-332 426 -466 2124 0
-339 45 -272 2125 0
225 -22 -54 2126 0
259 -385 491 2127 0
-390 482 183 2128 0
7 -101 197 2129 0
44 220 -222 2130 0
-115 -480 286 2131 0
417 3 -166 2132 0
-426 -443 74 2133 0
-30 -350 -334 2134 0
470 -352 -303 2135 0
-422 48 332 2136 0
76 -68 248 2137 0
-478 315 -124 2138 0
-209 -10 -143 2139 0
185 -382 -297 2140 0
417 161 235 2141 0
488 -73 357 2142 0
42 398 -428 2143 0
308 272 96 2144 0
396 330 244 2145 0
241 -320 -40 2146 0
256 197 -147 2147 0
-73 213 -34 2148 0
424 -430 -117 2149 0
-127 393 -270 2150 0
-270 -423 -291 2151 0
48 80 -42 2152 0
299 239 306 2153 0
-96 -444 -22 2154 0
-378 -25 -404 2155 0
-77 166 -123 2156 0
-349 56 227 2157 0
-425 -12 19 2158 0
333 -157 -469 2159 0
-85 -28 -232 2160 0
105 112 -362 2161 0
370 -133 320 2162 0
-189 -379 -353 2163 0
231 255 -147 2164 0
-19 -75 294 2165 0
-417 -430 -389 2166 0
-464 -235 97 2167 0
321 -482 -20 2168 0
-328 155 -484 2169 0
-258 26 -51 2170 0
136 -296 217 2171 0
284 -459 472 2172 0
382 -498 -489 2173 0
313 487 64 2174 0
-296 96 204 2175 0
242 125 480 2176 0
-183 -72 173 2177 0
65 -11 40 2178 0
334 270 21 2179 0
429 170 -97 2180 0
-91 -31 -436 2181 0
-291 -146 213 2182 0
96 -267 -172 2183 0
347 123 73 2184 0
-311 -366 -333 2185 0
-171 410 476 2186 0
440 112 342 2187 0
-340 307 -406 2188 0
155 -356 -299 2189 0
-299 22 470 2190 0
-140 -253 241 2191 0
-153 -101 -472 2192 0
110 137 -23 2193 0
405 450 18 2194 0
157 424 190 2195 0
54 138 -357 2196 0
-319 399 494 2197 0
-473 435 297 2198 0
210 260 -466 2199 0
-342 -441 477 2200 0
-85 -439 -275 2201 0
370 -246 -320 2202 0
414 128 340 2203 0
144 -383 -175 2204 0
405 121 326 2205 0
21 -351 -139 2206 0
-160 463 32 2207 0
-166 278 146 2208 0
182 -101 6 2209 0
239 404 -158 2210 0
184 436 43 2211 0
-310 129 -292 2212 0
-242 280 105 2213 0
-488 130 209 2214 0
224 204 -408 2215 0
467 -416 -417 2216 0
-18 -359 458 2217 0
404 366 -116 2218 0
-91 -422 -254 2219 0
154 -364 399 2220 0
-8 279 -171 2221 0
-120 -56 452 2222 0
345 -150 -383 2223 0
75 344 471 2224 0
-30 -33 -16 2225 0
-33 -151 147 2226 0
96 217 339 2227 0
-403 341 28 2228 0
-40 -365 338 2229 0
-436 -8 -411 2230 0
-180 -76 -363 2231 0
-104 412 284 2232 0
-475 8 -119 2233 0
111 -486 475 2234 0
-88 329 -311 2235 0
187 -186 248 2236 0
-450 -85 -255 2237 0
-499 13 425 2238 0
31 454 42 2239 0
87 -37 -440 2240 0
-272 200 24 2241 0
-133 402 188 2242 0
-123 -362 402 2243 0
-280 -388 30 2244 0
-63 -473 -286 2245 0
-462 65 -371 2246 0
-385 -233 -24 2247 0
366 14 446 2248 0
-343 -286 -246 2249 0
-302 -184 -295 2250 0
-286 -346 -401 2251 0
214 309 -136 2252 0
-336 120 -151 2253 0
-241 223 -346 2254 0
-490 83 -101 2255 0
60 270 -57 2256 0
330 484 -186 2257 0
-495 -249 -110 2258 0
-367 -66 181 2259 0
92 57 -128 2260 0
67 -49 -156 2261 0
-99 -262 85 2262 0
381 275 7 2263 0
42 -154 96 2264 0
387 -391 324 2265 0
476 377 262 2266 0
329 -433 43 2267 0
18 186 272 2268 0
259 272 236 2269 0
427 22 224 2270 0
-159 -307 444 2271 0
204 -260 -451 2272 0
225 319 -172 2273 0
-155 -167 -330 2274 0
293 48 123 2275 0
227 -82 -151 2276 0
326 232 -231 2277 0
478 -154 24 2278 0
458 -446 454 2279 0
-451 455 95 2280 0
292 -223 394 2281 0
336 76 -314 2282 0
-91 54 -233 2283 0
-425 341 291 2284 0
-183 -489 -125 2285 0
-140 -486 -156 2286 0
306 497 -433 2287 0
-275 -412 220 2288 0
352 -142 478 2289 0
37 202 -324 2290 0
7 -59 325 2291 0
172 -282 311 2292 0
498 15 400 2293 0
73 -66 115 2294 0
353 -456 -117 2295 0
-482 -241 460 2296 0
-66 -300 447 2297 0
477 88 133 2298 0
170 338 191 2299 0
-239 -306 -77 2300 0
-403 -384 -313 2301 0
-390 90 174 2302 0
35 439 110 2303 0
391 -272 417 2304 0
338 -346 -479 2305 0
-438 -82 -317 2306 0
312 -279 243 2307 0
-96 337 -236 2308 0
414 401 -247 2309 0
-267 317 187 2310 0
229 -458 -157 2311 0
215 -53 117 2312 0
-174 -111 -456 2313 0
261 368 -99 2314 0
-271 199 178 2315 0
334 -452 85 2316 0
-372 -390 329 2317 0
89 -473 -367 2318 0
277 23 278 2319 0
-68 -201 -244 2320 0
22 499 -128 2321 0
322 69 150 2322 0
-316 -215 340 2323 0
465 352 331 2324 0
260 -119 2 2325 0
-49 -333 44 2326 0
-323 -223 -98 2327 0
-112 -222 -286 2328 0
494 -195 -119 2329 0
-422 -299 46 2330 0
455 166 -497 2331 0
387 280 353 2332 0
-346 462 132 2333 0
-459 17 -419 2334 0
-64 421 -201 2335 0
183 318 -297 2336 0
440 -196 -150 2337 0
-248 -499 -433 2338 0
-88 -174 -483 2339 0
-432 -215 -306 2340 0
-436 -443 -326 2341 0
396 -351 -245 2342 0
176 -288 -354 2343 0
-412 -330 -104 2344 0
-68 243 -77 2345 0
92 337 -282 2346 0
-94 250 -101 2347 0
446 -314 47 2348 0
417 87 -241 2349 0
432 141 -448 2350 0
-267 399 -427 2351 0
-59 -455 -411 2352 0
481 -12 -133 2353 0
413 -144 -233 2354 0
267 -373 369 2355 0
340 72 489 2356 0
224 149 313 2357 0
317 -13 115 2358 0
-314 168 -318 2359 0
-451 139 418 2360 0
-120 -14 -38 2361 0
-422 200 14 2362 0
-377 131 -296 2363 0
189 149 -8 2364 0
-488 -118 483 2365 0
138 117 -464 2366 0
234 49 271 2367 0
138 -441 407 2368 0
453 115 -410 2369 0
-285 272 -34 2370 0
-123 90 -389 2371 0
356 51 -497 2372 0
-382 -58 333 2373 0
-6 395 -173 2374 0
-67 -319 161 2375 0
-415 275 -199 2376 0
-408 -110 -245 2377 0
244 -41 -218 2378 0
-187 119 36 2379 0
-255 -351 -283 2380 0
-208 317 -299 2381 0
476 368 412 2382 0
143 205 -427 2383 0
260 413 -7 2384 0
-34 195 -52 2385 0
222 -443 271 2386 0
420 -152 307 2387 0
283 -342 -120 2388 0
121 -197 310 2389 0
-16 -33 -133 2390 0
211 -412 264 2391 0
-238 -274 183 2392 0
230 -459 477 2393 0
423 229 467 2394 0
-473 -286 -420 2395 0
263 343 464 2396 0
-491 499 -377 2397 0
344 423 402 2398 0
-317 -164 275 2399 0
147 -187 286 2400 0
-1 -339 -295 2401 0
-464 -25 -126 2402 0
19 104 96 2403 0
-392 138 -474 2404 0
314 454 -405 2405 0
409 -120 162 2406 0
305 -443 141 2407 0
317 57 85 2408 0
180 -74 364 2409 0
-365 -180 398 2410 0
-393 244 401 2411 0
57 -40 -293 2412 0
-182 -153 347 2413 0
-342 498 -362 2414 0
-407 425 92 2415 0
472 -16 -205 2416 0
-264 488 -57 2417 0
251 298 9 2418 0
-264 -256 203 2419 0
495 -464 336 2420 0
109 484 -331 2421 0
385 -265 488 2422 0
-427 -189 -86 2423 0
70 286 226 2424 0
474 -425 158 2425 0
381 147 -471 2426 0
-354 -14 160 2427 0
466 245 337 2428 0
-237 -282 432 2429 0
374 -29 22 2430 0
-103 -270 -409 2431 0
-457 -178 12 2432 0
-491 -169 -335 2433 0
-470 319 437 2434 0
449 364 -414 2435 0
469 -316 415 2436 0
-131 -117 -147 2437 0
-148 410 -211 2438 0
310 278 -56 2439 0
-419 212 -305 2440 0
-457 -71 413 2441 0
429 -235 19 2442 0
-122 -176 500 2443 0
-302 404 68 2444 0
-43 -159 -440 2445 0
3 196 11 2446 0
189 -33 -470 2447 0
-137 32 -6 2448 0
39 -101 -76 2449 0
-139 -492 -361 2450 0
-396 -296 -50 2451 0
-194 437 217 2452 0
-385 -60 111 2453 0
-199 486 289 2454 0
464 451 -222 2455 0
-467 -259 -110 2456 0
72 -305 -447 2457 0
-32 -156 -341 2458 0
-447 62 355 2459 0
-461 -173 282 2460 0
375 24 352 2461 0
-149 82 279 2462 0
226 432 261 2463 0
-313 243 283 2464 0
-312 -405 -262 2465 0
135 250 -119 2466 0
-372 -110 109 2467 0
419 -114 87 2468 0
-93 289 338 2469 0
74 443 18 2470 0
347 42 -358 2471 0
486 183 9 2472 0
-400 210 267 2473 0
-34 281 321 2474 0
455 427 293 2475 0
-446 -83 -48 2476 0
-177 198 -54 2477 0
-18 -166 378 2478 0
-66 299 208 2479 0
-337 287 9 2480 0
54 -319 -413 2481 0
-109 -199 214 2482 0
32 -161 -146 2483 0
403 349 -24 2484 0
-196 -395 -168 2485 0
5 71 219 2486 0
-107 -447 166 2487 0
-202 95 -237 2488 0
357 -241 -214 2489 0
82 -262 -167 2490 0
-212 293 398 2491 0
227 498 280 2492 0
497 -143 -343 2493 0
-41 279 -75 2494 0
356 227 -388 2495 0
-198 311 -357 2496 0
323 370 -44 2497 0
427 116 -68 2498 0
-474 456 -233 2499 0
40 481 -323 2500 0
13 5 -306 2501 0
-270 -265 -324 2502 0
-300 17 -273 2503 0
-254 494 212 2504 0
-90 -207 352 2505 0
89 187 485 2506 0
-284 -202 -329 2507 0
324 -227 -47 2508 0
-414 297 -142 2509 0
-39 -93 181 2510 0
-433 -94 362 2511 0
442 -274 -76 2512 0
-495 -350 289 2513 0
94 -120 -307 2514 0
272 500 -111 2515 0
81 77 26 2516 0
252 -457 355 2517 0
186 408 -201 2518 0
-498 -171 178 2519 0
453 240 67 2520 0
202 -98 -59 2521 0
20 -401 28 2522 0
-100 232 306 2523 0
221 -145 -190 2524 0
174 -283 -19 2525 0
210 -493 -95 2526 0
-498 -208 -240 2527 0
-147 -226 -487 2528 0
98 -432 13 2529 0
-142 -6 413 2530 0
-162 -277 385 2531 0
425 -455 302 2532 0
139 198 -39 2533 0
53 -221 319 2534 0
259 387 -427 2535 0
397 -487 328 2536 0
151 -428 478 2537 0
460 -137 202 2538 0
-403 -350 -126 2539 0
328 321 216 2540 0
-299 -81 -63 2541 0
359 348 -241 2542 0
293 -389 -339 2543 0
367 -404 -362 2544 0
-181 -427 193 2545 0
191 266 -11 2546 0
160 95 -103 2547 0
-49 320 303 2548 0
-412 346 193 2549 0
110 -206 33 2550 0
-434 310 -167 2551 0
-463 -129 -326 2552 0
356 -286 -256 2553 0
-166 243 -148 2554 0
-350 -491 395 2555 0
-165 240 -345 2556 0
-312 94 420 2557 0
-65 -461 267 2558 0
230 -414 264 2559 0
66 -17 205 2560 0
-248 378 -441 2561 0
-308 -56 11 2562 0
6 362 -386 2563 0
-146 -236 -132 2564 0
95 138 475 2565 0
385 -440 -242 2566 0
-376 -415 73 2567 0
375 -453 -79 2568 0
38 -453 415 2569 0
136 -40 -253 2570 0
-327 445 -2 2571 0
379 126 401 2572 0
446 347 35 2573 0
54 -53 219 2574 0
-52 -357 -291 2575 0
-470 -231 -326 2576 0
-74 -268 -186 2577 0
-63 40 29 2578 0
-347 34 -81 2579 0
-82 40 -479 2580 0
-123 -273 222 2581 0
-150 363 -51 2582 0
-233 -194 415 2583 0
333 288 -59 2584 0
-382 294 423 2585 0
37 -352 -270 2586 0
426 -312 -47 2587 0
5 -247 121 2588 0
165 -174 278 2589 0
-351 319 189 2590 0
-51 332 236 2591 0
-398 126 76 2592 0
-285 -321 -445 2593 0
-288 219 -123 2594 0
242 -488 240 2595 0
51 -406 197 2596 0
-220 -491 140 2597 0
-471 225 -280 2598 0
-120 470 39 2599 0
483 -374 147 2600 0
-485 11 444 2601 0
380 -161 -406 2602 0
-264 81 -283 2603 0
-112 -80 -136 2604 0
-17 312 -114 2605 0
187 301 -424 2606 0
-342 262 -69 2607 0
445 -26 265 2608 0
-138 130 -277 2609 0
221 -336 -440 2610 0
-449 -474 215 2611 0
-226 188 -53 2612 0
350 113 1 2613 0
-314 113 -298 2614 0
-392 343 -475 2615 0
-72 282 383 2616 0
415 338 -364 2617 0
-135 148 -346 2618 0
142 346 -224 2619 0
-436 183 262 2620 0
-165 224 -405 2621 0
33 232 221 2622 0
5 165 -119 2623 0
7 487 -90 2624 0
-45 -352 -299 2625 0
230 61 468 2626 0
227 158 248 2627 0
447 -312 451 2628 0
-449 -92 346 2629 0
88 -337 -118 2630 0
127 -82 342 2631 0
-83 277 -278 2632 0
404 227 188 2633 0
-126 -214 483 2634 0
-478 -184 120 2635 0
-118 -30 151 2636 0
-162 -201 -90 2637 0
299 368 405 2638 0
-165 452 -215 2639 0
-30 -292 144 2640 0
-280 301 -198 2641 0
-182 -383 -412 2642 0
-231 -98 325 2643 0
225 -386 382 2644 0
-177 -323 325 2645 0
337 -287 410 2646 0
431 -28 -335 2647 0
49 428 -259 2648 0
-395 461 -457 2649 0
238 -338 206 2650 0
