p cnf 2650 2150
79 -331 323 501 0
489 298 -167 502 0
262 -18 332 503 0
336 310 -160 504 0
454 361 123 505 0
-433 490 131 506 0
-147 -473 -100 507 0
-41 -142 -409 508 0
265 -228 -360 509 0
-462 -87 498 510 0
-379 -484 116 511 0
-300 68 134 512 0
-437 -470 -389 513 0
201 400 -334 514 0
-114 -205 323 515 0
-128 -364 -115 516 0
-252 250 291 517 0
386 165 28 518 0
310 -228 -219 519 0
-330 85 -221 520 0
-198 -109 -374 521 0
-114 -210 65 522 0
-375 145 361 523 0
-449 -432 -33 524 0
270 -85 -237 525 0
-357 -37 267 526 0
311 -325 -33 527 0
285 168 287 528 0
182 348 -118 529 0
-317 224 -52 530 0
298 330 -483 531 0
-499 -226 452 532 0
-161 433 -171 533 0
-392 -481 488 534 0
-400 345 -382 535 0
-191 -164 -183 536 0
-335 255 63 537 0
430 436 159 538 0
-82 423 -155 539 0
375 -491 -184 540 0
-498 412 156 541 0
-78 108 -79 542 0
74 -334 233 543 0
-318 -363 31 544 0
94 -481 -398 545 0
-420 -180 -41 546 0
-290 -286 199 547 0
-425 185 -409 548 0
-234 -438 -181 549 0
339 -58 -14 550 0
408 224 -90 551 0
-349 -121 21 552 0
-7 97 -157 553 0
-391 -353 62 554 0
-198 -37 241 555 0
212 247 -411 556 0
-193 -265 -30 557 0
234 -53 151 558 0
-417 443 378 559 0
-461 16 329 560 0
-464 394 312 561 0
-139 -191 133 562 0
-91 439 -322 563 0
232 -409 -414 564 0
452 357 -87 565 0
-75 435 -330 566 0
-231 -23 -13 567 0
128 3 194 568 0
53 331 -206 569 0
-340 151 -443 570 0
136 7 344 571 0
235 109 414 572 0
-468 -25 496 573 0
-186 -368 268 574 0
-218 277 -60 575 0
423 -396 -437 576 0
198 482 -160 577 0
140 438 -195 578 0
235 434 203 579 0
-110 -279 335 580 0
-207 272 40 581 0
371 32 -248 582 0
425 463 -84 583 0
238 165 12 584 0
-378 180 -95 585 0
466 -337 -27 586 0
-193 -8 -107 587 0
288 259 457 588 0
-73 443 -128 589 0
21 103 -95 590 0
83 -149 -85 591 0
234 -60 -294 592 0
115 402 -444 593 0
-98 254 -100 594 0
-142 -406 -286 595 0
49 344 117 596 0
-23 340 167 597 0
-98 -72 74 598 0
161 -475 -95 599 0
281 -474 320 600 0
90 -460 139 601 0
175 -320 69 602 0
-393 422 143 603 0
23 267 336 604 0
178 229 26 605 0
-372 -495 -349 606 0
100 -482 74 607 0
-341 368 -124 608 0
-382 -207 167 609 0
18 337 133 610 0
186 344 209 611 0
12 203 388 612 0
376 461 -348 613 0
143 324 -392 614 0
300 -485 -26 615 0
-196 361 246 616 0
-286 -189 -203 617 0
288 -375 478 618 0
194 468 -268 619 0
376 54 380 620 0
241 185 58 621 0
428 -17 62 622 0
474 -199 154 623 0
-82 -146 -495 624 0
207 492 -186 625 0
253 332 174 626 0
-131 -236 141 627 0
102 -236 274 628 0
-348 -40 197 629 0
141 4 -423 630 0
-271 -102 205 631 0
436 -235 300 632 0
-317 298 -254 633 0
171 -363 -190 634 0
254 384 456 635 0
20 357 -388 636 0
114 253 382 637 0
103 -349 -258 638 0
-45 -450 -212 639 0
233 -438 237 640 0
-421 445 -180 641 0
-53 134 135 642 0
18 -488 -37 643 0
245 316 40 644 0
-256 -202 151 645 0
119 448 454 646 0
-5 -118 -179 647 0
309 380 161 648 0
-64 277 210 649 0
-255 474 457 650 0
-426 222 -371 651 0
-89 -168 194 652 0
-332 -168 358 653 0
391 153 351 654 0
-270 -420 -251 655 0
273 35 -38 656 0
-491 -433 -443 657 0
305 256 159 658 0
90 -333 349 659 0
-343 -125 -477 660 0
-474 384 -396 661 0
-496 413 427 662 0
-455 -414 -16 663 0
-434 -319 465 664 0
-39 -496 -433 665 0
-422 314 -238 666 0
497 364 127 667 0
10 -349 365 668 0
274 -168 -349 669 0
253 126 330 670 0
-384 388 320 671 0
-348 391 -209 672 0
356 28 -182 673 0
477 368 -387 674 0
143 147 102 675 0
-202 37 -347 676 0
380 476 -493 677 0
-434 303 -374 678 0
-6 145 -436 679 0
-162 -454 -164 680 0
-284 -323 9 681 0
-262 184 -160 682 0
493 61 -497 683 0
-352 450 327 684 0
-85 -440 368 685 0
110 -257 -282 686 0
-10 312 342 687 0
396 -189 -267 688 0
351 437 -470 689 0
-276 297 -201 690 0
46 367 133 691 0
419 55 -155 692 0
137 -287 -68 693 0
175 -335 -226 694 0
298 -181 275 695 0
252 -168 -170 696 0
-467 -287 206 697 0
144 -455 -83 698 0
-359 383 -87 699 0
219 -103 -330 700 0
-386 -357 53 701 0
179 -5 462 702 0
368 231 -239 703 0
392 210 283 704 0
-447 474 -79 705 0
-231 184 -128 706 0
-276 -216 420 707 0
-23 -463 -379 708 0
6 357 -278 709 0
-162 -130 -299 710 0
-253 174 -142 711 0
-487 -347 -113 712 0
-10 -471 -326 713 0
127 196 -92 714 0
494 489 -3 715 0
-206 -168 -353 716 0
300 -30 128 717 0
18 487 88 718 0
-278 149 74 719 0
428 178 -468 720 0
294 229 485 721 0
-53 -35 255 722 0
-109 20 268 723 0
251 -112 400 724 0
324 389 -287 725 0
-27 -328 493 726 0
-302 -439 216 727 0
8 460 398 728 0
234 -485 -457 729 0
41 -26 -404 730 0
-361 -432 -89 731 0
-30 -131 -285 732 0
-124 210 -58 733 0
28 -441 174 734 0
230 -195 -445 735 0
454 365 -247 736 0
-63 396 -457 737 0
305 8 -218 738 0
-191 465 -484 739 0
253 -21 272 740 0
-215 459 -296 741 0
-426 318 408 742 0
-383 -259 -283 743 0
-257 -150 -469 744 0
-315 111 -82 745 0
14 -254 328 746 0
-293 290 -20 747 0
460 185 -122 748 0
276 -210 -196 749 0
-295 475 -449 750 0
140 -219 -463 751 0
224 488 214 752 0
129 -325 -190 753 0
-180 -356 -45 754 0
120 285 9 755 0
-388 152 -193 756 0
-257 -286 -492 757 0
119 -174 -489 758 0
374 143 -221 759 0
-170 -213 -433 760 0
-358 -301 45 761 0
114 68 264 762 0
362 -281 -272 763 0
-51 55 -71 764 0
-283 -434 -278 765 0
-393 -408 110 766 0
-229 77 -279 767 0
-255 -140 343 768 0
334 249 -114 769 0
437 56 -81 770 0
333 -477 155 771 0
-178 432 -425 772 0
-441 287 -467 773 0
-415 356 -91 774 0
-418 235 48 775 0
-479 395 491 776 0
-354 -435 -405 777 0
125 272 414 778 0
-51 -384 -367 779 0
-120 214 319 780 0
85 -133 -262 781 0
260 460 437 782 0
376 498 356 783 0
-211 -225 -91 784 0
-12 338 353 785 0
-336 -160 335 786 0
-307 -54 -206 787 0
427 -180 18 788 0
257 275 -244 789 0
-476 -373 -355 790 0
-340 -113 -213 791 0
148 228 -129 792 0
239 441 -291 793 0
-47 -407 389 794 0
116 190 80 795 0
75 -346 -125 796 0
-195 -196 448 797 0
74 500 100 798 0
124 39 402 799 0
107 109 372 800 0
337 -14 -127 801 0
234 171 286 802 0
265 426 -31 803 0
-20 -180 366 804 0
-234 469 363 805 0
28 -494 229 806 0
-471 -100 -478 807 0
142 -497 -255 808 0
-56 441 -262 809 0
227 -360 -415 810 0
102 -117 -328 811 0
299 -198 18 812 0
-458 -27 -178 813 0
393 -361 -326 814 0
-141 -112 -43 815 0
-15 276 256 816 0
-249 -211 386 817 0
270 -53 120 818 0
-359 -118 481 819 0
228 -463 -378 820 0
102 -10 474 821 0
-136 494 347 822 0
138 265 -483 823 0
-124 -320 409 824 0
-121 267 -406 825 0
-379 424 300 826 0
-118 279 3 827 0
95 216 130 828 0
-275 -448 -293 829 0
-221 6 -101 830 0
-185 196 -6 831 0
268 -202 -21 832 0
479 -177 -370 833 0
56 -282 406 834 0
-267 270 133 835 0
-82 476 322 836 0
-178 -20 12 837 0
384 -107 -451 838 0
14 -26 -446 839 0
-381 157 -410 840 0
262 122 291 841 0
411 283 -260 842 0
-84 -447 498 843 0
148 483 -286 844 0
-291 216 -422 845 0
-107 -123 -379 846 0
-281 76 -179 847 0
180 -96 -82 848 0
255 -475 -166 849 0
-138 -325 -382 850 0
-322 398 -15 851 0
108 -405 -430 852 0
-101 63 -463 853 0
466 381 -221 854 0
43 392 -221 855 0
499 223 183 856 0
-62 -366 -411 857 0
-182 448 467 858 0
-218 -233 306 859 0
241 -280 -331 860 0
16 -274 -150 861 0
241 -47 -123 862 0
16 5 223 863 0
-221 -394 -311 864 0
-189 60 -452 865 0
454 -55 -355 866 0
40 -111 328 867 0
-120 455 -259 868 0
-326 20 -202 869 0
365 408 433 870 0
-401 200 408 871 0
-329 -96 -307 872 0
-44 312 -341 873 0
492 -272 -64 874 0
436 -120 -242 875 0
295 -246 -134 876 0
-360 -142 -2 877 0
-256 226 -41 878 0
-267 -322 -95 879 0
415 -72 -328 880 0
-214 81 -55 881 0
146 451 250 882 0
-97 -289 312 883 0
471 278 -107 884 0
-128 -419 -190 885 0
354 -443 -237 886 0
313 9 -137 887 0
161 -164 -1 888 0
-29 430 80 889 0
-56 -25 314 890 0
360 226 70 891 0
131 350 429 892 0
280 -24 -67 893 0
-451 -227 420 894 0
-74 -117 -375 895 0
6 -112 84 896 0
241 280 17 897 0
171 66 444 898 0
51 108 80 899 0
386 391 -479 900 0
-224 44 -99 901 0
-457 340 -141 902 0
437 -125 -391 903 0
-7 88 192 904 0
204 -175 -290 905 0
-436 -139 -222 906 0
-338 -35 -264 907 0
4 -202 231 908 0
203 -10 -107 909 0
-228 91 478 910 0
-246 500 -313 911 0
-351 -271 194 912 0
368 -383 -182 913 0
-342 263 22 914 0
344 -7 -176 915 0
474 -334 -180 916 0
-91 344 295 917 0
254 285 -42 918 0
-422 21 277 919 0
31 -53 -45 920 0
-357 123 130 921 0
-218 398 301 922 0
79 17 -386 923 0
-305 -392 -205 924 0
-351 -449 211 925 0
-324 -241 -75 926 0
-313 -258 -86 927 0
21 88 -448 928 0
-325 -22 359 929 0
123 -168 -251 930 0
-32 179 -484 931 0
-490 -52 348 932 0
387 493 -14 933 0
199 323 -159 934 0
-353 -19 -276 935 0
-169 426 77 936 0
206 458 -368 937 0
-129 179 473 938 0
470 -279 -289 939 0
8 -396 -315 940 0
-385 123 -442 941 0
468 -251 -455 942 0
-52 -185 104 943 0
-464 183 -129 944 0
165 106 -354 945 0
-354 -326 100 946 0
90 379 -280 947 0
489 19 -256 948 0
378 434 -13 949 0
-56 277 124 950 0
-49 -364 421 951 0
22 96 286 952 0
-337 -97 -413 953 0
-412 -334 -188 954 0
38 497 -330 955 0
-248 182 368 956 0
169 489 -142 957 0
273 -379 -183 958 0
452 -219 309 959 0
-156 301 434 960 0
-5 322 381 961 0
313 39 -473 962 0
-364 -368 -424 963 0
186 300 293 964 0
144 172 417 965 0
237 -460 -336 966 0
-487 1 424 967 0
-317 -477 156 968 0
-72 -296 -183 969 0
230 330 -403 970 0
216 -23 -239 971 0
58 304 105 972 0
-54 -193 -36 973 0
274 455 -348 974 0
-483 428 143 975 0
-473 -399 -267 976 0
-450 207 216 977 0
-413 -300 -60 978 0
256 354 -393 979 0
-439 214 -325 980 0
-358 -19 301 981 0
71 -493 -335 982 0
156 -450 343 983 0
-494 188 -363 984 0
471 460 -187 985 0
241 76 113 986 0
368 235 361 987 0
-188 497 55 988 0
-284 203 138 989 0
76 -232 161 990 0
234 -420 -35 991 0
-261 217 -97 992 0
421 -466 181 993 0
-222 -312 -301 994 0
-41 -54 26 995 0
245 -425 321 996 0
189 425 343 997 0
191 65 333 998 0
394 -291 389 999 0
-263 -218 182 1000 0
346 -95 463 1001 0
-168 78 211 1002 0
109 15 -37 1003 0
-446 -163 434 1004 0
-386 -87 131 1005 0
-171 -94 150 1006 0
-290 330 159 1007 0
-107 -446 -72 1008 0
-270 415 -294 1009 0
48 -466 152 1010 0
-268 384 422 1011 0
183 397 168 1012 0
-330 -355 126 1013 0
5 470 401 1014 0
-47 -398 343 1015 0
-325 -264 -96 1016 0
396 -167 -408 1017 0
-373 -474 -415 1018 0
243 235 163 1019 0
-11 -17 105 1020 0
-357 -465 259 1021 0
389 -484 -12 1022 0
359 108 -84 1023 0
-467 232 178 1024 0
222 403 -198 1025 0
-487 189 -4 1026 0
-322 2 67 1027 0
150 243 66 1028 0
-28 48 -127 1029 0
137 472 192 1030 0
359 -297 34 1031 0
197 19 126 1032 0
247 307 -416 1033 0
-497 -134 -221 1034 0
-71 466 312 1035 0
430 -316 33 1036 0
84 232 108 1037 0
227 363 35 1038 0
158 -447 277 1039 0
-282 -100 451 1040 0
-183 -19 -420 1041 0
-465 321 418 1042 0
61 -189 -183 1043 0
437 291 119 1044 0
-203 -426 198 1045 0
-467 425 -96 1046 0
488 51 443 1047 0
-208 72 -388 1048 0
252 429 -45 1049 0
-193 -97 -238 1050 0
-101 -305 89 1051 0
-336 -482 56 1052 0
-312 154 -34 1053 0
298 -358 -296 1054 0
-318 -297 221 1055 0
-429 418 -342 1056 0
315 137 -46 1057 0
236 238 356 1058 0
22 298 155 1059 0
-42 -344 414 1060 0
231 320 478 1061 0
-443 -357 -369 1062 0
-95 102 -357 1063 0
339 35 87 1064 0
-53 -85 -36 1065 0
376 3 213 1066 0
171 15 -83 1067 0
101 325 -283 1068 0
-103 -409 174 1069 0
-45 -92 411 1070 0
84 464 -91 1071 0
-313 -419 85 1072 0
193 -76 -43 1073 0
-45 -193 -58 1074 0
-473 113 -286 1075 0
199 -402 -312 1076 0
-49 -404 160 1077 0
347 -261 265 1078 0
342 384 -476 1079 0
282 161 10 1080 0
125 -190 -134 1081 0
-258 -468 -173 1082 0
-235 -247 147 1083 0
185 -442 131 1084 0
-424 -170 -176 1085 0
222 380 -235 1086 0
19 292 109 1087 0
-227 -33 -132 1088 0
183 440 -500 1089 0
86 -115 -44 1090 0
-446 -392 311 1091 0
408 -488 -22 1092 0
199 -354 -244 1093 0
-348 -160 371 1094 0
-34 371 -497 1095 0
362 -19 431 1096 0
367 137 156 1097 0
-197 317 -271 1098 0
-469 -56 220 1099 0
-316 -288 128 1100 0
268 -38 214 1101 0
149 229 361 1102 0
172 -245 91 1103 0
-313 -440 -161 1104 0
-440 -107 -169 1105 0
379 327 -310 1106 0
289 158 -261 1107 0
-83 -29 276 1108 0
-406 -108 -238 1109 0
-427 256 -415 1110 0
-417 -307 -42 1111 0
-82 448 496 1112 0
401 -105 -208 1113 0
-3 -495 -262 1114 0
182 390 268 1115 0
420 -93 -83 1116 0
435 281 252 1117 0
495 -487 -10 1118 0
103 345 119 1119 0
-194 417 -342 1120 0
-349 34 353 1121 0
399 104 31 1122 0
-310 202 -39 1123 0
-155 -388 6 1124 0
-38 243 32 1125 0
-454 -366 402 1126 0
302 -374 -86 1127 0
154 -271 -214 1128 0
381 -328 238 1129 0
-485 -135 446 1130 0
232 -295 405 1131 0
-491 44 -195 1132 0
239 -19 172 1133 0
11 304 52 1134 0
-136 261 343 1135 0
-141 312 -48 1136 0
-252 453 -48 1137 0
-145 -30 -416 1138 0
-176 -363 407 1139 0
370 230 71 1140 0
-202 44 193 1141 0
-390 -228 -476 1142 0
318 -132 -297 1143 0
391 294 -180 1144 0
-469 223 -316 1145 0
456 -491 311 1146 0
-369 493 -483 1147 0
214 224 72 1148 0
-362 -325 85 1149 0
-176 442 183 1150 0
296 185 332 1151 0
13 137 98 1152 0
107 -150 -388 1153 0
227 245 -358 1154 0
-256 235 -128 1155 0
-56 137 -130 1156 0
-53 -411 293 1157 0
317 142 483 1158 0
455 -254 111 1159 0
224 350 -38 1160 0
-130 -455 263 1161 0
418 -135 206 1162 0
-185 -384 227 1163 0
-200 -120 -237 1164 0
413 -321 -379 1165 0
119 358 -301 1166 0
309 -13 -133 1167 0
-83 -381 182 1168 0
-62 459 -29 1169 0
265 112 443 1170 0
186 406 43 1171 0
90 145 244 1172 0
-313 407 432 1173 0
100 281 -293 1174 0
-451 435 188 1175 0
-482 433 31 1176 0
-455 340 387 1177 0
364 -289 499 1178 0
209 183 54 1179 0
-135 315 125 1180 0
57 45 468 1181 0
-383 262 -371 1182 0
-369 194 175 1183 0
252 453 332 1184 0
-177 -260 -192 1185 0
-66 209 -473 1186 0
36 1 -132 1187 0
96 386 3 1188 0
376 -66 -307 1189 0
151 -440 -347 1190 0
400 169 -403 1191 0
-20 -108 -228 1192 0
-163 -335 45 1193 0
-119 97 232 1194 0
110 178 95 1195 0
172 488 10 1196 0
-482 -206 340 1197 0
-296 115 -152 1198 0
372 -183 -172 1199 0
-443 430 -469 1200 0
81 -345 33 1201 0
-438 -133 -237 1202 0
-206 -210 -270 1203 0
457 -462 183 1204 0
-251 -236 494 1205 0
-1 -306 -446 1206 0
-71 -298 -337 1207 0
-289 305 -63 1208 0
-328 -432 -396 1209 0
423 468 405 1210 0
-347 15 -100 1211 0
472 155 -259 1212 0
245 159 345 1213 0
-492 -126 359 1214 0
-122 -88 480 1215 0
-292 288 -490 1216 0
-462 -457 302 1217 0
309 -246 45 1218 0
244 -148 102 1219 0
359 -51 -253 1220 0
-324 -430 -120 1221 0
294 -179 -466 1222 0
241 -75 -290 1223 0
-77 448 152 1224 0
-475 336 -160 1225 0
131 232 -231 1226 0
-436 265 117 1227 0
-117 387 -145 1228 0
113 138 -229 1229 0
435 -181 366 1230 0
-160 341 -57 1231 0
-500 -310 -435 1232 0
-194 -372 -404 1233 0
-407 -427 67 1234 0
229 33 154 1235 0
-342 -216 464 1236 0
-277 8 217 1237 0
-343 -315 27 1238 0
491 -24 -452 1239 0
-51 381 387 1240 0
-274 -465 448 1241 0
-424 -154 163 1242 0
380 79 347 1243 0
31 103 441 1244 0
359 323 296 1245 0
38 466 -236 1246 0
379 35 214 1247 0
414 285 481 1248 0
459 -263 165 1249 0
193 -233 340 1250 0
185 -24 117 1251 0
-226 406 429 1252 0
345 363 -383 1253 0
255 -187 -413 1254 0
-70 -164 355 1255 0
495 287 -282 1256 0
325 195 -395 1257 0
479 -3 -55 1258 0
168 290 386 1259 0
98 296 182 1260 0
353 -337 370 1261 0
115 -373 -410 1262 0
276 460 345 1263 0
120 350 334 1264 0
449 -63 320 1265 0
-323 299 -107 1266 0
183 101 282 1267 0
-445 133 147 1268 0
-237 -382 213 1269 0
205 -390 240 1270 0
46 -486 -251 1271 0
362 -485 -125 1272 0
-238 -135 17 1273 0
-148 334 -200 1274 0
396 270 -362 1275 0
295 189 288 1276 0
-14 -494 304 1277 0
11 -370 -289 1278 0
-482 -334 -258 1279 0
-37 -116 166 1280 0
205 -48 36 1281 0
64 -388 -416 1282 0
-160 165 -106 1283 0
-356 5 116 1284 0
-392 460 -182 1285 0
318 -130 -425 1286 0
-307 -130 -184 1287 0
-63 354 -251 1288 0
-210 -211 -417 1289 0
-339 -356 -452 1290 0
-174 261 110 1291 0
353 -179 -391 1292 0
-234 405 -281 1293 0
-310 360 44 1294 0
3 -380 -28 1295 0
54 495 336 1296 0
-193 102 428 1297 0
-218 344 29 1298 0
313 59 -251 1299 0
-110 89 -95 1300 0
-453 17 21 1301 0
-361 271 -302 1302 0
120 -254 -337 1303 0
438 -384 276 1304 0
60 269 222 1305 0
-473 197 110 1306 0
128 -459 76 1307 0
-8 38 395 1308 0
352 455 -295 1309 0
-249 -5 486 1310 0
280 -206 211 1311 0
441 291 -34 1312 0
274 -43 -107 1313 0
-305 314 -286 1314 0
-149 -84 155 1315 0
231 -194 76 1316 0
-478 207 39 1317 0
-17 484 -449 1318 0
-485 288 28 1319 0
-423 -329 31 1320 0
413 -230 -422 1321 0
-438 293 123 1322 0
-470 221 473 1323 0
-196 -189 154 1324 0
221 42 -451 1325 0
-145 192 248 1326 0
253 -435 335 1327 0
-67 455 136 1328 0
-289 281 132 1329 0
103 354 -80 1330 0
-11 216 356 1331 0
-449 -237 93 1332 0
-479 190 280 1333 0
250 -38 -306 1334 0
-139 303 92 1335 0
-380 422 -231 1336 0
-122 -301 34 1337 0
-34 385 469 1338 0
-22 406 -308 1339 0
257 -393 -166 1340 0
374 -493 140 1341 0
438 59 198 1342 0
-276 153 -484 1343 0
-67 130 -28 1344 0
-337 28 281 1345 0
-380 -170 221 1346 0
-485 418 -64 1347 0
64 456 111 1348 0
-202 -272 -170 1349 0
292 466 361 1350 0
308 333 -411 1351 0
-65 -79 -16 1352 0
396 494 428 1353 0
-142 153 40 1354 0
254 -72 -114 1355 0
455 -40 55 1356 0
-201 117 358 1357 0
-169 -208 -462 1358 0
145 81 472 1359 0
468 55 -297 1360 0
-81 -2 125 1361 0
-63 -219 479 1362 0
437 64 339 1363 0
238 -361 78 1364 0
-212 94 305 1365 0
123 26 -45 1366 0
111 -136 -458 1367 0
148 130 -256 1368 0
416 395 -467 1369 0
-36 372 -18 1370 0
399 -483 327 1371 0
-19 -443 -179 1372 0
-89 362 53 1373 0
403 -85 -115 1374 0
118 76 451 1375 0
-216 -431 -206 1376 0
-304 -130 -107 1377 0
249 268 -33 1378 0
358 233 32 1379 0
-459 62 -454 1380 0
16 42 153 1381 0
-227 372 165 1382 0
-76 226 -9 1383 0
-104 -24 -384 1384 0
-331 10 -359 1385 0
66 -313 -332 1386 0
67 -282 351 1387 0
2 141 106 1388 0
-72 -177 -30 1389 0
-293 -91 -30 1390 0
-207 54 -366 1391 0
40 -423 258 1392 0
425 -396 384 1393 0
-117 -315 489 1394 0
384 426 -321 1395 0
219 -115 408 1396 0
-235 -252 13 1397 0
260 125 329 1398 0
421 50 276 1399 0
32 297 -212 1400 0
125 -48 -32 1401 0
65 146 -183 1402 0
-344 345 68 1403 0
207 -52 -414 1404 0
47 436 279 1405 0
334 -419 -35 1406 0
118 204 348 1407 0
225 -17 -336 1408 0
-320 -494 412 1409 0
400 -115 -285 1410 0
83 442 431 1411 0
-39 80 469 1412 0
387 -25 -313 1413 0
207 118 173 1414 0
322 -2 -217 1415 0
103 498 212 1416 0
-173 361 453 1417 0
258 162 -251 1418 0
154 -340 362 1419 0
182 -117 -156 1420 0
295 -384 129 1421 0
-417 -401 -499 1422 0
-357 93 225 1423 0
-376 -161 10 1424 0
-334 -48 -4 1425 0
353 -485 174 1426 0
-454 366 -413 1427 0
-227 -315 50 1428 0
-139 -452 495 1429 0
177 -7 288 1430 0
-342 -390 327 1431 0
262 458 -106 1432 0
9 -26 191 1433 0
-65 -17 206 1434 0
-119 307 -450 1435 0
-200 -433 -311 1436 0
247 205 -385 1437 0
-370 438 135 1438 0
-103 269 -41 1439 0
203 -407 289 1440 0
258 -495 -460 1441 0
-436 -426 478 1442 0
391 109 275 1443 0
-121 257 -384 1444 0
-156 -413 -356 1445 0
-85 -369 -14 1446 0
-123 -156 444 1447 0
161 311 269 1448 0
367 -449 225 1449 0
451 -326 162 1450 0
231 354 431 1451 0
238 -285 -84 1452 0
-402 88 -421 1453 0
425 301 354 1454 0
-462 -434 -118 1455 0
422 136 160 1456 0
327 -7 445 1457 0
118 -233 -466 1458 0
249 312 270 1459 0
424 284 -150 1460 0
373 -157 324 1461 0
-115 -346 -184 1462 0
366 392 208 1463 0
241 443 -359 1464 0
357 190 112 1465 0
207 281 194 1466 0
-233 77 -290 1467 0
-334 -450 178 1468 0
362 90 -314 1469 0
66 -211 -399 1470 0
327 81 -382 1471 0
-40 440 -236 1472 0
478 -342 473 1473 0
353 150 466 1474 0
-473 38 94 1475 0
-291 484 -377 1476 0
247 -356 253 1477 0
245 -165 -37 1478 0
-310 342 429 1479 0
419 -140 -234 1480 0
-64 -149 424 1481 0
98 316 -423 1482 0
178 146 278 1483 0
-364 187 -338 1484 0
-381 267 -83 1485 0
-402 -49 -438 1486 0
-440 -437 -256 1487 0
-483 -22 142 1488 0
-242 -449 -358 1489 0
-105 278 -171 1490 0
-427 -184 -330 1491 0
286 -207 306 1492 0
-326 -94 109 1493 0
221 432 -133 1494 0
270 -92 -472 1495 0
-329 -297 469 1496 0
-325 -243 -392 1497 0
393 -439 -193 1498 0
-370 289 -37 1499 0
316 -277 281 1500 0
34 228 -353 1501 0
-291 -467 -77 1502 0
-372 38 281 1503 0
129 -74 107 1504 0
-424 489 86 1505 0
-50 373 477 1506 0
-365 287 119 1507 0
327 -239 18 1508 0
-151 407 311 1509 0
-128 313 343 1510 0
-430 349 75 1511 0
-356 -244 298 1512 0
122 236 140 1513 0
-309 311 -103 1514 0
285 -183 -334 1515 0
-130 434 128 1516 0
-454 -324 256 1517 0
-416 279 -53 1518 0
-361 -500 -314 1519 0
489 -209 486 1520 0
148 75 200 1521 0
-492 378 270 1522 0
-297 -181 -310 1523 0
-21 -283 82 1524 0
-300 -78 -254 1525 0
-275 -335 -248 1526 0
174 60 128 1527 0
315 342 254 1528 0
-302 -176 32 1529 0
-5 383 420 1530 0
-418 -165 305 1531 0
411 373 451 1532 0
-487 -234 -281 1533 0
440 -308 427 1534 0
207 -160 227 1535 0
387 345 79 1536 0
-128 -107 -313 1537 0
451 -357 -110 1538 0
-374 -95 488 1539 0
310 39 100 1540 0
293 242 209 1541 0
298 -227 444 1542 0
-485 -177 101 1543 0
-242 -39 316 1544 0
-425 -264 82 1545 0
-121 -62 -264 1546 0
51 112 -461 1547 0
51 -300 -244 1548 0
-245 339 -391 1549 0
33 36 288 1550 0
-128 89 -212 1551 0
-2 -383 371 1552 0
329 15 -224 1553 0
-285 -475 -235 1554 0
-231 61 252 1555 0
-150 -113 -236 1556 0
42 -308 -135 1557 0
478 143 -22 1558 0
321 382 -359 1559 0
-25 -418 -483 1560 0
-87 -366 458 1561 0
-472 227 87 1562 0
428 287 -392 1563 0
-396 73 -460 1564 0
-123 -374 458 1565 0
292 -185 365 1566 0
-80 182 -398 1567 0
403 -50 449 1568 0
398 -280 -135 1569 0
-138 463 -479 1570 0
-424 124 404 1571 0
-174 -70 272 1572 0
-142 -58 -233 1573 0
-24 -219 14 1574 0
299 -33 -245 1575 0
-403 -273 -65 1576 0
-100 -98 -141 1577 0
1 -442 -335 1578 0
-71 97 18 1579 0
297 -420 -66 1580 0
-220 14 -362 1581 0
-129 272 -362 1582 0
227 104 -43 1583 0
188 222 125 1584 0
96 -2 415 1585 0
363 -331 -140 1586 0
448 77 -414 1587 0
161 69 92 1588 0
-466 -244 -219 1589 0
87 -450 -437 1590 0
307 -219 -140 1591 0
-59 479 -46 1592 0
-212 483 -424 1593 0
-242 299 -148 1594 0
-452 138 152 1595 0
343 333 -467 1596 0
-183 -189 2 1597 0
-110 -164 301 1598 0
-46 -39 356 1599 0
89 419 287 1600 0
-148 354 292 1601 0
-351 48 -425 1602 0
481 37 -176 1603 0
322 -215 -47 1604 0
19 -461 -270 1605 0
253 -209 -442 1606 0
272 -421 141 1607 0
229 -123 -263 1608 0
488 377 173 1609 0
-221 -427 -77 1610 0
-336 98 14 1611 0
-225 -218 340 1612 0
-345 -184 -311 1613 0
-142 -268 232 1614 0
111 358 460 1615 0
-453 378 368 1616 0
483 84 242 1617 0
-274 377 297 1618 0
21 447 109 1619 0
261 148 -55 1620 0
-262 -183 195 1621 0
82 450 2 1622 0
14 -130 192 1623 0
461 -273 -393 1624 0
111 -32 74 1625 0
217 -344 222 1626 0
-472 -387 -269 1627 0
-196 -206 300 1628 0
-117 -204 31 1629 0
362 4 26 1630 0
394 -237 310 1631 0
-191 -11 -366 1632 0
-415 409 -301 1633 0
446 419 -183 1634 0
-120 -170 10 1635 0
-140 468 170 1636 0
-147 291 -478 1637 0
416 47 -417 1638 0
462 -439 -380 1639 0
166 437 -88 1640 0
7 369 -161 1641 0
436 296 102 1642 0
247 47 -4 1643 0
33 342 380 1644 0
110 -195 169 1645 0
-349 244 433 1646 0
-230 -346 195 1647 0
-413 -289 21 1648 0
296 236 -495 1649 0
46 456 -474 1650 0
-381 437 -207 1651 0
-132 -155 485 1652 0
-185 -292 98 1653 0
-186 -215 6 1654 0
-354 -272 97 1655 0
102 86 87 1656 0
262 -133 -404 1657 0
-211 61 -362 1658 0
270 465 234 1659 0
-405 424 132 1660 0
39 -73 -51 1661 0
-28 326 136 1662 0
55 103 234 1663 0
-462 362 323 1664 0
-82 438 -198 1665 0
485 -151 128 1666 0
-261 -257 279 1667 0
-290 -436 -55 1668 0
284 -166 32 1669 0
-76 -50 -355 1670 0
56 -213 -8 1671 0
-206 458 -421 1672 0
246 -453 -387 1673 0
-413 175 196 1674 0
-306 -355 154 1675 0
-415 41 -270 1676 0
345 -339 136 1677 0
308 152 56 1678 0
-282 -287 447 1679 0
-301 102 13 1680 0
-107 1 -172 1681 0
-331 495 -413 1682 0
-236 -220 -349 1683 0
488 30 474 1684 0
-238 118 422 1685 0
25 -296 267 1686 0
239 -99 152 1687 0
386 -467 417 1688 0
-499 330 -443 1689 0
375 -322 377 1690 0
95 -65 -75 1691 0
9 -336 317 1692 0
313 374 -228 1693 0
-472 308 -89 1694 0
130 191 288 1695 0
442 97 -122 1696 0
453 -89 263 1697 0
499 -396 -124 1698 0
-463 -190 344 1699 0
-142 234 -89 1700 0
83 -211 114 1701 0
461 143 445 1702 0
-160 130 -27 1703 0
-174 -24 285 1704 0
-4 206 -376 1705 0
325 -313 -443 1706 0
27 174 423 1707 0
-266 -29 -175 1708 0
-36 293 -263 1709 0
66 -329 286 1710 0
-19 183 -269 1711 0
-104 -134 203 1712 0
-20 -234 46 1713 0
-198 -217 121 1714 0
-39 -127 34 1715 0
-458 401 -329 1716 0
-286 -297 -293 1717 0
43 -269 -296 1718 0
-73 -353 -136 1719 0
280 378 -204 1720 0
-345 163 188 1721 0
-458 -149 287 1722 0
-482 431 175 1723 0
-120 82 -42 1724 0
195 391 56 1725 0
309 -4 -414 1726 0
25 135 -272 1727 0
156 118 172 1728 0
361 312 219 1729 0
-117 -187 -40 1730 0
-384 -221 -299 1731 0
301 -360 -269 1732 0
-419 342 304 1733 0
474 -406 -186 1734 0
7 57 409 1735 0
-447 161 -82 1736 0
-100 -320 48 1737 0
-104 -27 461 1738 0
-413 -53 48 1739 0
-449 436 -438 1740 0
-15 382 -27 1741 0
364 -336 357 1742 0
62 294 165 1743 0
-425 459 -401 1744 0
41 -392 -39 1745 0
243 -84 -40 1746 0
-348 490 -120 1747 0
-234 -39 181 1748 0
331 61 -312 1749 0
491 146 -382 1750 0
13 287 439 1751 0
-68 -139 -468 1752 0
415 293 458 1753 0
-397 359 298 1754 0
-488 -434 -288 1755 0
344 -196 -163 1756 0
409 249 -267 1757 0
-201 -469 28 1758 0
274 418 -62 1759 0
145 364 -86 1760 0
-442 77 486 1761 0
-52 -242 -64 1762 0
18 190 371 1763 0
-429 259 -9 1764 0
-2 -457 233 1765 0
222 500 -498 1766 0
186 -124 325 1767 0
-349 431 208 1768 0
-361 195 -365 1769 0
216 272 -123 1770 0
350 -154 463 1771 0
-38 271 -352 1772 0
472 129 250 1773 0
272 -422 -307 1774 0
-128 -424 52 1775 0
31 499 138 1776 0
-181 274 -428 1777 0
312 -190 20 1778 0
11 87 -61 1779 0
305 -241 -64 1780 0
429 -354 330 1781 0
105 -400 138 1782 0
-341 232 -31 1783 0
-456 -286 194 1784 0
2 -237 191 1785 0
-419 -475 248 1786 0
276 -108 -385 1787 0
-481 498 106 1788 0
-142 -94 483 1789 0
188 289 -408 1790 0
-192 269 375 1791 0
178 165 -156 1792 0
-322 -88 281 1793 0
438 184 -240 1794 0
-29 348 7 1795 0
149 233 179 1796 0
-22 -386 -195 1797 0
24 -262 407 1798 0
495 -382 -150 1799 0
-484 -407 34 1800 0
-256 -246 -18 1801 0
-19 -221 377 1802 0
466 28 -31 1803 0
-325 -103 161 1804 0
158 98 180 1805 0
-242 432 209 1806 0
239 231 401 1807 0
-406 -377 82 1808 0
-27 -277 269 1809 0
354 -463 -149 1810 0
-324 177 151 1811 0
-239 -448 483 1812 0
-105 377 -205 1813 0
377 164 -309 1814 0
244 -40 459 1815 0
-37 -407 474 1816 0
-93 70 406 1817 0
-43 -417 -421 1818 0
405 -320 412 1819 0
-325 -267 -309 1820 0
-91 35 148 1821 0
-492 -191 -121 1822 0
-161 368 426 1823 0
371 -93 498 1824 0
-378 78 -136 1825 0
191 421 140 1826 0
-409 -292 -389 1827 0
-460 -147 108 1828 0
-168 -372 222 1829 0
327 -264 476 1830 0
-141 148 419 1831 0
281 -19 -488 1832 0
233 118 402 1833 0
-483 264 23 1834 0
-462 -111 137 1835 0
88 -487 -321 1836 0
57 -93 -8 1837 0
-381 466 -318 1838 0
66 156 498 1839 0
-273 -500 142 1840 0
10 -404 -102 1841 0
-126 -85 195 1842 0
-113 -44 -267 1843 0
106 -275 -485 1844 0
-230 58 -320 1845 0
-20 43 -496 1846 0
-109 247 -143 1847 0
132 -69 327 1848 0
4 -421 -60 1849 0
128 245 76 1850 0
-107 -406 453 1851 0
21 407 290 1852 0
-66 351 177 1853 0
-219 -367 -489 1854 0
-260 -8 55 1855 0
428 -273 157 1856 0
-13 -477 -472 1857 0
251 262 150 1858 0
-424 442 23 1859 0
376 -99 -473 1860 0
-51 -474 -243 1861 0
493 -375 -87 1862 0
-44 293 270 1863 0
-89 -374 304 1864 0
388 319 474 1865 0
-369 497 292 1866 0
403 57 -436 1867 0
-211 -489 -101 1868 0
-257 -103 396 1869 0
-377 -198 -429 1870 0
233 330 500 1871 0
-496 339 -177 1872 0
484 -321 170 1873 0
-477 10 -453 1874 0
334 -228 186 1875 0
-80 498 137 1876 0
-216 301 470 1877 0
-154 246 373 1878 0
-436 200 212 1879 0
-308 -44 60 1880 0
-458 271 349 1881 0
290 163 253 1882 0
61 98 -238 1883 0
-24 -462 -56 1884 0
341 -171 244 1885 0
-347 -11 136 1886 0
153 152 -418 1887 0
335 331 -399 1888 0
82 -349 -38 1889 0
364 -488 482 1890 0
-48 390 -117 1891 0
101 409 70 1892 0
-110 -74 320 1893 0
95 12 -385 1894 0
281 -488 11 1895 0
-242 -366 -395 1896 0
-448 422 -95 1897 0
222 -339 77 1898 0
-92 461 -275 1899 0
390 2 275 1900 0
-362 -370 428 1901 0
28 -358 -270 1902 0
172 292 -209 1903 0
-66 254 494 1904 0
-297 256 -376 1905 0
-322 46 -331 1906 0
-242 497 10 1907 0
-245 -58 -419 1908 0
154 479 289 1909 0
-308 -405 -133 1910 0
-349 116 -341 1911 0
-214 -141 149 1912 0
197 93 250 1913 0
-39 -216 -314 1914 0
89 -228 -346 1915 0
385 247 -380 1916 0
-121 110 281 1917 0
-480 -211 120 1918 0
-241 -205 -97 1919 0
-170 -393 -256 1920 0
-256 329 -458 1921 0
307 -294 112 1922 0
34 16 396 1923 0
459 478 199 1924 0
437 -20 38 1925 0
-256 390 -65 1926 0
-412 -3 46 1927 0
-467 -86 -176 1928 0
-329 46 -168 1929 0
307 81 -247 1930 0
289 340 -416 1931 0
-456 216 -365 1932 0
-146 -117 38 1933 0
-317 -238 54 1934 0
80 295 -178 1935 0
-264 -440 291 1936 0
23 -103 -475 1937 0
-459 347 -218 1938 0
-452 -484 428 1939 0
404 334 363 1940 0
487 417 262 1941 0
-354 496 25 1942 0
-63 190 -290 1943 0
-316 -448 -453 1944 0
185 351 96 1945 0
-106 32 478 1946 0
-446 -219 27 1947 0
-205 -311 -497 1948 0
-58 307 51 1949 0
-315 82 179 1950 0
461 -373 -213 1951 0
43 155 38 1952 0
482 -25 -227 1953 0
-241 -467 -405 1954 0
-477 -386 -207 1955 0
-119 -273 202 1956 0
-486 383 467 1957 0
361 398 392 1958 0
-102 262 170 1959 0
369 493 -340 1960 0
-264 -349 -254 1961 0
-66 -362 -262 1962 0
-300 -308 117 1963 0
246 -33 397 1964 0
10 -185 -13 1965 0
-194 228 415 1966 0
-319 -146 -284 1967 0
419 101 106 1968 0
68 -322 -52 1969 0
447 -454 -325 1970 0
-394 429 -485 1971 0
141 40 292 1972 0
381 392 -261 1973 0
298 40 -365 1974 0
498 82 68 1975 0
135 431 -4 1976 0
296 -164 -114 1977 0
99 329 245 1978 0
-229 320 -8 1979 0
422 452 -349 1980 0
294 -40 308 1981 0
230 -344 476 1982 0
197 -295 341 1983 0
163 -297 -199 1984 0
-212 -250 -431 1985 0
-249 245 308 1986 0
354 -326 295 1987 0
-344 -492 -88 1988 0
294 -218 115 1989 0
311 427 224 1990 0
49 459 -490 1991 0
73 -422 397 1992 0
-224 227 161 1993 0
-373 -378 -21 1994 0
-50 -74 296 1995 0
119 195 -416 1996 0
193 479 -14 1997 0
-159 199 330 1998 0
53 131 -183 1999 0
-266 17 -131 2000 0
-111 96 163 2001 0
452 445 -57 2002 0
405 -41 -213 2003 0
141 444 -90 2004 0
3 53 170 2005 0
209 93 -328 2006 0
-302 -338 -404 2007 0
-186 -490 426 2008 0
229 166 -489 2009 0
68 391 -284 2010 0
-478 -222 -458 2011 0
-164 398 -294 2012 0
-5 461 -414 2013 0
-179 -203 -87 2014 0
-194 263 -130 2015 0
-450 390 137 2016 0
461 151 298 2017 0
-339 108 -337 2018 0
77 -487 -320 2019 0
490 -392 -28 2020 0
443 50 135 2021 0
53 320 -14 2022 0
83 10 -16 2023 0
188 423 315 2024 0
-82 -310 -265 2025 0
434 -462 428 2026 0
-278 410 -348 2027 0
-356 402 21 2028 0
-494 94 -345 2029 0
343 -46 427 2030 0
-370 -79 395 2031 0
482 -494 -191 2032 0
-100 285 484 2033 0
140 -340 -472 2034 0
476 215 -295 2035 0
-262 477 115 2036 0
-170 295 69 2037 0
-169 366 193 2038 0
-37 418 370 2039 0
-300 -312 84 2040 0
160 35 360 2041 0
76 28 -398 2042 0
-324 285 -436 2043 0
157 1 -272 2044 0
-277 -484 -137 2045 0
-309 331 -272 2046 0
229 34 428 2047 0
447 -450 -486 2048 0
-180 -292 -462 2049 0
117 483 26 2050 0
406 363 77 2051 0
439 -103 -449 2052 0
-44 -29 247 2053 0
-454 -66 376 2054 0
-345 81 165 2055 0
-283 -280 331 2056 0
-325 -68 -473 2057 0
500 78 -173 2058 0
66 461 393 2059 0
-211 494 364 2060 0
457 -292 247 2061 0
-38 139 -220 2062 0
460 -241 13 2063 0
-452 156 -47 2064 0
-156 -258 174 2065 0
112 -62 115 2066 0
458 109 311 2067 0
-223 425 70 2068 0
-386 98 -144 2069 0
-324 255 438 2070 0
-306 -70 -181 2071 0
147 -392 -37 2072 0
246 288 147 2073 0
287 453 -101 2074 0
491 -153 186 2075 0
-116 375 -323 2076 0
-206 261 294 2077 0
9 -469 -10 2078 0
18 160 -454 2079 0
466 346 361 2080 0
-470 -135 450 2081 0
-457 46 308 2082 0
-320 -118 -377 2083 0
-221 -104 -329 2084 0
397 216 -448 2085 0
183 438 124 2086 0
-279 266 313 2087 0
-489 -374 384 2088 0
-469 -439 -266 2089 0
-446 309 130 2090 0
-457 -371 -454 2091 0
328 229 93 2092 0
-20 -19 -166 2093 0
118 -268 -363 2094 0
-189 63 -292 2095 0
-219 -191 217 2096 0
-452 -75 -370 2097 0
-87 -66 -361 2098 0
204 5 -494 2099 0
183 182 -448 2100 0
-14 225 378 2101 0
-68 345 372 2102 0
486 432 -209 2103 0
-413 -30 -224 2104 0
286 -57 369 2105 0
-151 147 65 2106 0
-379 -195 486 2107 0
2 449 -327 2108 0
299 -168 -350 2109 0
355 -224 -423 2110 0
-189 -402 196 2111 0
-414 -221 -68 2112 0
167 -474 -251 2113 0
-117 -347 445 2114 0
184 205 -269 2115 0
400 -234 42 2116 0
95 -208 427 2117 0
-443 -290 464 2118 0
330 -74 -327 2119 0
84 -206 392 2120 0
-302 92 -69 2121 0
-322 -162 133 2122 0
-66 335 499 2123 0
244 343 169 2124 0
-258 453 3 2125 0
156 -32 9 2126 0
341 -38 -233 2127 0
261 425 -439 2128 0
67 -153 199 2129 0
-480 -494 -33 2130 0
380 -325 96 2131 0
199 -318 -124 2132 0
-273 445 -32 2133 0
364 467 -438 2134 0
-430 429 461 2135 0
-486 -136 -211 2136 0
252 -496 -418 2137 0
20 -395 -52 2138 0
494 -246 152 2139 0
-390 -32 -421 2140 0
218 -385 437 2141 0
53 74 304 2142 0
143 -273 23 2143 0
184 -347 -412 2144 0
382 468 20 2145 0
-59 303 -272 2146 0
190 -243 -287 2147 0
-178 99 -1 2148 0
-174 -160 196 2149 0
-7 497 327 2150 0
248 -379 -210 2151 0
365 315 -270 2152 0
266 47 142 2153 0
286 -332 -218 2154 0
-279 -101 -175 2155 0
-298 -212 -402 2156 0
5 -19 13 2157 0
326 312 493 2158 0
48 227 -278 2159 0
107 256 -344 2160 0
-274 -23 417 2161 0
-291 -230 470 2162 0
-493 -113 -408 2163 0
3 220 328 2164 0
-86 500 -223 2165 0
156 12 -288 2166 0
346 279 170 2167 0
-142 -274 -272 2168 0
-322 -404 45 2169 0
-24 447 -363 2170 0
340 55 -248 2171 0
213 405 -445 2172 0
209 307 -329 2173 0
-366 -51 174 2174 0
-182 13 -155 2175 0
-107 -126 183 2176 0
-382 145 454 2177 0
-46 418 298 2178 0
281 1 -248 2179 0
485 -260 438 2180 0
423 -357 -310 2181 0
-7 86 -480 2182 0
-285 -408 -190 2183 0
315 -270 132 2184 0
378 -395 204 2185 0
-125 140 -293 2186 0
-182 341 249 2187 0
350 461 11 2188 0
10 -277 219 2189 0
415 178 337 2190 0
401 412 -289 2191 0
284 125 129 2192 0
-255 -437 -397 2193 0
126 -355 224 2194 0
414 -100 -372 2195 0
273 -435 -398 2196 0
95 304 -489 2197 0
-476 -76 -280 2198 0
342 -109 71 2199 0
-229 72 -190 2200 0
321 274 -91 2201 0
-14 -115 473 2202 0
274 294 116 2203 0
467 295 22 2204 0
-20 258 422 2205 0
142 -248 64 2206 0
-479 -149 421 2207 0
240 315 -123 2208 0
-488 -316 379 2209 0
240 -361 -419 2210 0
-397 410 -217 2211 0
-235 418 -180 2212 0
139 92 -227 2213 0
-493 -1 -339 2214 0
-313 -368 71 2215 0
308 375 1 2216 0
16 -260 118 2217 0
106 -274 436 2218 0
-93 -194 285 2219 0
-187 414 -6 2220 0
-51 124 262 2221 0
-176 239 -324 2222 0
-451 336 -431 2223 0
371 462 -316 2224 0
113 -379 -435 2225 0
-110 -494 324 2226 0
-237 118 -396 2227 0
-198 -143 382 2228 0
117 -195 439 2229 0
425 -443 -154 2230 0
-183 372 251 2231 0
-61 -202 -358 2232 0
141 124 375 2233 0
-226 218 248 2234 0
-294 479 336 2235 0
191 438 27 2236 0
-116 -387 221 2237 0
-354 -123 84 2238 0
356 71 -146 2239 0
34 -141 105 2240 0
-177 100 -323 2241 0
195 245 124 2242 0
-439 -339 -162 2243 0
-49 -350 -256 2244 0
430 -223 116 2245 0
44 172 430 2246 0
48 -78 289 2247 0
239 425 -119 2248 0
481 464 417 2249 0
-289 439 -492 2250 0
-250 207 -341 2251 0
-469 -138 -457 2252 0
452 -236 -386 2253 0
-97 102 338 2254 0
192 352 -131 2255 0
-205 -17 340 2256 0
31 380 -60 2257 0
-378 -355 -445 2258 0
-241 -12 368 2259 0
-474 -218 -384 2260 0
497 224 364 2261 0
-390 271 339 2262 0
469 -109 -363 2263 0
-187 109 -493 2264 0
424 469 -340 2265 0
148 -291 345 2266 0
-394 219 148 2267 0
-119 191 -313 2268 0
-138 -424 175 2269 0
-315 100 307 2270 0
43 354 -185 2271 0
-24 287 -216 2272 0
-445 -450 215 2273 0
80 85 -338 2274 0
261 -157 398 2275 0
-243 9 449 2276 0
18 222 -245 2277 0
305 -254 124 2278 0
280 464 -288 2279 0
-386 -234 -213 2280 0
-428 -154 -409 2281 0
-209 248 135 2282 0
406 452 -276 2283 0
11 153 -255 2284 0
-14 297 431 2285 0
-66 489 166 2286 0
-215 -284 -213 2287 0
498 -495 322 2288 0
-377 -181 -254 2289 0
-309 11 -369 2290 0
-373 -327 169 2291 0
262 466 268 2292 0
-230 -50 198 2293 0
-84 276 -475 2294 0
256 147 -200 2295 0
72 -265 476 2296 0
19 11 -440 2297 0
15 -293 -228 2298 0
-454 -303 -455 2299 0
395 153 -132 2300 0
329 103 210 2301 0
77 120 257 2302 0
397 96 -198 2303 0
340 220 365 2304 0
216 -246 289 2305 0
-157 462 65 2306 0
381 -169 248 2307 0
-102 402 -163 2308 0
168 311 315 2309 0
252 -265 -51 2310 0
210 470 268 2311 0
-281 -91 6 2312 0
-128 -339 71 2313 0
249 -367 -425 2314 0
-221 -206 -282 2315 0
400 431 -50 2316 0
98 -450 305 2317 0
240 -157 -106 2318 0
-295 385 -486 2319 0
-73 126 380 2320 0
-488 178 -53 2321 0
-348 32 473 2322 0
415 -265 -180 2323 0
403 394 146 2324 0
110 131 -489 2325 0
-425 -284 -421 2326 0
89 29 194 2327 0
-24 -41 -23 2328 0
216 218 388 2329 0
-379 -267 -390 2330 0
50 -122 -381 2331 0
-417 189 123 2332 0
-307 322 -76 2333 0
-458 95 -197 2334 0
-397 315 -378 2335 0
453 184 -417 2336 0
-31 -422 -140 2337 0
107 37 317 2338 0
59 -201 31 2339 0
231 291 57 2340 0
-392 404 168 2341 0
294 -30 -361 2342 0
-340 401 193 2343 0
96 -88 259 2344 0
435 -154 -160 2345 0
-477 -245 123 2346 0
231 -229 -120 2347 0
-199 -316 119 2348 0
-78 189 310 2349 0
61 -137 458 2350 0
318 36 -155 2351 0
310 -219 -5 2352 0
-418 425 -3 2353 0
-395 294 -255 2354 0
-139 -372 309 2355 0
-367 -141 -261 2356 0
-35 -290 -131 2357 0
-178 332 -191 2358 0
54 -199 -491 2359 0
416 -358 332 2360 0
-409 123 255 2361 0
354 56 460 2362 0
-355 400 327 2363 0
-343 153 261 2364 0
447 -62 -499 2365 0
-121 179 159 2366 0
-148 427 -168 2367 0
-496 192 -197 2368 0
487 215 445 2369 0
-65 236 -200 2370 0
-378 -26 -97 2371 0
86 -240 473 2372 0
344 -144 -187 2373 0
391 282 -206 2374 0
350 -87 394 2375 0
-455 -256 -400 2376 0
492 294 -295 2377 0
-252 420 294 2378 0
-90 -322 -470 2379 0
-482 -493 -336 2380 0
-288 429 300 2381 0
5 184 458 2382 0
150 225 -157 2383 0
-456 153 -215 2384 0
-381 268 -273 2385 0
-419 21 285 2386 0
308 -225 2 2387 0
-256 -383 44 2388 0
-200 -404 285 2389 0
-354 147 -331 2390 0
-428 181 -456 2391 0
5 -104 -160 2392 0
104 292 -252 2393 0
208 -59 -6 2394 0
368 -107 -385 2395 0
406 -293 94 2396 0
-160 -17 -326 2397 0
90 -135 -207 2398 0
104 -188 65 2399 0
196 167 -83 2400 0
-442 252 -401 2401 0
-26 -55 -109 2402 0
302 -151 -442 2403 0
-484 160 -413 2404 0
-213 169 500 2405 0
-381 -136 432 2406 0
-69 190 104 2407 0
106 -29 -451 2408 0
-445 -152 -15 2409 0
27 -392 -391 2410 0
377 -217 -109 2411 0
-268 13 334 2412 0
-297 -315 440 2413 0
-212 -434 -363 2414 0
420 450 267 2415 0
219 18 7 2416 0
120 -438 387 2417 0
-41 -232 361 2418 0
-484 -314 -272 2419 0
320 272 279 2420 0
-12 389 -376 2421 0
-35 426 238 2422 0
440 328 -99 2423 0
-375 -272 -242 2424 0
84 21 -442 2425 0
152 457 -260 2426 0
-53 -129 -318 2427 0
311 466 25 2428 0
162 75 6 2429 0
-46 -422 -365 2430 0
-177 192 -314 2431 0
-24 -4 288 2432 0
121 195 -480 2433 0
-419 365 207 2434 0
116 405 69 2435 0
185 -9 -255 2436 0
-214 368 195 2437 0
-347 -270 -168 2438 0
262 430 -452 2439 0
186 94 4 2440 0
-34 231 -410 2441 0
72 202 133 2442 0
-423 84 322 2443 0
-119 -350 440 2444 0
8 208 290 2445 0
86 8 -324 2446 0
364 52 26 2447 0
-278 448 148 2448 0
-191 -217 -46 2449 0
382 -380 252 2450 0
-200 -406 -351 2451 0
181 193 3 2452 0
-170 -314 422 2453 0
-145 485 -222 2454 0
439 -308 184 2455 0
422 -453 -253 2456 0
-101 -149 -379 2457 0
460 -191 305 2458 0
318 -68 23 2459 0
175 77 -362 2460 0
78 282 -491 2461 0
-157 304 465 2462 0
204 189 43 2463 0
421 367 322 2464 0
-312 -430 -75 2465 0
344 73 172 2466 0
429 -416 -208 2467 0
-293 -23 328 2468 0
147 -454 -75 2469 0
153 298 276 2470 0
-12 -311 107 2471 0
384 -224 389 2472 0
-417 -322 487 2473 0
335 349 -222 2474 0
365 -376 157 2475 0
474 -323 165 2476 0
277 186 355 2477 0
-330 -417 -421 2478 0
-131 447 -66 2479 0
83 491 -50 2480 0
10 -281 33 2481 0
197 -191 -171 2482 0
-325 -394 76 2483 0
-194 349 432 2484 0
484 -57 89 2485 0
-37 82 -481 2486 0
436 -173 -261 2487 0
179 -36 118 2488 0
149 322 197 2489 0
163 268 280 2490 0
-299 -82 389 2491 0
430 173 -330 2492 0
-9 -348 456 2493 0
-337 135 -308 2494 0
-378 -183 -486 2495 0
-434 350 174 2496 0
210 -402 -295 2497 0
213 -207 191 2498 0
-153 488 -224 2499 0
274 169 -145 2500 0
-90 -128 -99 2501 0
-447 -417 -158 2502 0
106 -473 192 2503 0
-360 -425 480 2504 0
232 -115 34 2505 0
351 -332 -100 2506 0
-104 106 489 2507 0
166 -171 158 2508 0
469 -201 255 2509 0
-489 23 -321 2510 0
488 29 -326 2511 0
63 79 377 2512 0
311 -289 -300 2513 0
32 338 262 2514 0
371 -457 -185 2515 0
259 447 18 2516 0
-275 -287 115 2517 0
-99 201 -349 2518 0
479 155 -486 2519 0
132 89 -29 2520 0
-248 26 -43 2521 0
-45 -141 -173 2522 0
-333 -442 104 2523 0
362 23 -46 2524 0
-425 206 -168 2525 0
-101 -217 -213 2526 0
-60 -369 412 2527 0
-483 481 58 2528 0
394 380 -43 2529 0
445 112 397 2530 0
-425 40 55 2531 0
-392 169 -168 2532 0
-454 -222 253 2533 0
-24 -245 -40 2534 0
-87 337 -386 2535 0
455 377 -90 2536 0
363 129 -35 2537 0
-316 152 -100 2538 0
-162 493 -316 2539 0
26 -406 -320 2540 0
312 360 -464 2541 0
296 -66 -138 2542 0
-491 283 -415 2543 0
433 -394 383 2544 0
451 -45 204 2545 0
-123 -246 -34 2546 0
435 -16 8 2547 0
455 5 364 2548 0
-87 -72 9 2549 0
394 -6 346 2550 0
217 193 -339 2551 0
-203 427 489 2552 0
148 150 -485 2553 0
-305 -322 -295 2554 0
132 210 -31 2555 0
446 -389 -137 2556 0
-157 34 66 2557 0
-265 67 -154 2558 0
466 -447 -54 2559 0
-118 344 368 2560 0
-192 260 289 2561 0
66 466 171 2562 0
476 138 445 2563 0
164 351 -490 2564 0
490 -127 240 2565 0
95 488 489 2566 0
-413 -376 -16 2567 0
-360 -214 -469 2568 0
297 293 288 2569 0
-369 420 461 2570 0
-37 -243 163 2571 0
230 382 -485 2572 0
-270 266 292 2573 0
-280 -375 77 2574 0
-428 -200 -247 2575 0
196 -140 -246 2576 0
3 -73 498 2577 0
-348 237 112 2578 0
-65 222 433 2579 0
471 -379 -61 2580 0
185 148 138 2581 0
70 461 -335 2582 0
-487 -410 -140 2583 0
191 -48 3 2584 0
-1 420 -260 2585 0
-296 -388 66 2586 0
-286 -33 -388 2587 0
188 352 -235 2588 0
171 413 467 2589 0
-192 -123 298 2590 0
-406 100 92 2591 0
48 437 -261 2592 0
410 -59 -223 2593 0
27 275 390 2594 0
-188 -443 -154 2595 0
-136 395 203 2596 0
228 75 -265 2597 0
-72 172 -269 2598 0
395 313 -312 2599 0
382 -485 301 2600 0
169 109 126 2601 0
-441 -327 -255 2602 0
136 -426 397 2603 0
190 145 -62 2604 0
298 -396 461 2605 0
-361 -125 214 2606 0
-193 366 -230 2607 0
154 -299 -370 2608 0
468 355 -469 2609 0
122 127 -409 2610 0
-163 -150 442 2611 0
-209 120 484 2612 0
-41 -277 76 2613 0
347 146 175 2614 0
-443 -160 344 2615 0
120 111 466 2616 0
-430 38 347 2617 0
214 -160 -494 2618 0
-313 446 452 2619 0
-484 -413 45 2620 0
242 324 150 2621 0
437 463 -161 2622 0
55 -478 -312 2623 0
-117 -358 -82 2624 0
-377 426 367 2625 0
-39 -139 -145 2626 0
323 -33 158 2627 0
41 308 318 2628 0
-224 47 273 2629 0
-164 108 -142 2630 0
220 5 348 2631 0
166 -305 239 2632 0
-160 56 -106 2633 0
-355 -115 -264 2634 0
-39 169 -14 2635 0
-320 337 194 2636 0
452 -203 -97 2637 0
273 -499 -220 2638 0
151 147 128 2639 0
231 243 -46 2640 0
-129 241 8 2641 0
107 -298 -339 2642 0
-499 -19 -250 2643 0
-2 129 -232 2644 0
-5 -281 345 2645 0
125 -184 -264 2646 0
314 490 -4 2647 0
210 -339 327 2648 0
396 -147 307 2649 0
161 -124 413 2650 0
