p cnf 2650 2150
414 -438 332 501 0
-23 85 77 502 0
418 340 -313 503 0
408 106 227 504 0
6 382 -309 505 0
23 -274 -358 506 0
2 -58 456 507 0
163 345 -142 508 0
-304 -230 -44 509 0
156 349 97 510 0
150 -119 -12 511 0
-471 -444 183 512 0
407 453 -498 513 0
-385 78 -29 514 0
-74 -291 -361 515 0
-226 -33 -249 516 0
-344 332 197 517 0
404 51 -251 518 0
364 -26 301 519 0
99 56 486 520 0
-79 102 -229 521 0
-170 163 465 522 0
436 -111 -75 523 0
-80 304 173 524 0
475 -417 -14 525 0
-467 348 -211 526 0
-343 -269 283 527 0
495 242 397 528 0
54 472 -384 529 0
255 -356 -188 530 0
51 -92 -6 531 0
147 -152 -74 532 0
-338 474 -178 533 0
-103 -473 303 534 0
125 -77 -392 535 0
414 -345 368 536 0
-467 -129 -362 537 0
32 -220 -219 538 0
-20 -180 282 539 0
356 53 445 540 0
439 430 350 541 0
-460 71 126 542 0
303 302 460 543 0
-290 -366 -120 544 0
56 -156 -471 545 0
172 -97 -3 546 0
-155 430 -472 547 0
211 271 3 548 0
367 319 -408 549 0
-52 132 -417 550 0
-260 -199 -338 551 0
-73 254 248 552 0
163 472 -187 553 0
-71 316 -9 554 0
-256 -389 -465 555 0
-15 -477 65 556 0
-108 337 334 557 0
-421 -54 -346 558 0
-295 -78 -92 559 0
-97 -230 -116 560 0
291 106 -148 561 0
150 244 326 562 0
-152 -497 -124 563 0
-328 -71 484 564 0
432 464 29 565 0
334 -356 308 566 0
-183 -441 -12 567 0
-386 -259 -345 568 0
-459 -254 46 569 0
108 178 383 570 0
-347 483 102 571 0
150 153 138 572 0
42 -86 -478 573 0
-427 -155 446 574 0
-251 133 24 575 0
235 277 -319 576 0
-448 289 126 577 0
-325 -422 484 578 0
-25 -421 -411 579 0
-401 304 -59 580 0
-249 209 303 581 0
450 -133 377 582 0
198 319 26 583 0
-44 179 173 584 0
236 314 -30 585 0
21 379 -417 586 0
-70 155 -401 587 0
474 288 15 588 0
331 -230 63 589 0
198 268 -34 590 0
459 -335 -443 591 0
485 223 196 592 0
-471 -102 -332 593 0
-104 35 259 594 0
-277 74 128 595 0
-236 48 183 596 0
-357 61 -181 597 0
173 -437 467 598 0
417 357 -178 599 0
-455 -482 242 600 0
150 288 -301 601 0
116 441 -21 602 0
-422 -89 -63 603 0
-497 37 -457 604 0
-442 -82 -179 605 0
-62 451 -235 606 0
113 -95 -364 607 0
418 -114 436 608 0
341 3 -140 609 0
-240 491 -302 610 0
-418 -442 369 611 0
-142 298 350 612 0
-59 -253 38 613 0
-422 -355 72 614 0
-420 -120 18 615 0
-274 246 -176 616 0
22 387 451 617 0
293 -325 -476 618 0
-68 -319 -298 619 0
-396 -303 306 620 0
-302 28 -470 621 0
-407 16 251 622 0
-333 411 379 623 0
-153 -442 472 624 0
-354 -107 482 625 0
153 -118 -129 626 0
360 -485 235 627 0
-23 -47 -280 628 0
227 -449 -137 629 0
-342 2 411 630 0
479 -215 22 631 0
381 150 -269 632 0
88 -490 -182 633 0
437 -398 -183 634 0
-480 -160 93 635 0
-12 -311 -342 636 0
30 -250 -209 637 0
103 70 19 638 0
-459 454 285 639 0
314 443 369 640 0
-65 451 -266 641 0
145 -155 24 642 0
390 190 8 643 0
-193 309 -288 644 0
355 313 20 645 0
-25 450 -186 646 0
60 277 388 647 0
-199 295 -119 648 0
192 -352 -374 649 0
-255 -194 -246 650 0
-359 483 283 651 0
404 335 61 652 0
-202 258 -14 653 0
-368 -114 173 654 0
-143 123 461 655 0
-120 328 6 656 0
-370 57 121 657 0
29 99 423 658 0
62 275 -388 659 0
308 -497 44 660 0
-352 -130 -480 661 0
-46 -147 -263 662 0
-86 -82 -398 663 0
138 37 497 664 0
52 168 217 665 0
429 453 -8 666 0
329 -500 495 667 0
-310 390 -58 668 0
126 -485 500 669 0
-74 231 -265 670 0
4 -148 -421 671 0
-381 -98 380 672 0
445 -165 -408 673 0
290 -479 385 674 0
-322 -55 115 675 0
-276 485 -160 676 0
-128 -254 60 677 0
494 5 -63 678 0
137 131 -350 679 0
-374 152 -318 680 0
148 -344 292 681 0
170 364 17 682 0
-419 375 161 683 0
-495 -166 -289 684 0
100 178 -234 685 0
-234 27 268 686 0
296 369 -38 687 0
-183 -308 168 688 0
-399 357 -428 689 0
-156 -165 120 690 0
-185 -26 -78 691 0
149 260 13 692 0
4 87 452 693 0
-136 -12 -152 694 0
-270 -140 418 695 0
-280 253 488 696 0
-150 244 310 697 0
-389 260 -350 698 0
129 -114 294 699 0
-165 492 19 700 0
-245 -229 34 701 0
491 360 118 702 0
162 -181 480 703 0
231 137 202 704 0
-463 31 369 705 0
-444 136 -235 706 0
-284 103 221 707 0
-272 23 -198 708 0
-258 -264 213 709 0
-137 328 340 710 0
-138 -2 -5 711 0
18 310 -69 712 0
-305 416 -283 713 0
-182 142 -369 714 0
4 366 217 715 0
-201 221 180 716 0
-24 179 -93 717 0
-67 -175 290 718 0
207 468 -189 719 0
331 316 -384 720 0
145 -233 -56 721 0
-41 -88 -392 722 0
-441 -228 208 723 0
-120 -477 497 724 0
-321 193 -165 725 0
273 243 144 726 0
158 34 -245 727 0
-131 -186 240 728 0
404 175 228 729 0
414 -462 -89 730 0
8 48 229 731 0
-181 -83 -178 732 0
186 451 370 733 0
112 230 314 734 0
470 260 175 735 0
466 -63 295 736 0
332 -280 194 737 0
-349 -446 127 738 0
-475 388 445 739 0
-105 441 153 740 0
362 83 -333 741 0
-99 -51 23 742 0
269 -289 -372 743 0
-473 58 489 744 0
-7 -140 219 745 0
43 -382 -332 746 0
69 52 210 747 0
312 134 -90 748 0
272 308 -355 749 0
-220 405 -175 750 0
161 57 337 751 0
-365 189 -20 752 0
-347 370 449 753 0
-210 217 -348 754 0
-162 -470 -350 755 0
167 154 -402 756 0
-110 -491 102 757 0
-45 -288 -192 758 0
-500 401 407 759 0
-256 280 450 760 0
-460 388 -416 761 0
452 206 -153 762 0
118 26 -57 763 0
-78 -32 86 764 0
464 190 129 765 0
-99 -411 -231 766 0
467 -393 168 767 0
-236 -4 -323 768 0
-454 -161 -36 769 0
188 -157 -355 770 0
-325 217 -256 771 0
-487 276 -486 772 0
-372 57 402 773 0
-235 103 -59 774 0
484 492 26 775 0
303 -429 -202 776 0
440 -488 42 777 0
437 -163 -34 778 0
-301 -285 -247 779 0
209 -102 -398 780 0
-396 -96 -219 781 0
-443 -166 31 782 0
225 382 -233 783 0
-377 203 -9 784 0
-311 -266 411 785 0
-336 414 317 786 0
170 -159 212 787 0
247 -249 -445 788 0
408 26 5 789 0
-467 -483 -149 790 0
-478 241 331 791 0
-246 372 232 792 0
357 191 111 793 0
-30 336 -174 794 0
-225 397 -22 795 0
400 70 -236 796 0
135 258 321 797 0
-97 -280 -77 798 0
227 -67 104 799 0
-123 -209 -333 800 0
189 -2 241 801 0
-421 -450 -305 802 0
65 -357 -414 803 0
-394 -57 -474 804 0
92 454 52 805 0
349 223 -305 806 0
-352 482 289 807 0
-420 -16 231 808 0
377 -191 459 809 0
-251 -13 429 810 0
-476 -34 130 811 0
-398 361 -229 812 0
425 261 -441 813 0
-202 -349 -488 814 0
167 163 320 815 0
-291 -49 449 816 0
41 207 93 817 0
-226 -376 -202 818 0
-22 226 357 819 0
-463 -95 -293 820 0
169 57 388 821 0
65 384 270 822 0
-241 -106 -375 823 0
-372 190 -485 824 0
267 -54 255 825 0
-229 -114 127 826 0
219 -173 282 827 0
-465 368 296 828 0
97 -67 -154 829 0
398 -117 58 830 0
365 107 95 831 0
-10 -212 146 832 0
-328 429 23 833 0
-113 302 438 834 0
200 -25 465 835 0
92 -101 49 836 0
-56 -7 -110 837 0
-113 155 419 838 0
-165 147 -371 839 0
376 440 277 840 0
-403 -221 -299 841 0
374 -348 -25 842 0
449 -19 -281 843 0
130 152 -386 844 0
68 -480 153 845 0
-343 -493 185 846 0
-253 476 359 847 0
433 470 108 848 0
282 -174 -256 849 0
81 -453 -255 850 0
-244 -63 485 851 0
-133 -412 -211 852 0
294 -427 -422 853 0
-256 449 -481 854 0
-294 256 81 855 0
60 -394 -454 856 0
-242 134 -407 857 0
7 -147 340 858 0
-457 355 -284 859 0
-287 38 78 860 0
-288 125 -283 861 0
329 -311 -276 862 0
172 -233 461 863 0
204 257 472 864 0
306 -99 380 865 0
387 311 215 866 0
-471 -241 -451 867 0
446 -216 301 868 0
-202 290 -368 869 0
-173 155 -188 870 0
1 462 -24 871 0
9 50 -259 872 0
-381 50 -430 873 0
-393 -284 492 874 0
-274 -461 379 875 0
388 -442 39 876 0
6 -396 94 877 0
171 -243 364 878 0
180 -365 223 879 0
276 224 -385 880 0
233 271 355 881 0
241 4 -176 882 0
257 179 262 883 0
-85 439 138 884 0
391 460 69 885 0
194 -406 -480 886 0
-98 -220 269 887 0
-458 -35 294 888 0
-311 284 460 889 0
111 -123 -409 890 0
388 -489 -44 891 0
347 -164 -250 892 0
343 -462 -336 893 0
79 353 243 894 0
370 17 434 895 0
278 -212 428 896 0
-123 317 349 897 0
-467 -433 -15 898 0
-342 -46 -217 899 0
398 -448 333 900 0
219 -221 -144 901 0
33 -122 223 902 0
-168 31 -429 903 0
367 381 163 904 0
-349 -145 27 905 0
-359 44 -66 906 0
-438 -287 -445 907 0
-373 263 -198 908 0
106 -179 -492 909 0
-357 134 149 910 0
62 -411 -257 911 0
-498 -89 -163 912 0
139 -418 -29 913 0
411 -392 -204 914 0
-10 -229 378 915 0
110 411 -227 916 0
437 -338 -365 917 0
-131 -331 63 918 0
140 181 330 919 0
333 496 -115 920 0
-329 474 325 921 0
-244 268 -410 922 0
270 430 228 923 0
335 -274 132 924 0
470 -139 -163 925 0
-81 471 -280 926 0
238 9 -300 927 0
-405 -448 473 928 0
437 161 -107 929 0
-365 409 -109 930 0
-41 -147 158 931 0
-489 461 358 932 0
-499 428 427 933 0
168 -473 351 934 0
492 -216 -472 935 0
223 -189 -308 936 0
-334 493 217 937 0
-417 -407 384 938 0
199 215 -264 939 0
8 183 355 940 0
-202 -107 192 941 0
14 381 315 942 0
-386 -124 370 943 0
290 -216 225 944 0
-413 473 494 945 0
-180 388 -74 946 0
88 391 248 947 0
476 -257 -88 948 0
268 91 60 949 0
-387 161 -374 950 0
-212 72 -159 951 0
-223 -106 -281 952 0
-361 -246 102 953 0
-174 42 -374 954 0
-410 180 -351 955 0
279 -181 260 956 0
340 40 -193 957 0
-203 -373 226 958 0
-420 -158 -11 959 0
-310 491 -399 960 0
53 318 -59 961 0
-196 -146 -239 962 0
-20 -357 -339 963 0
367 1 -111 964 0
147 -89 79 965 0
13 216 -417 966 0
-481 54 -80 967 0
146 -80 339 968 0
-210 -126 71 969 0
-1 376 81 970 0
76 450 -271 971 0
-385 225 -469 972 0
30 432 153 973 0
20 346 -325 974 0
-22 166 142 975 0
3 348 -462 976 0
22 -46 440 977 0
-432 172 419 978 0
330 -444 -230 979 0
70 -331 -72 980 0
-147 51 231 981 0
-2 -292 -371 982 0
218 -54 485 983 0
18 -463 337 984 0
169 149 -417 985 0
212 46 -474 986 0
-180 -154 -392 987 0
-417 198 -392 988 0
421 68 -288 989 0
91 48 -238 990 0
-383 -426 -296 991 0
-162 487 145 992 0
328 -437 -135 993 0
251 454 -295 994 0
341 -158 -82 995 0
-84 -141 -127 996 0
345 -448 454 997 0
446 376 -124 998 0
-49 -448 52 999 0
354 326 -369 1000 0
-461 393 -344 1001 0
-254 266 362 1002 0
64 113 270 1003 0
288 -265 283 1004 0
-273 -428 452 1005 0
10 -160 -325 1006 0
-278 343 -113 1007 0
374 -308 150 1008 0
-76 -500 93 1009 0
-174 414 51 1010 0
45 355 88 1011 0
-214 106 194 1012 0
-367 -421 -349 1013 0
-366 -247 -68 1014 0
-185 408 357 1015 0
397 -103 94 1016 0
-261 340 350 1017 0
165 -402 -2 1018 0
-195 -185 466 1019 0
314 402 472 1020 0
-176 -267 388 1021 0
316 -356 -194 1022 0
-441 -111 -392 1023 0
295 -340 88 1024 0
332 -143 82 1025 0
35 -212 500 1026 0
-199 -347 5 1027 0
-51 157 312 1028 0
55 -287 -227 1029 0
-99 367 315 1030 0
-153 312 -294 1031 0
-497 -387 -222 1032 0
-145 307 -414 1033 0
169 -171 214 1034 0
-437 -140 -71 1035 0
-244 -243 -419 1036 0
262 83 471 1037 0
-240 -362 -339 1038 0
-181 -314 84 1039 0
381 -238 464 1040 0
151 351 210 1041 0
20 -158 -205 1042 0
-59 425 70 1043 0
-177 17 427 1044 0
242 -413 14 1045 0
178 -256 -148 1046 0
256 -231 195 1047 0
250 -232 402 1048 0
414 480 -463 1049 0
360 25 -472 1050 0
-483 269 286 1051 0
356 122 381 1052 0
446 -147 339 1053 0
-328 273 -168 1054 0
33 -484 368 1055 0
150 -11 455 1056 0
218 -162 89 1057 0
289 -341 -317 1058 0
357 -209 -13 1059 0
-432 -146 -313 1060 0
428 213 309 1061 0
468 391 328 1062 0
-442 -448 269 1063 0
79 398 22 1064 0
-33 100 -447 1065 0
-31 497 73 1066 0
-188 -422 -312 1067 0
356 127 105 1068 0
-246 -6 -363 1069 0
-42 420 271 1070 0
-29 270 -121 1071 0
-252 441 406 1072 0
39 -67 -151 1073 0
-404 333 408 1074 0
143 70 -121 1075 0
13 -128 -231 1076 0
-348 31 -366 1077 0
-444 265 82 1078 0
-324 -394 274 1079 0
144 490 -157 1080 0
313 281 416 1081 0
126 340 342 1082 0
-371 160 12 1083 0
-35 154 303 1084 0
49 -4 -183 1085 0
168 -239 -4 1086 0
-53 494 -262 1087 0
280 347 119 1088 0
-374 -447 224 1089 0
50 41 -396 1090 0
421 -147 -366 1091 0
479 -342 -28 1092 0
39 134 406 1093 0
307 197 477 1094 0
-389 -289 485 1095 0
6 -422 -499 1096 0
91 -76 167 1097 0
-472 138 -245 1098 0
-286 193 -361 1099 0
365 -313 438 1100 0
-273 111 -287 1101 0
-287 -295 321 1102 0
-273 145 424 1103 0
-231 322 -391 1104 0
223 336 -1 1105 0
-451 128 389 1106 0
83 -307 178 1107 0
33 -187 384 1108 0
369 -227 388 1109 0
336 427 70 1110 0
-398 -143 -338 1111 0
23 -245 107 1112 0
409 -125 -2 1113 0
-56 -11 -337 1114 0
-313 -482 425 1115 0
411 -240 5 1116 0
118 -174 112 1117 0
-139 312 133 1118 0
-168 -377 478 1119 0
-224 -92 -282 1120 0
55 413 411 1121 0
398 -225 428 1122 0
326 -445 40 1123 0
-415 -197 321 1124 0
78 261 -266 1125 0
-105 -495 132 1126 0
283 461 196 1127 0
12 -347 34 1128 0
479 498 367 1129 0
482 -234 226 1130 0
-108 71 328 1131 0
71 168 128 1132 0
142 -357 -461 1133 0
-298 207 379 1134 0
-126 -4 -340 1135 0
-383 308 177 1136 0
74 -369 -175 1137 0
-224 -158 490 1138 0
465 -164 -25 1139 0
-364 -174 327 1140 0
-460 14 -280 1141 0
-358 -38 426 1142 0
105 196 -322 1143 0
472 -220 404 1144 0
-22 369 -126 1145 0
492 -388 129 1146 0
328 152 207 1147 0
-398 394 93 1148 0
-493 166 -251 1149 0
260 143 85 1150 0
-311 78 337 1151 0
417 129 -440 1152 0
174 -8 45 1153 0
-398 457 -286 1154 0
113 147 194 1155 0
93 -420 -298 1156 0
110 148 397 1157 0
374 224 -33 1158 0
171 73 -380 1159 0
302 -347 -151 1160 0
418 212 -295 1161 0
469 39 31 1162 0
413 -145 412 1163 0
138 194 -73 1164 0
-252 -256 402 1165 0
-251 105 -312 1166 0
-354 -148 154 1167 0
-131 -334 -279 1168 0
-411 424 -238 1169 0
313 -171 -214 1170 0
272 -75 213 1171 0
-281 -211 -195 1172 0
-31 374 406 1173 0
286 252 223 1174 0
143 -444 -20 1175 0
129 147 247 1176 0
410 -46 -23 1177 0
-345 24 182 1178 0
40 8 -421 1179 0
42 -40 182 1180 0
333 465 32 1181 0
-446 329 -41 1182 0
105 -39 166 1183 0
214 -178 201 1184 0
-417 108 154 1185 0
30 -134 -53 1186 0
-460 -322 15 1187 0
28 -414 24 1188 0
21 390 72 1189 0
-443 226 -381 1190 0
-31 -11 289 1191 0
-443 346 285 1192 0
106 343 191 1193 0
434 -115 48 1194 0
-472 -28 -379 1195 0
-8 260 -203 1196 0
-422 295 -264 1197 0
-361 -159 499 1198 0
417 -488 208 1199 0
145 -27 278 1200 0
438 -249 -110 1201 0
-229 335 -430 1202 0
-495 -228 -483 1203 0
-142 237 445 1204 0
75 361 183 1205 0
-322 -150 -479 1206 0
-2 -350 345 1207 0
375 117 -304 1208 0
385 410 161 1209 0
60 454 71 1210 0
145 222 -343 1211 0
-133 -298 379 1212 0
-285 -227 -318 1213 0
-35 -267 414 1214 0
180 -266 -456 1215 0
341 -110 -486 1216 0
165 464 1 1217 0
-116 16 311 1218 0
-138 7 -221 1219 0
422 112 -71 1220 0
-312 82 197 1221 0
338 177 -133 1222 0
-344 -92 -356 1223 0
-131 -155 -226 1224 0
-107 1 33 1225 0
56 102 260 1226 0
107 169 -195 1227 0
71 439 332 1228 0
39 -293 -413 1229 0
-232 -113 -75 1230 0
-200 -265 20 1231 0
-17 -39 -127 1232 0
102 275 -166 1233 0
-121 325 146 1234 0
-253 -217 -255 1235 0
169 -128 -64 1236 0
392 -150 -436 1237 0
-25 -398 463 1238 0
-290 425 486 1239 0
-348 -39 -67 1240 0
252 -66 454 1241 0
-423 321 -367 1242 0
322 -22 491 1243 0
441 155 24 1244 0
114 -375 -108 1245 0
184 -30 -386 1246 0
448 -296 375 1247 0
363 -78 -344 1248 0
307 21 -459 1249 0
162 498 150 1250 0
-66 92 137 1251 0
-422 -438 55 1252 0
-180 -144 -438 1253 0
227 119 122 1254 0
-11 480 349 1255 0
186 -45 70 1256 0
158 -302 281 1257 0
321 116 327 1258 0
-361 -30 177 1259 0
-247 -225 139 1260 0
-118 -285 -420 1261 0
262 -207 -210 1262 0
-486 426 -447 1263 0
-177 -218 -139 1264 0
334 -154 -420 1265 0
-474 -311 -93 1266 0
-242 208 -432 1267 0
56 107 222 1268 0
425 12 -447 1269 0
467 -125 -52 1270 0
-274 354 421 1271 0
-250 151 344 1272 0
-294 37 -260 1273 0
-90 245 -149 1274 0
-72 299 -35 1275 0
211 56 -349 1276 0
241 -15 -20 1277 0
-107 440 -445 1278 0
-66 426 202 1279 0
-250 493 227 1280 0
155 -477 230 1281 0
-236 -400 181 1282 0
-311 -263 -112 1283 0
-95 21 -184 1284 0
-355 366 472 1285 0
335 -471 -182 1286 0
138 -291 372 1287 0
316 32 123 1288 0
-131 250 60 1289 0
432 197 15 1290 0
-18 480 -29 1291 0
450 -406 40 1292 0
-72 143 -126 1293 0
-145 -98 -100 1294 0
224 127 -225 1295 0
226 -321 167 1296 0
278 404 452 1297 0
-449 154 -225 1298 0
-295 -229 16 1299 0
270 -458 -176 1300 0
-449 -211 89 1301 0
-59 371 -280 1302 0
-85 358 -447 1303 0
-147 97 -366 1304 0
413 -53 282 1305 0
50 -1 255 1306 0
256 -155 -412 1307 0
345 -437 -120 1308 0
-33 403 494 1309 0
202 247 -53 1310 0
-331 -322 -449 1311 0
-344 468 171 1312 0
-67 305 -20 1313 0
-64 -460 301 1314 0
-333 335 6 1315 0
-478 -167 -498 1316 0
131 -233 -403 1317 0
217 334 -323 1318 0
-106 -202 229 1319 0
478 -104 -347 1320 0
328 2 31 1321 0
-34 314 224 1322 0
190 -87 -307 1323 0
349 -316 422 1324 0
-276 -128 388 1325 0
494 450 318 1326 0
-142 -488 -232 1327 0
-233 390 -490 1328 0
-341 -210 -306 1329 0
38 52 -430 1330 0
72 -483 -376 1331 0
166 449 -443 1332 0
-135 197 -375 1333 0
132 498 -128 1334 0
8 405 -436 1335 0
280 354 -452 1336 0
171 -277 -398 1337 0
-21 -404 267 1338 0
205 31 37 1339 0
-327 415 178 1340 0
-168 -37 -446 1341 0
118 4 277 1342 0
-427 -205 322 1343 0
-201 362 -250 1344 0
477 -288 34 1345 0
-168 -199 -348 1346 0
486 368 -131 1347 0
435 48 330 1348 0
-145 -36 320 1349 0
-109 -60 81 1350 0
40 -235 100 1351 0
52 74 -149 1352 0
-289 471 -141 1353 0
108 -307 -309 1354 0
371 -90 -398 1355 0
394 -101 -39 1356 0
-141 -312 -350 1357 0
-27 47 -298 1358 0
-285 433 70 1359 0
-474 -428 486 1360 0
305 -100 215 1361 0
-474 -43 -309 1362 0
-62 -422 368 1363 0
-175 38 496 1364 0
348 472 80 1365 0
472 -142 -263 1366 0
-22 -495 88 1367 0
153 205 51 1368 0
-54 383 -97 1369 0
132 -226 157 1370 0
-479 -280 -297 1371 0
106 -96 305 1372 0
-323 -329 -433 1373 0
-153 334 -420 1374 0
-379 -466 -156 1375 0
193 -475 -116 1376 0
-438 -155 400 1377 0
96 50 -307 1378 0
-416 -27 -200 1379 0
305 178 -422 1380 0
-216 -51 450 1381 0
-44 -232 -49 1382 0
218 376 346 1383 0
276 -466 -134 1384 0
491 -158 -176 1385 0
127 159 -494 1386 0
-26 -137 -132 1387 0
450 -85 -272 1388 0
76 -441 319 1389 0
-343 355 95 1390 0
242 -479 257 1391 0
-33 -349 8 1392 0
-98 462 49 1393 0
-300 76 298 1394 0
450 -9 -217 1395 0
324 -187 -203 1396 0
-122 378 205 1397 0
-181 -102 383 1398 0
330 158 -354 1399 0
-46 -323 47 1400 0
-407 -497 -98 1401 0
477 -459 -481 1402 0
79 -460 -319 1403 0
-352 -190 -451 1404 0
449 -66 -10 1405 0
-198 182 426 1406 0
-136 -97 210 1407 0
311 359 -101 1408 0
-53 -245 280 1409 0
169 -14 -475 1410 0
-123 118 313 1411 0
91 149 82 1412 0
-164 -298 -429 1413 0
380 387 -143 1414 0
385 190 -407 1415 0
-375 243 -322 1416 0
-360 -210 310 1417 0
-349 -197 -410 1418 0
-371 109 449 1419 0
222 342 107 1420 0
405 368 -406 1421 0
-256 -405 34 1422 0
90 283 -152 1423 0
-350 16 11 1424 0
281 -117 340 1425 0
-389 -377 257 1426 0
482 238 -191 1427 0
311 238 133 1428 0
-42 -454 52 1429 0
308 -112 202 1430 0
188 -409 90 1431 0
-147 -454 -82 1432 0
143 -361 -343 1433 0
-250 -17 -205 1434 0
2 -164 -432 1435 0
23 -467 -337 1436 0
190 28 -121 1437 0
-451 -174 -248 1438 0
149 294 40 1439 0
-247 -488 -289 1440 0
-127 165 -267 1441 0
497 -90 -234 1442 0
-216 43 86 1443 0
-195 -396 -376 1444 0
-459 233 -428 1445 0
239 380 411 1446 0
-41 -260 -92 1447 0
12 -203 -28 1448 0
294 155 -162 1449 0
12 -94 -214 1450 0
-483 296 -361 1451 0
73 360 -140 1452 0
-422 -469 12 1453 0
166 500 -272 1454 0
489 198 341 1455 0
359 170 -29 1456 0
-451 -9 356 1457 0
-49 -189 267 1458 0
-362 456 -2 1459 0
-426 97 -9 1460 0
453 399 140 1461 0
201 -225 -263 1462 0
12 -390 483 1463 0
-317 -313 94 1464 0
-68 371 168 1465 0
-32 -374 -480 1466 0
298 -220 92 1467 0
350 438 69 1468 0
-441 462 -371 1469 0
-156 112 -146 1470 0
340 -48 180 1471 0
-407 -151 -352 1472 0
35 -174 -261 1473 0
-215 -486 442 1474 0
-292 117 -218 1475 0
60 77 -39 1476 0
313 -277 280 1477 0
366 238 -361 1478 0
41 -455 -272 1479 0
-416 -387 139 1480 0
-416 44 196 1481 0
-306 164 120 1482 0
34 -445 -494 1483 0
46 490 -198 1484 0
-96 409 -419 1485 0
-357 444 -143 1486 0
77 -411 15 1487 0
-338 407 -470 1488 0
359 461 -273 1489 0
-458 317 -366 1490 0
227 72 469 1491 0
414 202 424 1492 0
-138 106 206 1493 0
338 -28 301 1494 0
405 -256 157 1495 0
-279 -270 322 1496 0
-19 299 -489 1497 0
-476 89 -187 1498 0
418 226 305 1499 0
-373 -31 -488 1500 0
137 -138 -309 1501 0
-48 -324 241 1502 0
75 -361 260 1503 0
422 294 -454 1504 0
359 -175 101 1505 0
390 174 -368 1506 0
-76 -222 124 1507 0
-342 414 73 1508 0
-23 -72 -164 1509 0
264 482 -247 1510 0
83 -361 -48 1511 0
-485 -47 53 1512 0
33 -458 -169 1513 0
-363 -166 -145 1514 0
-447 -374 474 1515 0
-284 339 -245 1516 0
-65 -170 -255 1517 0
-193 -136 -45 1518 0
442 253 51 1519 0
70 -406 -94 1520 0
236 137 -204 1521 0
-453 159 -183 1522 0
439 -118 1 1523 0
-194 441 -349 1524 0
31 298 85 1525 0
-390 -458 310 1526 0
-172 -19 -144 1527 0
-356 11 -313 1528 0
-472 199 -353 1529 0
-70 360 468 1530 0
-443 -378 179 1531 0
-115 -138 215 1532 0
97 -8 -433 1533 0
-198 -177 -218 1534 0
-338 -452 -490 1535 0
-40 -313 283 1536 0
-334 270 328 1537 0
-161 398 -262 1538 0
-28 -359 155 1539 0
156 -48 392 1540 0
246 494 149 1541 0
203 -460 276 1542 0
-379 182 -58 1543 0
294 259 282 1544 0
-176 152 -224 1545 0
408 -29 364 1546 0
-457 225 217 1547 0
-422 -55 -338 1548 0
-129 -401 297 1549 0
-65 -93 -255 1550 0
39 -295 -331 1551 0
425 304 266 1552 0
-401 -42 13 1553 0
276 495 -456 1554 0
-304 217 74 1555 0
499 -187 322 1556 0
434 -152 -462 1557 0
-297 74 204 1558 0
-82 216 -430 1559 0
-292 29 126 1560 0
101 384 405 1561 0
301 -294 188 1562 0
397 390 150 1563 0
-100 370 -254 1564 0
23 282 -97 1565 0
-73 -397 -31 1566 0
462 -15 458 1567 0
156 -367 -76 1568 0
33 -194 -425 1569 0
-169 -307 147 1570 0
455 -292 -133 1571 0
-92 270 293 1572 0
273 -450 -446 1573 0
168 -420 -241 1574 0
-162 123 -225 1575 0
-237 -281 -102 1576 0
310 -438 -320 1577 0
-187 393 -39 1578 0
136 -499 -481 1579 0
-418 421 -465 1580 0
362 -173 -460 1581 0
-355 39 88 1582 0
-240 -492 66 1583 0
-425 -53 338 1584 0
-266 -10 395 1585 0
127 207 21 1586 0
275 -203 437 1587 0
-47 -313 -458 1588 0
72 132 408 1589 0
-267 195 -256 1590 0
-36 112 -371 1591 0
-426 -249 331 1592 0
-36 -222 478 1593 0
271 -298 126 1594 0
12 308 346 1595 0
-152 435 -471 1596 0
385 199 -92 1597 0
-205 117 278 1598 0
-118 58 195 1599 0
-19 -53 -320 1600 0
-207 41 -348 1601 0
269 -317 417 1602 0
46 399 218 1603 0
-175 -199 -171 1604 0
41 -486 -11 1605 0
492 -208 -262 1606 0
110 -439 -365 1607 0
-215 -294 262 1608 0
-116 167 54 1609 0
232 426 -38 1610 0
500 295 497 1611 0
70 -434 442 1612 0
-328 437 332 1613 0
-323 54 121 1614 0
95 -350 -24 1615 0
-15 227 328 1616 0
162 -494 -289 1617 0
402 -317 -339 1618 0
-417 277 167 1619 0
-13 107 -323 1620 0
-128 11 -183 1621 0
241 440 -171 1622 0
482 278 -398 1623 0
464 200 144 1624 0
-80 -433 359 1625 0
154 225 -165 1626 0
473 -479 -412 1627 0
-144 -332 408 1628 0
-165 103 -185 1629 0
377 -167 -465 1630 0
139 -352 -394 1631 0
-48 -480 -263 1632 0
-463 280 271 1633 0
76 -373 477 1634 0
-177 75 422 1635 0
254 -138 79 1636 0
112 241 371 1637 0
115 -448 -434 1638 0
458 76 -163 1639 0
-468 261 -55 1640 0
-197 -87 -376 1641 0
25 -385 -72 1642 0
145 28 129 1643 0
-330 248 -299 1644 0
-38 320 -372 1645 0
-378 115 179 1646 0
-471 -126 168 1647 0
-284 214 -328 1648 0
52 351 -392 1649 0
-234 65 -381 1650 0
-52 3 292 1651 0
-166 -432 93 1652 0
351 422 13 1653 0
212 -273 61 1654 0
-365 -118 -249 1655 0
230 -123 354 1656 0
228 -211 81 1657 0
314 134 12 1658 0
-227 -333 -473 1659 0
147 108 -259 1660 0
179 481 313 1661 0
43 -120 -311 1662 0
463 -222 219 1663 0
189 -2 346 1664 0
490 499 -404 1665 0
-121 115 -488 1666 0
95 116 280 1667 0
261 -258 460 1668 0
-128 484 311 1669 0
-351 319 -202 1670 0
-364 26 6 1671 0
498 -304 -247 1672 0
-10 258 186 1673 0
-198 -223 270 1674 0
-11 84 -168 1675 0
366 221 -319 1676 0
-180 1 143 1677 0
469 -195 -121 1678 0
128 461 319 1679 0
-239 95 364 1680 0
-117 -272 397 1681 0
334 -230 -72 1682 0
-498 -132 -65 1683 0
-157 10 265 1684 0
-371 122 1 1685 0
324 -94 -49 1686 0
-466 369 332 1687 0
274 -357 -154 1688 0
150 115 336 1689 0
-35 258 -186 1690 0
229 -172 -343 1691 0
287 -42 -218 1692 0
-316 -240 -124 1693 0
219 -465 104 1694 0
468 19 405 1695 0
-208 86 207 1696 0
-243 229 -335 1697 0
-3 -153 -44 1698 0
-464 366 352 1699 0
-422 167 121 1700 0
147 236 136 1701 0
-81 493 364 1702 0
-69 -118 -34 1703 0
-90 355 -403 1704 0
-328 -467 -443 1705 0
-228 -234 446 1706 0
-381 -403 -59 1707 0
-343 407 87 1708 0
-439 245 123 1709 0
350 31 -165 1710 0
266 224 100 1711 0
244 -71 -448 1712 0
146 211 -302 1713 0
-123 35 8 1714 0
50 -384 84 1715 0
226 -462 192 1716 0
-41 -349 -90 1717 0
-304 489 -205 1718 0
360 129 -159 1719 0
-282 -288 -270 1720 0
-384 -279 67 1721 0
1 365 13 1722 0
373 342 454 1723 0
-259 349 -419 1724 0
-360 153 199 1725 0
-243 269 75 1726 0
138 112 -56 1727 0
205 -199 -203 1728 0
456 -376 343 1729 0
-485 -37 -47 1730 0
482 -460 119 1731 0
245 -3 -73 1732 0
-490 53 30 1733 0
100 285 -4 1734 0
243 -13 -339 1735 0
-350 -356 152 1736 0
-151 -351 316 1737 0
-192 409 399 1738 0
415 146 -420 1739 0
-441 144 -364 1740 0
454 203 401 1741 0
119 172 -380 1742 0
443 -244 352 1743 0
-341 261 -85 1744 0
-202 184 94 1745 0
97 -140 -203 1746 0
255 -417 236 1747 0
-274 416 433 1748 0
-248 162 201 1749 0
350 349 317 1750 0
-486 -315 211 1751 0
-268 -250 -497 1752 0
-29 -91 256 1753 0
109 -332 -62 1754 0
-55 483 -245 1755 0
-22 -495 161 1756 0
270 341 369 1757 0
-235 -224 -171 1758 0
-401 -97 82 1759 0
500 157 416 1760 0
-301 168 184 1761 0
161 -46 -395 1762 0
-251 229 -316 1763 0
304 -7 -386 1764 0
319 -430 112 1765 0
378 144 -339 1766 0
337 412 -21 1767 0
-310 417 241 1768 0
30 482 11 1769 0
-195 214 78 1770 0
265 -136 201 1771 0
-430 -308 145 1772 0
-105 -249 -262 1773 0
229 409 481 1774 0
-495 -102 -471 1775 0
-496 -418 15 1776 0
-125 156 -361 1777 0
265 381 -472 1778 0
43 -256 71 1779 0
449 -311 105 1780 0
-449 183 318 1781 0
-306 440 38 1782 0
151 -458 -64 1783 0
195 74 283 1784 0
149 190 344 1785 0
285 -165 -266 1786 0
441 159 -138 1787 0
430 -159 6 1788 0
-227 367 -103 1789 0
-129 408 -282 1790 0
-348 -188 344 1791 0
145 -130 -497 1792 0
363 -227 -49 1793 0
-493 -332 137 1794 0
-263 249 -454 1795 0
-455 3 -320 1796 0
18 -193 -418 1797 0
393 162 299 1798 0
426 479 280 1799 0
-244 -312 458 1800 0
472 44 -79 1801 0
290 -107 15 1802 0
344 269 116 1803 0
101 41 -271 1804 0
-270 318 -343 1805 0
14 -350 397 1806 0
241 -343 126 1807 0
-205 183 -119 1808 0
-468 64 -255 1809 0
24 -263 -444 1810 0
-454 -67 182 1811 0
55 430 -189 1812 0
298 70 246 1813 0
-281 388 198 1814 0
203 -297 -105 1815 0
-34 48 -3 1816 0
96 352 396 1817 0
197 7 -227 1818 0
-414 -149 -80 1819 0
-214 465 -471 1820 0
192 198 -408 1821 0
93 -81 149 1822 0
-379 281 -438 1823 0
-497 415 16 1824 0
121 -263 -350 1825 0
-324 157 188 1826 0
-90 -358 -493 1827 0
488 431 343 1828 0
258 204 -465 1829 0
145 -228 -133 1830 0
49 62 -331 1831 0
285 12 378 1832 0
445 464 248 1833 0
-379 352 -14 1834 0
-111 345 -205 1835 0
61 185 283 1836 0
60 -325 -52 1837 0
-370 271 -205 1838 0
-230 348 -266 1839 0
101 -338 321 1840 0
-112 -164 -201 1841 0
327 -67 233 1842 0
-151 468 137 1843 0
-264 -102 128 1844 0
-488 -36 124 1845 0
-371 285 234 1846 0
-64 485 373 1847 0
24 328 -362 1848 0
78 -75 -330 1849 0
16 -378 73 1850 0
186 217 -187 1851 0
155 -335 121 1852 0
335 -355 361 1853 0
343 413 -456 1854 0
94 70 29 1855 0
396 -465 -323 1856 0
30 82 454 1857 0
-293 -53 323 1858 0
476 -323 133 1859 0
462 -118 -349 1860 0
-296 -132 -161 1861 0
-98 201 -459 1862 0
78 -405 418 1863 0
314 17 -495 1864 0
171 -283 -178 1865 0
-176 -457 -431 1866 0
357 7 -274 1867 0
116 -207 8 1868 0
457 218 152 1869 0
-168 1 -110 1870 0
-42 -4 -397 1871 0
65 -109 122 1872 0
229 484 -431 1873 0
42 -371 3 1874 0
3 -44 -318 1875 0
-346 308 -404 1876 0
-328 37 378 1877 0
371 433 104 1878 0
-166 374 -242 1879 0
64 -69 -180 1880 0
126 -62 -58 1881 0
-480 -101 350 1882 0
-284 -167 165 1883 0
53 235 355 1884 0
-488 337 -293 1885 0
-144 39 48 1886 0
-105 -139 -468 1887 0
-68 -73 283 1888 0
376 -153 236 1889 0
-488 -313 461 1890 0
423 407 451 1891 0
-12 -427 347 1892 0
442 455 341 1893 0
87 -175 466 1894 0
273 -101 -24 1895 0
313 -184 -427 1896 0
247 -30 456 1897 0
-322 277 55 1898 0
-431 154 -144 1899 0
359 87 -219 1900 0
-318 137 -210 1901 0
-476 140 437 1902 0
-120 404 406 1903 0
329 -230 -182 1904 0
-278 -267 176 1905 0
-119 -467 271 1906 0
-92 -123 428 1907 0
-7 456 231 1908 0
4 -104 285 1909 0
424 495 -444 1910 0
-153 357 -348 1911 0
-379 -499 26 1912 0
172 136 466 1913 0
-373 -448 -273 1914 0
-427 329 -304 1915 0
-434 230 -224 1916 0
-205 168 136 1917 0
136 -497 28 1918 0
-166 -48 -317 1919 0
230 164 -9 1920 0
-227 -167 -254 1921 0
33 -373 -89 1922 0
243 -1 -247 1923 0
25 345 -207 1924 0
354 -491 26 1925 0
-306 -329 -2 1926 0
23 167 -126 1927 0
-64 -490 114 1928 0
-424 115 253 1929 0
286 140 -150 1930 0
-62 -459 -262 1931 0
12 -449 239 1932 0
-273 486 -220 1933 0
-126 369 -357 1934 0
258 79 425 1935 0
350 258 -456 1936 0
331 -113 95 1937 0
-142 265 -362 1938 0
-58 -19 -152 1939 0
-368 -207 -302 1940 0
-424 473 467 1941 0
169 -367 -363 1942 0
-10 -470 101 1943 0
-43 -111 162 1944 0
-224 -323 -208 1945 0
216 295 418 1946 0
-425 34 -137 1947 0
351 7 -236 1948 0
-381 387 9 1949 0
-23 150 55 1950 0
-130 -14 -193 1951 0
-50 -462 -276 1952 0
-232 -364 -425 1953 0
290 440 -170 1954 0
307 401 368 1955 0
325 -50 -241 1956 0
-393 -432 247 1957 0
74 -467 -84 1958 0
243 201 432 1959 0
139 -295 -402 1960 0
-55 166 223 1961 0
-50 -358 376 1962 0
-404 -14 478 1963 0
-207 21 -272 1964 0
68 156 377 1965 0
474 40 -12 1966 0
-479 289 -408 1967 0
375 -470 -184 1968 0
259 20 -462 1969 0
358 -499 -177 1970 0
-11 276 -228 1971 0
-1 -322 338 1972 0
43 337 176 1973 0
-122 -262 -102 1974 0
353 -44 11 1975 0
166 -298 -196 1976 0
318 -160 -387 1977 0
-103 81 -318 1978 0
-229 258 90 1979 0
334 -147 -460 1980 0
286 272 458 1981 0
251 26 204 1982 0
434 334 -342 1983 0
147 39 -61 1984 0
370 -226 -347 1985 0
-19 453 151 1986 0
-257 -130 -294 1987 0
432 -79 327 1988 0
-154 228 340 1989 0
288 -413 -226 1990 0
140 186 -448 1991 0
-187 -315 450 1992 0
485 -336 190 1993 0
-433 -487 162 1994 0
172 216 -345 1995 0
-472 -489 -306 1996 0
450 -434 63 1997 0
-466 258 80 1998 0
-473 216 -320 1999 0
-324 51 -373 2000 0
239 223 -485 2001 0
213 494 -88 2002 0
-88 -291 -500 2003 0
238 -302 -344 2004 0
-401 -434 -63 2005 0
-103 -344 -446 2006 0
453 -316 436 2007 0
-64 450 -349 2008 0
-89 -64 -450 2009 0
-489 -255 -429 2010 0
458 99 483 2011 0
-427 132 -363 2012 0
394 218 146 2013 0
93 -157 -26 2014 0
184 -372 483 2015 0
-25 46 63 2016 0
399 -181 -301 2017 0
-432 153 263 2018 0
258 -113 446 2019 0
-470 10 -45 2020 0
-12 -129 -350 2021 0
128 -308 101 2022 0
490 -421 -301 2023 0
-47 233 -367 2024 0
-152 441 -362 2025 0
302 405 -462 2026 0
453 -207 334 2027 0
494 -485 487 2028 0
-163 201 245 2029 0
-290 166 -6 2030 0
474 389 -470 2031 0
-100 130 -436 2032 0
13 -429 -237 2033 0
-489 -388 -179 2034 0
-354 113 494 2035 0
-493 -236 223 2036 0
-460 -451 -407 2037 0
-321 -223 36 2038 0
-105 212 218 2039 0
-111 397 -33 2040 0
-75 33 449 2041 0
-16 240 311 2042 0
-262 -489 -212 2043 0
347 -467 -461 2044 0
197 340 158 2045 0
-260 198 395 2046 0
296 -49 -342 2047 0
216 83 -73 2048 0
-133 -135 -362 2049 0
-380 -69 6 2050 0
-145 24 -198 2051 0
416 -94 166 2052 0
92 -117 -153 2053 0
128 -292 -348 2054 0
420 -152 -327 2055 0
-86 460 -316 2056 0
483 -29 -232 2057 0
-429 477 45 2058 0
141 -426 458 2059 0
-196 -128 151 2060 0
-474 417 -416 2061 0
218 -181 281 2062 0
342 186 378 2063 0
60 -223 131 2064 0
-216 494 -5 2065 0
59 149 -172 2066 0
-496 -480 186 2067 0
-65 -173 -451 2068 0
-284 -206 150 2069 0
437 -476 -312 2070 0
328 -454 184 2071 0
-451 157 -54 2072 0
-120 233 -483 2073 0
373 -157 87 2074 0
-86 156 -229 2075 0
389 -328 -457 2076 0
421 434 -304 2077 0
56 340 411 2078 0
-228 -479 368 2079 0
457 -135 -209 2080 0
-165 273 -401 2081 0
-114 -32 -401 2082 0
174 -185 -477 2083 0
-311 -271 -92 2084 0
-182 420 -331 2085 0
410 103 71 2086 0
-286 -162 119 2087 0
10 -321 190 2088 0
11 -156 -406 2089 0
218 -443 -283 2090 0
224 -100 -425 2091 0
200 -351 453 2092 0
-63 175 8 2093 0
-351 372 -186 2094 0
-181 284 135 2095 0
-75 303 347 2096 0
252 -483 -214 2097 0
419 -420 -300 2098 0
181 -493 -350 2099 0
443 -358 -136 2100 0
287 -50 148 2101 0
150 246 309 2102 0
-205 468 -367 2103 0
273 -370 160 2104 0
-434 222 -283 2105 0
-372 -250 -109 2106 0
-10 -233 232 2107 0
7 141 -230 2108 0
300 311 89 2109 0
-196 480 -190 2110 0
331 -140 -31 2111 0
86 216 468 2112 0
-44 -432 187 2113 0
-30 473 -204 2114 0
175 -318 -177 2115 0
314 193 249 2116 0
-492 45 210 2117 0
-98 275 493 2118 0
240 477 -202 2119 0
477 -438 485 2120 0
370 -170 -244 2121 0
397 -153 -61 2122 0
82 263 -431 2123 0
402 288 -108 2124 0
200 387 -22 2125 0
221 -215 207 2126 0
-402 -450 266 2127 0
192 35 247 2128 0
372 -459 -183 2129 0
-460 7 193 2130 0
-266 441 410 2131 0
-500 -356 -282 2132 0
429 29 42 2133 0
475 500 -31 2134 0
-154 63 316 2135 0
68 -249 -159 2136 0
-84 461 294 2137 0
258 266 -164 2138 0
455 133 -214 2139 0
420 330 -54 2140 0
87 22 441 2141 0
254 316 -329 2142 0
487 232 -316 2143 0
355 334 -17 2144 0
-224 -291 380 2145 0
26 393 -76 2146 0
262 192 297 2147 0
-2 431 446 2148 0
23 -398 -376 2149 0
-130 128 273 2150 0
122 103 -468 2151 0
463 285 -171 2152 0
7 -94 -162 2153 0
-325 237 -201 2154 0
-58 121 395 2155 0
-135 211 -319 2156 0
205 -313 276 2157 0
484 -60 -160 2158 0
-254 -427 218 2159 0
397 -435 196 2160 0
342 -322 -93 2161 0
-134 6 131 2162 0
7 -216 55 2163 0
-178 -494 35 2164 0
-365 -31 295 2165 0
322 97 347 2166 0
-37 480 353 2167 0
126 -72 237 2168 0
-367 -167 71 2169 0
346 -285 432 2170 0
-319 382 499 2171 0
494 384 447 2172 0
-66 474 197 2173 0
28 299 -208 2174 0
96 495 -316 2175 0
-446 -343 -137 2176 0
-289 382 135 2177 0
-178 177 458 2178 0
45 167 -470 2179 0
17 368 137 2180 0
96 268 473 2181 0
-5 40 -364 2182 0
-398 -212 -188 2183 0
-405 -250 -212 2184 0
-161 331 324 2185 0
62 -176 -459 2186 0
423 297 246 2187 0
267 245 111 2188 0
-406 -200 -430 2189 0
-141 464 -473 2190 0
-318 -233 -174 2191 0
330 79 -431 2192 0
242 86 94 2193 0
382 -72 -386 2194 0
-17 -454 22 2195 0
491 475 -382 2196 0
-36 242 480 2197 0
245 -181 -361 2198 0
-157 194 125 2199 0
336 20 -340 2200 0
-285 493 222 2201 0
404 -249 -99 2202 0
-305 8 7 2203 0
-324 -367 -328 2204 0
-280 139 131 2205 0
76 181 20 2206 0
-353 11 73 2207 0
79 52 427 2208 0
209 318 -275 2209 0
115 -80 -323 2210 0
117 103 -98 2211 0
335 250 -153 2212 0
240 390 213 2213 0
379 -33 -122 2214 0
-107 -453 -433 2215 0
-396 -340 -158 2216 0
480 394 187 2217 0
-314 -114 219 2218 0
-288 -28 -26 2219 0
-31 184 -202 2220 0
257 191 -57 2221 0
-35 -464 -209 2222 0
63 235 -455 2223 0
-196 -260 -35 2224 0
308 -88 -412 2225 0
346 207 -309 2226 0
29 -313 -31 2227 0
-325 275 -472 2228 0
-61 253 -38 2229 0
9 289 401 2230 0
-54 180 214 2231 0
-264 -78 354 2232 0
60 -5 499 2233 0
149 58 -80 2234 0
-91 -14 -299 2235 0
-411 164 -224 2236 0
-472 291 370 2237 0
-260 -133 -194 2238 0
417 367 -32 2239 0
-116 243 459 2240 0
-401 -116 -40 2241 0
-243 160 -41 2242 0
-114 197 126 2243 0
-430 -402 36 2244 0
-288 -451 414 2245 0
-361 336 -151 2246 0
416 474 -292 2247 0
-349 -265 473 2248 0
-481 -462 -469 2249 0
-114 -170 287 2250 0
423 439 -202 2251 0
-459 16 345 2252 0
-268 -447 -299 2253 0
-91 400 449 2254 0
265 -384 251 2255 0
341 447 423 2256 0
-360 80 -280 2257 0
-124 -213 10 2258 0
-231 258 -400 2259 0
365 483 -239 2260 0
326 269 -409 2261 0
-412 290 -68 2262 0
-287 -308 -73 2263 0
389 472 428 2264 0
172 -195 94 2265 0
-254 -350 315 2266 0
-203 -102 -244 2267 0
-100 471 282 2268 0
-434 -260 -115 2269 0
-477 -254 -479 2270 0
371 484 -446 2271 0
121 -122 -406 2272 0
-207 -183 57 2273 0
131 -431 349 2274 0
321 -233 359 2275 0
-70 -464 131 2276 0
437 -397 -342 2277 0
-286 -217 99 2278 0
425 -242 -332 2279 0
-337 355 -75 2280 0
-453 -130 -241 2281 0
105 398 225 2282 0
-94 65 87 2283 0
204 203 -387 2284 0
-13 89 -152 2285 0
450 58 40 2286 0
306 295 -431 2287 0
278 48 152 2288 0
119 -152 -252 2289 0
-374 12 33 2290 0
-475 479 32 2291 0
199 -25 -27 2292 0
400 -431 -473 2293 0
53 191 101 2294 0
377 315 376 2295 0
-348 -76 441 2296 0
-62 329 -421 2297 0
-198 76 382 2298 0
-454 -163 -276 2299 0
-390 12 -231 2300 0
-360 358 -10 2301 0
-71 38 -424 2302 0
-385 150 -59 2303 0
266 -151 466 2304 0
-94 -472 -345 2305 0
-396 316 -441 2306 0
-466 -439 357 2307 0
-218 227 -497 2308 0
-216 -279 132 2309 0
87 329 47 2310 0
294 21 -378 2311 0
85 475 -206 2312 0
-112 490 150 2313 0
-310 -77 486 2314 0
-235 29 205 2315 0
-293 312 418 2316 0
-355 339 -290 2317 0
110 -456 129 2318 0
-265 -226 119 2319 0
-471 -405 491 2320 0
489 492 -294 2321 0
116 386 -193 2322 0
-484 -72 153 2323 0
290 324 -438 2324 0
-346 -27 462 2325 0
-68 325 -275 2326 0
167 467 147 2327 0
442 281 345 2328 0
-153 -216 384 2329 0
389 -331 -434 2330 0
-180 193 -386 2331 0
190 -187 483 2332 0
95 264 -334 2333 0
70 18 -455 2334 0
-231 289 -243 2335 0
144 -15 140 2336 0
-250 17 252 2337 0
-3 -398 165 2338 0
6 104 -409 2339 0
148 -237 102 2340 0
-205 496 -489 2341 0
166 41 148 2342 0
403 220 32 2343 0
388 -18 284 2344 0
-354 -360 498 2345 0
485 -464 103 2346 0
495 -439 -194 2347 0
-66 458 -468 2348 0
18 3 -300 2349 0
236 55 9 2350 0
295 -18 -334 2351 0
-355 -6 304 2352 0
271 265 211 2353 0
-370 -365 -293 2354 0
464 -398 256 2355 0
202 -60 20 2356 0
24 -165 54 2357 0
-170 -208 386 2358 0
-48 -41 16 2359 0
-285 -308 124 2360 0
92 89 -108 2361 0
339 -284 -299 2362 0
-111 -200 -58 2363 0
351 50 -155 2364 0
203 -196 -180 2365 0
105 232 424 2366 0
-305 175 -24 2367 0
276 -279 -347 2368 0
493 -329 -65 2369 0
229 -471 -157 2370 0
483 -385 -311 2371 0
475 361 217 2372 0
496 -238 -215 2373 0
187 433 -271 2374 0
410 -72 -133 2375 0
-88 -50 -70 2376 0
-13 -231 -434 2377 0
-259 -455 413 2378 0
66 264 -469 2379 0
-233 -450 -148 2380 0
-27 -147 303 2381 0
-181 185 -124 2382 0
-94 -469 283 2383 0
205 -113 86 2384 0
58 -132 -81 2385 0
-195 -148 209 2386 0
345 -254 -82 2387 0
109 -99 63 2388 0
289 -86 403 2389 0
-330 58 -186 2390 0
266 -475 277 2391 0
-37 -232 -215 2392 0
-106 -408 281 2393 0
-164 308 -324 2394 0
-102 -121 245 2395 0
-260 263 -164 2396 0
-466 -377 415 2397 0
-293 -34 -54 2398 0
-23 433 410 2399 0
-94 -36 331 2400 0
-211 -380 -55 2401 0
-184 185 -198 2402 0
-345 -301 250 2403 0
-3 -19 -65 2404 0
-237 -150 -208 2405 0
334 35 91 2406 0
-94 -395 -459 2407 0
391 -259 -262 2408 0
341 -232 -8 2409 0
433 58 397 2410 0
126 -103 218 2411 0
-330 166 -324 2412 0
470 -408 -133 2413 0
-59 437 484 2414 0
-484 -320 -344 2415 0
95 -154 246 2416 0
-249 -167 116 2417 0
201 -143 7 2418 0
-172 -462 322 2419 0
141 439 414 2420 0
-411 -301 -140 2421 0
-479 88 -141 2422 0
-280 -364 213 2423 0
-112 464 -295 2424 0
-401 271 245 2425 0
-63 283 -296 2426 0
-323 90 -225 2427 0
157 59 435 2428 0
337 322 -179 2429 0
-153 441 74 2430 0
-460 -319 -445 2431 0
-436 -54 114 2432 0
313 269 153 2433 0
471 150 -79 2434 0
-432 -438 -477 2435 0
-34 253 426 2436 0
286 169 -373 2437 0
-187 -459 406 2438 0
-460 471 225 2439 0
-75 426 355 2440 0
-20 223 -415 2441 0
426 210 -8 2442 0
173 391 319 2443 0
341 -149 184 2444 0
168 -330 -268 2445 0
215 207 -462 2446 0
-51 -127 -143 2447 0
-354 493 110 2448 0
-378 164 -336 2449 0
67 193 -333 2450 0
205 -134 -31 2451 0
-331 -469 -165 2452 0
193 -76 -156 2453 0
240 -432 -149 2454 0
-160 418 410 2455 0
200 -359 436 2456 0
-224 136 137 2457 0
1 270 254 2458 0
490 282 45 2459 0
-56 -290 -17 2460 0
222 16 303 2461 0
3 -231 -392 2462 0
-149 112 -350 2463 0
180 -12 -154 2464 0
-117 -500 -417 2465 0
198 -436 69 2466 0
282 -328 407 2467 0
-138 186 335 2468 0
-475 -258 400 2469 0
-85 -346 426 2470 0
-46 -151 -142 2471 0
181 -84 417 2472 0
260 33 -302 2473 0
-333 278 -95 2474 0
224 302 487 2475 0
-380 -46 -244 2476 0
-45 40 -474 2477 0
234 459 399 2478 0
-33 -303 -384 2479 0
225 431 447 2480 0
3 -200 63 2481 0
16 271 454 2482 0
-352 -314 472 2483 0
469 -134 123 2484 0
-143 -358 96 2485 0
332 255 -266 2486 0
-482 -97 -192 2487 0
-403 -405 -473 2488 0
459 353 105 2489 0
71 -362 158 2490 0
18 53 43 2491 0
-302 166 249 2492 0
-203 -242 -11 2493 0
278 -330 -220 2494 0
-399 -121 -289 2495 0
484 -333 -488 2496 0
-91 -59 347 2497 0
-91 -370 87 2498 0
-396 -68 -61 2499 0
-13 -217 82 2500 0
382 -500 141 2501 0
-467 -93 -249 2502 0
-216 309 82 2503 0
267 57 128 2504 0
441 181 -153 2505 0
410 487 -463 2506 0
89 -12 -350 2507 0
-451 -93 -223 2508 0
-26 312 7 2509 0
-457 450 483 2510 0
49 -398 -296 2511 0
417 423 -248 2512 0
238 -162 -245 2513 0
-280 238 300 2514 0
240 -170 444 2515 0
362 127 302 2516 0
-457 175 101 2517 0
-152 42 283 2518 0
-345 343 -395 2519 0
-65 76 475 2520 0
-118 -494 418 2521 0
-303 -375 1 2522 0
60 101 484 2523 0
231 449 -202 2524 0
210 -52 434 2525 0
246 -375 450 2526 0
-54 -156 318 2527 0
-98 -14 46 2528 0
465 -187 190 2529 0
-484 68 -233 2530 0
-294 -142 449 2531 0
416 -426 300 2532 0
353 -322 -345 2533 0
154 -286 -319 2534 0
-366 -125 -19 2535 0
-326 -495 320 2536 0
105 261 -443 2537 0
-295 -60 -204 2538 0
39 198 -238 2539 0
-328 404 163 2540 0
231 -31 17 2541 0
-497 -262 -261 2542 0
-6 -488 149 2543 0
-387 93 -324 2544 0
145 -92 355 2545 0
119 279 492 2546 0
140 187 162 2547 0
390 -202 -417 2548 0
487 156 -237 2549 0
-57 196 174 2550 0
380 290 338 2551 0
386 194 30 2552 0
150 426 -78 2553 0
-89 12 -401 2554 0
-467 -114 -225 2555 0
398 120 -346 2556 0
452 466 118 2557 0
257 -254 282 2558 0
230 -261 -425 2559 0
35 -68 29 2560 0
475 -459 115 2561 0
59 27 -466 2562 0
419 -194 147 2563 0
449 -284 86 2564 0
390 -449 176 2565 0
456 -270 -166 2566 0
-500 -12 297 2567 0
-170 481 272 2568 0
145 -423 -418 2569 0
-179 382 -3 2570 0
368 -77 177 2571 0
-347 -71 34 2572 0
186 52 -79 2573 0
-263 157 -203 2574 0
-208 -214 -308 2575 0
-498 -394 -58 2576 0
473 -158 329 2577 0
-297 435 -421 2578 0
43 300 -107 2579 0
-113 -48 -104 2580 0
123 -5 -125 2581 0
-53 -325 -9 2582 0
19 -157 91 2583 0
431 277 37 2584 0
402 223 152 2585 0
22 315 -333 2586 0
-410 -31 290 2587 0
332 497 56 2588 0
-424 -156 -58 2589 0
463 175 27 2590 0
-95 -104 -168 2591 0
259 -191 -405 2592 0
444 122 -271 2593 0
263 3 40 2594 0
-156 -196 233 2595 0
161 421 -83 2596 0
-48 -161 270 2597 0
-312 -59 -22 2598 0
355 166 9 2599 0
-259 272 382 2600 0
35 9 68 2601 0
81 -189 142 2602 0
216 -78 -153 2603 0
-283 -112 186 2604 0
484 -331 -56 2605 0
-128 -161 -253 2606 0
394 -138 106 2607 0
315 472 339 2608 0
380 -426 -229 2609 0
204 -160 449 2610 0
183 81 -452 2611 0
-325 167 456 2612 0
321 -165 385 2613 0
-89 42 433 2614 0
351 284 -118 2615 0
15 -4 -133 2616 0
-255 -464 178 2617 0
91 -251 -22 2618 0
79 -450 265 2619 0
397 11 -388 2620 0
205 431 168 2621 0
-483 61 -207 2622 0
-98 476 -40 2623 0
496 348 -110 2624 0
347 170 157 2625 0
332 -442 -61 2626 0
229 453 419 2627 0
291 87 -401 2628 0
42 -499 -361 2629 0
-381 44 482 2630 0
-106 -367 -198 2631 0
-360 98 3 2632 0
-155 -278 459 2633 0
200 -384 351 2634 0
161 -410 197 2635 0
-123 -409 205 2636 0
-386 489 57 2637 0
119 -359 -414 2638 0
206 118 480 2639 0
-153 -324 194 2640 0
128 -389 35 2641 0
498 -485 20 2642 0
-424 469 108 2643 0
114 409 -73 2644 0
233 109 -181 2645 0
-282 237 201 2646 0
-242 -101 -411 2647 0
-406 235 -351 2648 0
60 -446 473 2649 0
447 -42 317 2650 0
