p cnf 2650 2150
197 40 434 501 0
-184 87 -423 502 0
-100 38 9 503 0
466 388 -405 504 0
7 127 -334 505 0
422 -327 -272 506 0
326 281 -370 507 0
401 436 -482 508 0
177 -264 332 509 0
472 382 -235 510 0
-353 326 -117 511 0
208 -369 -236 512 0
-477 99 -264 513 0
-462 256 500 514 0
271 -281 291 515 0
95 454 -368 516 0
457 -216 -199 517 0
-146 -288 453 518 0
264 444 290 519 0
215 217 -292 520 0
142 -99 -178 521 0
446 -441 -402 522 0
196 -107 -292 523 0
-207 216 -121 524 0
147 -58 470 525 0
-53 174 -4 526 0
-406 94 5 527 0
344 463 232 528 0
476 259 -315 529 0
-143 62 -64 530 0
-403 232 78 531 0
-86 126 -207 532 0
-417 23 -132 533 0
-403 252 -180 534 0
435 239 325 535 0
-252 385 -454 536 0
-154 403 464 537 0
-3 23 484 538 0
-70 -341 -112 539 0
-483 298 313 540 0
155 -464 452 541 0
-418 248 -279 542 0
329 -300 -474 543 0
274 -332 61 544 0
-185 436 -87 545 0
215 -205 64 546 0
-322 -280 368 547 0
-207 71 66 548 0
-41 363 132 549 0
471 358 -264 550 0
-436 150 -453 551 0
-15 450 -140 552 0
24 386 -272 553 0
338 405 -35 554 0
-122 322 -329 555 0
-426 -483 -401 556 0
266 479 498 557 0
-387 30 420 558 0
89 439 -201 559 0
-299 293 -115 560 0
-58 474 -258 561 0
360 103 10 562 0
211 -492 -59 563 0
246 -81 -305 564 0
381 33 447 565 0
196 -237 -11 566 0
-69 245 330 567 0
-400 238 -215 568 0
441 -467 353 569 0
-237 470 8 570 0
-298 114 -397 571 0
123 428 -55 572 0
-286 91 -410 573 0
317 449 -145 574 0
-220 -497 -261 575 0
96 -258 265 576 0
350 436 -410 577 0
-377 60 49 578 0
-455 -465 391 579 0
460 440 -483 580 0
-350 34 146 581 0
476 -315 373 582 0
-104 126 -144 583 0
-69 -311 203 584 0
396 435 110 585 0
-474 335 -394 586 0
-439 -215 -213 587 0
197 -333 380 588 0
487 -359 243 589 0
218 -438 -487 590 0
-79 338 248 591 0
-114 111 138 592 0
417 -132 379 593 0
-135 476 -450 594 0
337 451 -493 595 0
477 430 218 596 0
-197 5 397 597 0
495 -227 34 598 0
-490 482 289 599 0
1 361 64 600 0
128 -192 -438 601 0
261 -427 -159 602 0
-27 -421 125 603 0
-45 -459 -293 604 0
350 -56 -343 605 0
-396 263 186 606 0
-491 297 -81 607 0
-280 286 463 608 0
-176 -156 279 609 0
299 -480 -118 610 0
-145 362 10 611 0
218 441 -114 612 0
-454 427 159 613 0
-48 18 333 614 0
143 343 -39 615 0
160 466 458 616 0
-134 248 -473 617 0
-488 -224 -495 618 0
-118 -124 -275 619 0
-395 26 303 620 0
-419 141 -150 621 0
-234 409 -120 622 0
-427 -218 -435 623 0
164 -84 322 624 0
-418 -54 -476 625 0
-433 -174 -393 626 0
-183 -301 59 627 0
99 286 -366 628 0
-166 248 94 629 0
363 163 31 630 0
-458 -306 -157 631 0
221 489 -240 632 0
151 59 445 633 0
416 -491 -405 634 0
-463 238 -147 635 0
88 219 -293 636 0
432 -474 -386 637 0
308 190 -494 638 0
-449 -437 -194 639 0
327 417 306 640 0
-201 261 220 641 0
-274 315 477 642 0
-315 -219 58 643 0
359 170 -315 644 0
363 -215 -400 645 0
209 19 441 646 0
200 125 -347 647 0
-400 394 398 648 0
-61 -154 -481 649 0
345 179 -260 650 0
310 -272 249 651 0
-324 -490 403 652 0
-278 229 -378 653 0
-326 306 -384 654 0
-271 -204 -107 655 0
193 398 -109 656 0
-224 127 -428 657 0
115 432 -206 658 0
460 -411 -420 659 0
490 -281 -354 660 0
-70 312 243 661 0
-311 275 286 662 0
11 -344 498 663 0
451 417 -253 664 0
-11 -377 -57 665 0
345 -359 -82 666 0
82 100 -492 667 0
-42 19 392 668 0
340 335 376 669 0
-353 -456 -169 670 0
471 -315 452 671 0
-57 433 -361 672 0
-237 292 -489 673 0
341 194 -158 674 0
401 236 -118 675 0
445 210 104 676 0
432 74 -322 677 0
233 282 -407 678 0
-276 -114 -151 679 0
-290 79 141 680 0
-336 -319 -311 681 0
356 190 432 682 0
57 -278 -210 683 0
-109 -259 410 684 0
-472 -478 -405 685 0
-119 69 438 686 0
-438 -458 -251 687 0
-42 -305 400 688 0
-144 -476 -148 689 0
302 494 -362 690 0
-495 -41 -331 691 0
-309 400 131 692 0
-237 -95 192 693 0
-186 -166 41 694 0
127 297 -111 695 0
54 456 233 696 0
-268 -215 -234 697 0
-429 -76 465 698 0
-135 94 216 699 0
-485 436 143 700 0
-123 332 297 701 0
-17 -136 -301 702 0
-309 -133 366 703 0
4 434 -308 704 0
422 191 -47 705 0
-67 93 355 706 0
497 454 119 707 0
387 331 53 708 0
403 -262 -80 709 0
-148 479 -271 710 0
-313 -275 155 711 0
225 292 -488 712 0
273 387 61 713 0
449 -304 -418 714 0
-133 -428 348 715 0
422 -493 372 716 0
385 -372 -454 717 0
101 -458 -147 718 0
-332 -325 475 719 0
-43 126 -360 720 0
-108 -91 -211 721 0
-9 -154 268 722 0
162 -476 440 723 0
-13 82 -118 724 0
-217 -32 278 725 0
-363 -237 20 726 0
-42 -133 -401 727 0
348 295 136 728 0
-133 -212 265 729 0
-238 -381 -427 730 0
247 -343 -418 731 0
124 415 385 732 0
5 -57 -275 733 0
-127 -470 416 734 0
59 -268 364 735 0
458 244 102 736 0
375 -42 23 737 0
-460 478 -111 738 0
281 -84 -422 739 0
108 128 -60 740 0
-335 127 464 741 0
26 -77 -45 742 0
418 310 -261 743 0
-94 492 -92 744 0
-458 471 -131 745 0
-53 -289 -322 746 0
174 -490 -272 747 0
266 226 -149 748 0
397 -304 148 749 0
-406 180 207 750 0
454 298 -278 751 0
297 -205 303 752 0
144 244 362 753 0
140 391 79 754 0
-437 -413 174 755 0
-47 375 380 756 0
-270 -180 -217 757 0
336 348 191 758 0
-387 42 453 759 0
41 255 -217 760 0
-179 174 384 761 0
-61 316 222 762 0
-114 -291 352 763 0
470 -209 343 764 0
-402 -26 -472 765 0
-66 -8 -477 766 0
92 184 -303 767 0
83 75 145 768 0
205 -130 -243 769 0
63 -219 329 770 0
-498 -240 243 771 0
152 55 -265 772 0
-475 148 48 773 0
-115 -464 -154 774 0
-281 41 -345 775 0
-159 -459 169 776 0
-188 476 -112 777 0
-433 13 -219 778 0
-326 -405 -261 779 0
434 -109 380 780 0
163 -330 489 781 0
-294 258 -365 782 0
-86 226 -10 783 0
132 210 -262 784 0
-498 -3 333 785 0
380 -393 316 786 0
-91 275 -330 787 0
-223 -100 -220 788 0
316 79 -17 789 0
340 -382 -303 790 0
-240 220 452 791 0
-376 -357 -206 792 0
-89 245 -405 793 0
196 -490 475 794 0
-265 -144 -269 795 0
-44 300 252 796 0
-406 -49 294 797 0
-34 318 -499 798 0
455 427 65 799 0
214 423 -491 800 0
95 -193 109 801 0
430 -335 396 802 0
-135 318 -468 803 0
-106 70 144 804 0
-56 152 -396 805 0
-12 500 -345 806 0
116 350 -356 807 0
-161 420 -17 808 0
-15 389 -48 809 0
59 -360 450 810 0
155 168 -455 811 0
-29 -4 -353 812 0
-117 -347 16 813 0
237 18 -43 814 0
-54 6 -203 815 0
403 -391 481 816 0
248 55 -229 817 0
-2 121 -316 818 0
-209 215 -451 819 0
-366 -147 -320 820 0
-126 -196 84 821 0
448 -346 -310 822 0
113 301 -239 823 0
-406 -195 -204 824 0
259 -344 351 825 0
73 128 -220 826 0
291 110 -462 827 0
143 18 43 828 0
432 -269 45 829 0
397 46 -127 830 0
-163 -116 130 831 0
428 129 -166 832 0
450 -97 -172 833 0
-144 473 60 834 0
-104 -45 -453 835 0
-142 400 18 836 0
-350 -397 417 837 0
464 -451 201 838 0
465 103 -351 839 0
114 -231 53 840 0
-77 12 279 841 0
43 -489 -313 842 0
202 -296 -388 843 0
-447 -249 479 844 0
244 -328 -51 845 0
218 -73 49 846 0
237 349 -304 847 0
-297 370 -311 848 0
-166 97 -254 849 0
201 153 -166 850 0
-251 -348 214 851 0
-2 439 473 852 0
374 73 -412 853 0
392 -405 152 854 0
258 153 185 855 0
-168 -89 -382 856 0
-135 -204 361 857 0
65 -428 38 858 0
429 -15 2 859 0
139 -419 97 860 0
201 318 -13 861 0
-221 -101 50 862 0
-41 421 196 863 0
-299 104 233 864 0
93 -273 -20 865 0
27 231 -267 866 0
82 258 477 867 0
10 298 497 868 0
353 -260 -49 869 0
-132 191 -454 870 0
-380 -379 431 871 0
-30 -149 206 872 0
445 194 428 873 0
452 -81 15 874 0
7 289 38 875 0
139 -24 404 876 0
376 -416 -165 877 0
-329 174 -110 878 0
380 164 114 879 0
110 -81 241 880 0
-79 -411 -278 881 0
273 -259 -388 882 0
-442 -160 152 883 0
-113 -338 34 884 0
-435 -76 -322 885 0
-274 -154 103 886 0
-414 119 163 887 0
447 -434 -278 888 0
-163 -205 397 889 0
-338 265 -278 890 0
-406 77 -344 891 0
152 -313 -40 892 0
-354 5 73 893 0
409 -340 -74 894 0
87 -382 218 895 0
-29 -378 139 896 0
-193 -115 454 897 0
-241 364 -95 898 0
-382 -422 232 899 0
339 -148 399 900 0
-370 -146 -198 901 0
-416 424 -292 902 0
-401 -107 -197 903 0
-75 170 333 904 0
413 404 -496 905 0
-72 325 178 906 0
445 -500 172 907 0
-468 -138 494 908 0
-261 385 281 909 0
-15 -193 493 910 0
17 457 -425 911 0
-198 6 58 912 0
-239 288 56 913 0
198 -151 197 914 0
-20 -462 -89 915 0
-396 419 3 916 0
-259 285 -130 917 0
173 371 -457 918 0
-484 129 476 919 0
300 -211 -120 920 0
-352 -209 116 921 0
-266 -80 448 922 0
-361 -386 -430 923 0
263 406 164 924 0
-386 -142 263 925 0
143 -94 -78 926 0
76 381 351 927 0
-102 25 -26 928 0
81 -234 52 929 0
-435 369 95 930 0
-38 -232 -401 931 0
109 -314 -444 932 0
498 -146 131 933 0
279 319 251 934 0
-304 421 -34 935 0
-393 17 263 936 0
-87 325 -27 937 0
-15 284 66 938 0
-102 221 209 939 0
-118 160 -211 940 0
-282 -381 402 941 0
-401 387 433 942 0
49 119 433 943 0
-288 444 152 944 0
-265 346 380 945 0
435 492 -65 946 0
-106 -38 -290 947 0
186 -497 -311 948 0
-68 67 -361 949 0
222 257 -249 950 0
271 -434 238 951 0
485 -296 -100 952 0
-207 -196 -376 953 0
-230 242 -131 954 0
296 -496 265 955 0
425 -209 243 956 0
79 33 -343 957 0
-106 -10 80 958 0
375 -66 -455 959 0
59 -88 -492 960 0
258 184 -49 961 0
-67 364 -71 962 0
-58 -326 83 963 0
218 395 -100 964 0
118 250 -24 965 0
34 -446 109 966 0
-304 62 478 967 0
316 214 379 968 0
264 -156 92 969 0
288 -111 271 970 0
323 -373 -482 971 0
413 138 -291 972 0
236 421 267 973 0
-249 311 -396 974 0
-145 383 -170 975 0
-480 123 20 976 0
-185 -307 308 977 0
-3 79 177 978 0
-330 268 427 979 0
-382 -262 -391 980 0
192 -143 328 981 0
-140 -107 473 982 0
185 -98 -163 983 0
217 -384 152 984 0
17 336 -325 985 0
-183 358 203 986 0
-21 304 -478 987 0
460 182 192 988 0
-323 111 -275 989 0
-393 239 -262 990 0
292 -43 -230 991 0
93 405 407 992 0
63 -437 300 993 0
-329 -262 162 994 0
281 235 390 995 0
292 284 29 996 0
-432 -279 -448 997 0
312 -28 306 998 0
378 12 28 999 0
32 -37 230 1000 0
493 448 359 1001 0
-299 278 353 1002 0
369 -262 343 1003 0
134 127 12 1004 0
-104 -20 123 1005 0
163 208 -38 1006 0
295 -249 -330 1007 0
-104 -489 426 1008 0
-378 53 -120 1009 0
-400 71 -161 1010 0
-346 188 -352 1011 0
-234 -192 -121 1012 0
-59 -125 -92 1013 0
379 -366 202 1014 0
256 200 -368 1015 0
-166 -360 -134 1016 0
351 187 -341 1017 0
312 178 -262 1018 0
171 -317 473 1019 0
-201 200 224 1020 0
-269 31 346 1021 0
-123 -171 -463 1022 0
-415 -290 81 1023 0
419 -132 372 1024 0
-15 -402 395 1025 0
283 -262 -240 1026 0
430 -318 -88 1027 0
-439 -348 -9 1028 0
-34 -174 92 1029 0
-447 354 -398 1030 0
-404 -235 -32 1031 0
50 464 -214 1032 0
60 -245 -65 1033 0
331 -146 -283 1034 0
167 -430 58 1035 0
81 -252 -305 1036 0
-199 -215 42 1037 0
241 249 459 1038 0
-465 -329 -109 1039 0
288 -324 -341 1040 0
-389 -328 58 1041 0
88 241 110 1042 0
-90 -286 -85 1043 0
-343 219 392 1044 0
-373 -261 -455 1045 0
110 108 -209 1046 0
117 8 471 1047 0
323 309 46 1048 0
-486 361 355 1049 0
239 -56 -333 1050 0
207 206 132 1051 0
-193 -47 366 1052 0
-408 67 -183 1053 0
289 284 400 1054 0
110 13 -486 1055 0
-474 -67 -301 1056 0
-459 375 123 1057 0
-240 365 294 1058 0
458 -465 -334 1059 0
291 -144 -184 1060 0
244 -314 -47 1061 0
283 -462 -163 1062 0
-413 -315 324 1063 0
-215 271 71 1064 0
-313 -102 115 1065 0
29 -288 140 1066 0
500 142 -439 1067 0
202 413 -92 1068 0
-67 -289 315 1069 0
432 -402 -244 1070 0
-139 -91 417 1071 0
-271 351 -371 1072 0
476 -406 349 1073 0
143 -358 252 1074 0
-225 25 484 1075 0
-273 -497 343 1076 0
-112 -136 -148 1077 0
358 -266 -2 1078 0
338 475 -442 1079 0
-12 184 -278 1080 0
315 -258 88 1081 0
336 -167 130 1082 0
-318 267 156 1083 0
-381 442 206 1084 0
-14 -272 417 1085 0
422 -71 -33 1086 0
-172 131 371 1087 0
-419 1 -43 1088 0
424 -48 -387 1089 0
-19 265 -28 1090 0
331 -434 -56 1091 0
-142 279 326 1092 0
37 138 134 1093 0
131 383 4 1094 0
-480 97 353 1095 0
-151 -131 -435 1096 0
-487 -444 -189 1097 0
-285 145 211 1098 0
-416 148 221 1099 0
104 -157 108 1100 0
-389 154 185 1101 0
-268 190 -136 1102 0
-65 -491 119 1103 0
-284 -50 -106 1104 0
331 -223 246 1105 0
-106 236 -182 1106 0
187 132 -335 1107 0
410 -76 342 1108 0
303 -350 23 1109 0
387 -329 382 1110 0
353 -350 -289 1111 0
-397 -318 -238 1112 0
390 340 -239 1113 0
-64 434 -223 1114 0
-277 -220 75 1115 0
232 483 89 1116 0
-46 -191 236 1117 0
-104 -268 116 1118 0
497 -201 482 1119 0
-316 450 375 1120 0
381 50 -489 1121 0
472 -432 60 1122 0
-206 -465 389 1123 0
216 372 326 1124 0
361 -459 -346 1125 0
-490 287 -230 1126 0
-455 55 -475 1127 0
-2 310 306 1128 0
-412 -328 -346 1129 0
209 38 246 1130 0
369 -160 263 1131 0
-321 -367 81 1132 0
438 224 -24 1133 0
297 328 414 1134 0
-284 184 414 1135 0
417 290 -78 1136 0
43 -300 148 1137 0
52 433 474 1138 0
-450 -401 356 1139 0
-222 -341 -156 1140 0
168 -154 185 1141 0
163 -86 184 1142 0
-479 -138 480 1143 0
-159 284 -100 1144 0
430 -482 -199 1145 0
-290 -483 -354 1146 0
125 -313 395 1147 0
-357 84 -179 1148 0
34 -242 -466 1149 0
404 -319 -290 1150 0
99 -271 446 1151 0
-414 272 152 1152 0
260 316 474 1153 0
305 -14 -318 1154 0
65 210 171 1155 0
-138 -127 434 1156 0
434 -365 354 1157 0
-500 -465 446 1158 0
-430 -88 -180 1159 0
-198 301 -26 1160 0
-256 -234 371 1161 0
-486 165 13 1162 0
-290 -250 -77 1163 0
399 -432 -71 1164 0
-338 22 -475 1165 0
-268 430 53 1166 0
-409 445 -191 1167 0
-311 -452 78 1168 0
325 196 92 1169 0
-424 -147 -319 1170 0
55 -32 -443 1171 0
336 28 -489 1172 0
80 349 196 1173 0
-342 -364 409 1174 0
5 -310 -13 1175 0
-24 225 -266 1176 0
-66 466 187 1177 0
-289 69 368 1178 0
-124 436 -188 1179 0
-385 171 307 1180 0
260 -421 500 1181 0
445 -207 -190 1182 0
-240 328 184 1183 0
-357 253 -472 1184 0
-38 -397 -259 1185 0
14 223 370 1186 0
-98 231 -260 1187 0
-313 -172 -336 1188 0
438 -6 -144 1189 0
174 -219 446 1190 0
431 121 88 1191 0
-261 -142 -70 1192 0
-273 -413 -445 1193 0
-361 -284 26 1194 0
404 -331 466 1195 0
-472 -63 370 1196 0
500 393 352 1197 0
-103 -300 -408 1198 0
-334 -496 327 1199 0
107 -393 -207 1200 0
-189 88 -82 1201 0
401 389 -141 1202 0
-79 306 292 1203 0
-26 -441 240 1204 0
-308 -212 -108 1205 0
12 30 -492 1206 0
321 -378 -156 1207 0
298 -421 -410 1208 0
394 -35 268 1209 0
146 443 -13 1210 0
-412 232 140 1211 0
352 -126 149 1212 0
133 -145 -206 1213 0
-193 -1 204 1214 0
12 -174 -111 1215 0
-377 -150 206 1216 0
307 22 -206 1217 0
160 -356 -328 1218 0
-33 349 -479 1219 0
94 271 -321 1220 0
445 -80 -490 1221 0
-266 -340 120 1222 0
-219 -223 -256 1223 0
-192 -241 -297 1224 0
13 85 71 1225 0
-443 -107 101 1226 0
176 -180 -310 1227 0
-158 -421 -265 1228 0
9 33 -30 1229 0
-292 344 439 1230 0
-376 -336 -427 1231 0
332 -360 -328 1232 0
-162 -359 237 1233 0
-358 211 -244 1234 0
448 -447 -395 1235 0
243 55 -278 1236 0
-483 236 -114 1237 0
147 -428 472 1238 0
-332 -200 -212 1239 0
-26 -126 -448 1240 0
468 -218 -342 1241 0
-224 -462 -95 1242 0
271 -469 230 1243 0
-271 -160 -265 1244 0
406 -281 -369 1245 0
-482 7 362 1246 0
-192 -322 434 1247 0
335 -259 384 1248 0
312 365 383 1249 0
184 241 384 1250 0
234 30 113 1251 0
71 -290 289 1252 0
-275 -296 -331 1253 0
-444 63 -71 1254 0
457 -467 42 1255 0
-353 46 -16 1256 0
-102 -165 103 1257 0
295 -115 300 1258 0
360 172 -389 1259 0
150 449 495 1260 0
-266 449 -36 1261 0
365 308 325 1262 0
116 142 256 1263 0
-67 321 -245 1264 0
-82 -6 -242 1265 0
97 -107 -238 1266 0
-259 -143 461 1267 0
261 -288 -358 1268 0
46 -443 -433 1269 0
-51 313 449 1270 0
437 -289 -134 1271 0
-121 -128 479 1272 0
330 5 -64 1273 0
-124 472 -291 1274 0
1 -128 459 1275 0
98 371 455 1276 0
-273 -366 -228 1277 0
290 -411 -302 1278 0
418 -37 119 1279 0
-435 -5 77 1280 0
496 31 -149 1281 0
-60 -438 -81 1282 0
253 428 84 1283 0
-147 46 -230 1284 0
390 -370 -222 1285 0
138 -22 -319 1286 0
300 -472 -393 1287 0
400 448 482 1288 0
-283 -487 -292 1289 0
-58 385 277 1290 0
-222 35 410 1291 0
-102 -145 -391 1292 0
-147 -152 -480 1293 0
395 461 -185 1294 0
-400 -175 -316 1295 0
333 -74 412 1296 0
-475 156 -140 1297 0
-188 248 -107 1298 0
-391 -83 45 1299 0
-499 489 168 1300 0
-65 347 -8 1301 0
341 479 -416 1302 0
-429 176 266 1303 0
-12 416 335 1304 0
-183 -269 88 1305 0
329 396 305 1306 0
114 222 279 1307 0
-205 -78 232 1308 0
-358 -477 -76 1309 0
-319 -146 -382 1310 0
-421 486 375 1311 0
362 -297 223 1312 0
378 -269 321 1313 0
170 -355 -140 1314 0
169 -203 226 1315 0
328 -438 -305 1316 0
388 -407 -350 1317 0
363 -147 366 1318 0
-151 123 186 1319 0
-43 389 284 1320 0
-253 145 216 1321 0
288 -319 141 1322 0
332 460 293 1323 0
424 -255 1 1324 0
465 394 445 1325 0
39 384 241 1326 0
412 303 66 1327 0
-463 442 -186 1328 0
-438 26 -327 1329 0
-102 -243 448 1330 0
344 337 162 1331 0
-450 104 -282 1332 0
-53 404 269 1333 0
-60 226 -423 1334 0
209 208 -181 1335 0
119 -241 -200 1336 0
-464 32 442 1337 0
314 223 499 1338 0
456 -471 -321 1339 0
164 -207 -284 1340 0
392 -150 -499 1341 0
-430 408 -465 1342 0
-268 451 -448 1343 0
-276 -428 442 1344 0
-313 -225 443 1345 0
-458 83 -395 1346 0
-21 302 -235 1347 0
-152 -180 307 1348 0
-102 -231 -311 1349 0
-441 270 134 1350 0
324 267 -204 1351 0
-97 35 477 1352 0
107 294 -5 1353 0
-332 -8 273 1354 0
102 -373 -357 1355 0
488 -278 40 1356 0
-368 65 252 1357 0
418 -360 -103 1358 0
412 94 -222 1359 0
-424 347 281 1360 0
-227 307 -210 1361 0
-268 -489 -303 1362 0
76 367 -138 1363 0
-71 -360 96 1364 0
13 -195 -254 1365 0
-32 267 -469 1366 0
-230 2 287 1367 0
96 423 457 1368 0
91 -354 318 1369 0
366 -38 49 1370 0
201 217 172 1371 0
488 -82 -164 1372 0
-246 -482 -493 1373 0
74 198 -17 1374 0
-325 130 93 1375 0
-325 30 191 1376 0
8 499 -378 1377 0
272 433 380 1378 0
-269 -490 -394 1379 0
225 -49 384 1380 0
-140 -63 -183 1381 0
228 -15 -467 1382 0
484 250 -19 1383 0
304 288 459 1384 0
-288 -179 499 1385 0
-4 -379 289 1386 0
-292 -368 -48 1387 0
-405 -426 -143 1388 0
69 -166 -236 1389 0
19 16 408 1390 0
-118 96 -17 1391 0
-432 230 -83 1392 0
168 104 234 1393 0
-241 -344 455 1394 0
32 439 284 1395 0
-162 -336 270 1396 0
-64 435 -414 1397 0
375 -437 158 1398 0
255 86 -46 1399 0
65 -467 476 1400 0
122 -349 -38 1401 0
453 240 95 1402 0
202 -331 -167 1403 0
220 -332 -498 1404 0
52 85 -209 1405 0
278 255 -334 1406 0
104 -416 -71 1407 0
-229 320 -286 1408 0
-277 442 13 1409 0
-304 -63 249 1410 0
67 -9 -349 1411 0
389 -387 -82 1412 0
361 112 -201 1413 0
-116 413 -72 1414 0
-252 -84 -376 1415 0
464 -285 -68 1416 0
-35 436 -165 1417 0
81 -157 497 1418 0
173 432 71 1419 0
106 -223 -211 1420 0
-484 -305 386 1421 0
161 194 -310 1422 0
63 492 -288 1423 0
-148 477 -24 1424 0
-241 413 203 1425 0
-116 -135 246 1426 0
-27 430 -198 1427 0
-232 -156 351 1428 0
62 -204 153 1429 0
-212 -68 -232 1430 0
-308 14 152 1431 0
-105 -103 37 1432 0
-95 -196 403 1433 0
428 -118 -36 1434 0
60 -158 391 1435 0
217 -56 -248 1436 0
-378 -263 475 1437 0
-353 -455 -389 1438 0
335 -150 27 1439 0
113 330 88 1440 0
-224 56 -77 1441 0
421 -198 -218 1442 0
-14 294 148 1443 0
447 -332 -298 1444 0
-455 344 -274 1445 0
400 277 406 1446 0
-499 -79 -335 1447 0
420 444 336 1448 0
-449 85 429 1449 0
-447 -357 -487 1450 0
407 -156 -487 1451 0
-343 -228 450 1452 0
280 490 -105 1453 0
6 -185 -427 1454 0
-365 233 410 1455 0
262 91 366 1456 0
426 -394 145 1457 0
356 -464 -19 1458 0
-500 -80 -312 1459 0
-327 -500 254 1460 0
343 -131 281 1461 0
78 -338 -401 1462 0
-477 -55 -451 1463 0
443 -466 242 1464 0
-342 -30 496 1465 0
122 244 52 1466 0
481 435 -31 1467 0
350 -435 -318 1468 0
-472 -124 33 1469 0
262 265 250 1470 0
-349 -125 22 1471 0
-230 286 234 1472 0
-399 296 -241 1473 0
-376 -24 301 1474 0
165 -4 468 1475 0
-218 -493 -271 1476 0
-398 326 -331 1477 0
354 -422 304 1478 0
-10 162 -187 1479 0
311 314 -95 1480 0
-466 -238 288 1481 0
-23 -405 -286 1482 0
-197 97 -333 1483 0
188 388 46 1484 0
59 303 477 1485 0
216 243 -253 1486 0
-492 431 -173 1487 0
-60 453 151 1488 0
-409 -69 61 1489 0
76 -367 -368 1490 0
-30 209 107 1491 0
-434 310 -224 1492 0
130 -169 -293 1493 0
-130 -162 24 1494 0
-59 -252 44 1495 0
289 53 -41 1496 0
146 -223 138 1497 0
354 166 -209 1498 0
-452 -1 59 1499 0
-279 112 -298 1500 0
-106 -174 -431 1501 0
-454 -416 -294 1502 0
196 -160 -108 1503 0
172 -438 362 1504 0
231 -335 167 1505 0
455 60 -158 1506 0
-29 476 -376 1507 0
-327 465 225 1508 0
-293 374 400 1509 0
367 -370 273 1510 0
-72 -101 -9 1511 0
326 -275 -303 1512 0
-333 52 -309 1513 0
-461 -138 -324 1514 0
289 86 87 1515 0
53 284 371 1516 0
-473 -83 -448 1517 0
107 -259 363 1518 0
-432 441 -29 1519 0
303 405 -256 1520 0
31 -340 -423 1521 0
349 180 162 1522 0
204 -485 397 1523 0
112 -241 36 1524 0
451 -191 500 1525 0
25 -40 83 1526 0
-222 -93 1 1527 0
-292 -457 -17 1528 0
-244 -317 -49 1529 0
-53 343 -153 1530 0
-317 421 -97 1531 0
369 135 -469 1532 0
224 -6 -278 1533 0
-206 -361 471 1534 0
261 -444 -26 1535 0
45 -441 -198 1536 0
-66 -451 -122 1537 0
434 -212 -142 1538 0
-290 -271 469 1539 0
-165 300 -331 1540 0
-137 467 -243 1541 0
-180 196 366 1542 0
376 -2 29 1543 0
-34 142 270 1544 0
444 -300 -256 1545 0
-419 380 401 1546 0
-270 -204 -390 1547 0
211 -358 -91 1548 0
247 -128 299 1549 0
163 445 -480 1550 0
-47 471 -159 1551 0
-28 174 -60 1552 0
-243 -30 -449 1553 0
-296 187 481 1554 0
-409 125 -405 1555 0
328 445 100 1556 0
228 309 -378 1557 0
87 -425 65 1558 0
-99 -367 -132 1559 0
-242 -294 -122 1560 0
7 -171 407 1561 0
-142 -138 53 1562 0
252 -420 482 1563 0
49 417 376 1564 0
-179 -344 -469 1565 0
282 325 337 1566 0
7 -208 203 1567 0
212 372 334 1568 0
408 -473 360 1569 0
-223 -473 -169 1570 0
121 -390 -316 1571 0
462 -375 241 1572 0
154 197 -427 1573 0
-301 21 170 1574 0
-368 -439 -87 1575 0
74 -329 -343 1576 0
227 -15 -53 1577 0
-496 420 -236 1578 0
188 -12 -409 1579 0
316 -261 -94 1580 0
364 232 -310 1581 0
-401 -404 -416 1582 0
-274 -332 -196 1583 0
-314 -193 306 1584 0
-54 42 -267 1585 0
-490 -378 217 1586 0
234 124 -459 1587 0
-469 444 94 1588 0
-495 -196 310 1589 0
140 233 -114 1590 0
-478 -357 3 1591 0
277 -107 -363 1592 0
-39 236 158 1593 0
91 -194 -37 1594 0
-328 287 -336 1595 0
-186 261 50 1596 0
137 92 30 1597 0
-316 204 10 1598 0
432 155 20 1599 0
-352 302 -133 1600 0
-56 -1 -36 1601 0
54 95 -443 1602 0
262 -306 -210 1603 0
-496 -177 -455 1604 0
-421 -330 347 1605 0
-452 -235 216 1606 0
-84 -155 250 1607 0
-476 315 -169 1608 0
-312 -169 -341 1609 0
-281 -172 278 1610 0
-290 451 -277 1611 0
-317 191 -370 1612 0
156 124 -358 1613 0
-62 282 -254 1614 0
118 -256 494 1615 0
-400 431 -447 1616 0
-240 302 464 1617 0
-444 -147 -497 1618 0
55 154 -406 1619 0
-367 157 401 1620 0
311 -424 327 1621 0
283 198 193 1622 0
380 -172 432 1623 0
-486 395 -272 1624 0
-65 98 314 1625 0
19 356 382 1626 0
-160 -288 458 1627 0
225 -160 -224 1628 0
-24 430 -389 1629 0
-363 434 -275 1630 0
421 -486 325 1631 0
496 168 -33 1632 0
-375 408 462 1633 0
375 -342 -286 1634 0
-276 -120 303 1635 0
-489 328 -425 1636 0
-199 -277 -437 1637 0
50 118 -356 1638 0
-437 -94 -141 1639 0
-37 -355 180 1640 0
-248 315 182 1641 0
-61 -499 -301 1642 0
82 14 194 1643 0
-461 -484 -456 1644 0
275 -144 276 1645 0
-402 437 257 1646 0
-207 142 481 1647 0
-341 -12 -90 1648 0
71 -381 494 1649 0
-401 -31 -122 1650 0
222 33 -359 1651 0
424 -21 352 1652 0
241 144 289 1653 0
1 95 106 1654 0
241 -3 -211 1655 0
-416 72 427 1656 0
98 253 -80 1657 0
-357 112 -152 1658 0
-246 500 -48 1659 0
-53 -433 489 1660 0
-28 180 428 1661 0
-394 56 227 1662 0
-241 446 331 1663 0
-425 -233 -36 1664 0
-203 -156 197 1665 0
-307 323 -225 1666 0
469 -117 193 1667 0
-287 -301 244 1668 0
-339 284 422 1669 0
-147 -82 -426 1670 0
311 -46 28 1671 0
-497 441 -402 1672 0
493 113 35 1673 0
446 -210 64 1674 0
318 -150 -334 1675 0
123 27 467 1676 0
65 213 155 1677 0
36 40 202 1678 0
-104 306 101 1679 0
115 -385 -176 1680 0
-264 -500 -142 1681 0
-273 52 140 1682 0
-325 436 -303 1683 0
464 67 480 1684 0
471 157 282 1685 0
-283 476 37 1686 0
-179 -454 -65 1687 0
-12 218 -394 1688 0
-289 -91 488 1689 0
-468 -299 13 1690 0
-115 -78 -198 1691 0
324 148 24 1692 0
-171 395 234 1693 0
-231 53 18 1694 0
-225 65 -224 1695 0
-442 372 -419 1696 0
-79 -385 -239 1697 0
-309 373 31 1698 0
-451 -292 -178 1699 0
433 -236 -408 1700 0
91 150 -342 1701 0
-121 306 456 1702 0
145 -196 -116 1703 0
261 55 118 1704 0
38 380 322 1705 0
-393 -165 164 1706 0
1 -75 -359 1707 0
-216 242 168 1708 0
-153 423 -222 1709 0
265 -298 -138 1710 0
290 370 -5 1711 0
80 105 490 1712 0
-487 -482 -365 1713 0
167 -268 11 1714 0
168 -31 232 1715 0
-410 8 5 1716 0
307 30 -294 1717 0
121 -242 413 1718 0
-417 -272 -431 1719 0
433 465 40 1720 0
-281 -189 -278 1721 0
373 496 -329 1722 0
101 463 -323 1723 0
-240 -257 302 1724 0
232 -4 67 1725 0
437 -296 11 1726 0
395 -101 -284 1727 0
154 84 -224 1728 0
-371 309 -182 1729 0
461 347 -41 1730 0
-305 428 362 1731 0
-237 -457 39 1732 0
382 404 -471 1733 0
-376 247 -256 1734 0
9 -484 245 1735 0
376 218 -229 1736 0
-340 262 233 1737 0
299 414 240 1738 0
-82 -350 308 1739 0
-157 -218 26 1740 0
221 160 98 1741 0
-257 -22 264 1742 0
90 383 -281 1743 0
490 319 434 1744 0
-321 -284 -487 1745 0
-114 -47 82 1746 0
448 302 -341 1747 0
-481 -480 -86 1748 0
-102 -398 486 1749 0
-90 -30 31 1750 0
30 -220 265 1751 0
-322 -115 -44 1752 0
174 45 15 1753 0
431 -443 169 1754 0
-287 -198 -19 1755 0
-23 245 -223 1756 0
338 265 -285 1757 0
-222 153 -150 1758 0
-114 -397 -440 1759 0
60 474 203 1760 0
131 233 -33 1761 0
337 323 362 1762 0
-355 -39 186 1763 0
79 -84 27 1764 0
401 -429 -155 1765 0
345 393 -160 1766 0
-152 -12 -203 1767 0
333 428 -178 1768 0
392 -332 38 1769 0
-151 -167 -363 1770 0
94 -30 186 1771 0
137 180 65 1772 0
-180 350 5 1773 0
-25 330 -105 1774 0
361 -320 32 1775 0
-238 -425 -475 1776 0
31 324 58 1777 0
385 -429 215 1778 0
-117 -480 452 1779 0
-118 160 242 1780 0
123 402 -271 1781 0
-250 -393 14 1782 0
155 291 150 1783 0
-323 284 -13 1784 0
-319 -115 -405 1785 0
-463 -497 54 1786 0
378 446 -478 1787 0
106 350 144 1788 0
404 -496 -467 1789 0
427 22 -156 1790 0
-273 -233 148 1791 0
-50 185 32 1792 0
190 -92 -229 1793 0
309 -133 341 1794 0
29 136 -388 1795 0
471 -441 -338 1796 0
-344 49 -229 1797 0
309 -226 409 1798 0
-367 128 58 1799 0
304 88 355 1800 0
482 -127 161 1801 0
492 328 -209 1802 0
-30 -34 260 1803 0
-344 -143 -79 1804 0
490 99 306 1805 0
406 39 482 1806 0
-490 -139 -46 1807 0
-367 131 -481 1808 0
129 -349 438 1809 0
-274 353 488 1810 0
-369 -28 444 1811 0
-259 -176 365 1812 0
-115 138 4 1813 0
83 -219 339 1814 0
157 -144 -418 1815 0
-68 305 487 1816 0
377 -207 -466 1817 0
-61 222 20 1818 0
358 -175 -133 1819 0
127 470 -27 1820 0
462 449 -191 1821 0
95 -50 -401 1822 0
345 256 309 1823 0
-261 426 449 1824 0
449 -61 400 1825 0
434 -259 208 1826 0
-191 -104 403 1827 0
-294 332 11 1828 0
-145 -353 428 1829 0
-110 -182 128 1830 0
-414 -377 -319 1831 0
206 122 282 1832 0
-291 -54 380 1833 0
88 -480 54 1834 0
-40 256 464 1835 0
-291 267 -207 1836 0
453 -104 472 1837 0
426 499 -416 1838 0
-298 -217 -398 1839 0
96 -23 169 1840 0
-125 338 489 1841 0
-434 391 -106 1842 0
-83 92 137 1843 0
465 120 -106 1844 0
197 -464 428 1845 0
368 370 -477 1846 0
-429 249 143 1847 0
447 312 225 1848 0
-222 -437 -494 1849 0
-495 246 -31 1850 0
-142 308 -64 1851 0
139 -390 -111 1852 0
452 388 -438 1853 0
251 -493 -276 1854 0
-40 260 347 1855 0
450 413 -445 1856 0
-251 -27 -20 1857 0
-238 -395 261 1858 0
97 -431 52 1859 0
229 -282 -497 1860 0
-51 -122 -69 1861 0
257 -246 54 1862 0
241 -446 263 1863 0
-27 424 -423 1864 0
-66 -56 -79 1865 0
-320 239 242 1866 0
171 -182 -163 1867 0
301 146 -222 1868 0
-91 241 126 1869 0
328 208 -188 1870 0
172 287 -204 1871 0
-162 442 -332 1872 0
234 -223 -40 1873 0
83 -361 483 1874 0
206 -11 426 1875 0
246 -244 -498 1876 0
-259 61 -224 1877 0
-224 -323 -334 1878 0
39 282 91 1879 0
-9 -6 -147 1880 0
-241 9 -101 1881 0
351 376 -350 1882 0
181 364 151 1883 0
424 -116 -455 1884 0
-435 91 -320 1885 0
-49 89 -260 1886 0
-479 45 -56 1887 0
-482 -292 -470 1888 0
-10 127 -121 1889 0
475 310 -168 1890 0
437 -480 -486 1891 0
-350 71 298 1892 0
-54 -436 -59 1893 0
-350 11 -397 1894 0
222 -127 190 1895 0
-9 276 481 1896 0
-165 -56 -300 1897 0
-323 79 333 1898 0
324 -421 -195 1899 0
105 -402 332 1900 0
473 284 -44 1901 0
-327 438 -218 1902 0
103 268 344 1903 0
402 -445 156 1904 0
-44 329 403 1905 0
-272 445 -114 1906 0
-367 33 89 1907 0
256 -389 -123 1908 0
61 -140 86 1909 0
-271 -467 -493 1910 0
-52 -8 -432 1911 0
-254 483 425 1912 0
111 -149 -399 1913 0
181 -111 -441 1914 0
279 -226 -319 1915 0
464 239 140 1916 0
66 -225 -311 1917 0
406 484 -430 1918 0
123 463 152 1919 0
-100 -492 -20 1920 0
26 -339 -256 1921 0
-434 -93 -181 1922 0
-486 -309 -200 1923 0
-96 -399 -374 1924 0
-294 -17 -211 1925 0
-112 385 -76 1926 0
-149 -435 384 1927 0
-360 -443 -384 1928 0
478 -222 296 1929 0
-128 43 249 1930 0
-293 -97 -238 1931 0
-184 220 -316 1932 0
-56 -487 -141 1933 0
18 38 10 1934 0
98 -286 153 1935 0
-463 -215 -491 1936 0
424 279 -116 1937 0
-244 273 -26 1938 0
-369 329 418 1939 0
325 204 -95 1940 0
496 112 79 1941 0
385 -100 474 1942 0
462 -134 225 1943 0
-269 359 -457 1944 0
215 -410 -259 1945 0
415 188 -341 1946 0
-42 242 -477 1947 0
-281 -269 340 1948 0
-236 -222 298 1949 0
292 126 391 1950 0
-188 347 -93 1951 0
266 302 -339 1952 0
295 316 475 1953 0
-279 116 -191 1954 0
288 -125 -400 1955 0
198 -330 -32 1956 0
-359 420 -75 1957 0
-75 32 -115 1958 0
215 -383 -5 1959 0
-193 -256 -253 1960 0
-157 -426 160 1961 0
358 455 167 1962 0
-474 34 -379 1963 0
439 -175 -341 1964 0
51 -424 406 1965 0
-131 186 262 1966 0
319 182 321 1967 0
-409 -282 88 1968 0
66 -220 -59 1969 0
-221 -9 -377 1970 0
-200 278 496 1971 0
172 -444 434 1972 0
463 459 181 1973 0
-266 140 449 1974 0
-296 -341 367 1975 0
243 373 -174 1976 0
-60 271 168 1977 0
-492 -359 -424 1978 0
217 -242 243 1979 0
-193 -130 28 1980 0
409 321 144 1981 0
-330 452 134 1982 0
177 -287 423 1983 0
-45 3 -195 1984 0
-238 402 -206 1985 0
-12 -81 -279 1986 0
423 -195 -166 1987 0
76 138 78 1988 0
-33 416 274 1989 0
-420 450 257 1990 0
76 336 -127 1991 0
-193 -363 -405 1992 0
-121 -204 286 1993 0
-345 373 428 1994 0
184 -253 177 1995 0
320 478 -373 1996 0
-389 -396 -259 1997 0
170 409 -258 1998 0
-46 486 28 1999 0
-76 109 164 2000 0
-131 -146 122 2001 0
463 373 -81 2002 0
-319 -107 -449 2003 0
-121 -150 -335 2004 0
-350 -214 390 2005 0
-309 396 -50 2006 0
133 307 -127 2007 0
-26 417 -222 2008 0
485 -299 28 2009 0
106 99 428 2010 0
-83 -24 209 2011 0
-71 4 -221 2012 0
-299 91 18 2013 0
370 383 -293 2014 0
-448 455 252 2015 0
257 -194 303 2016 0
-500 -67 -362 2017 0
71 233 -406 2018 0
-105 203 351 2019 0
410 -131 439 2020 0
-237 414 37 2021 0
-336 -88 -124 2022 0
217 -478 -14 2023 0
247 126 -149 2024 0
354 -452 -490 2025 0
-405 -468 -350 2026 0
252 -93 361 2027 0
95 273 415 2028 0
-6 -336 -62 2029 0
342 38 391 2030 0
-200 -14 359 2031 0
-35 159 -191 2032 0
446 449 -326 2033 0
-405 397 -58 2034 0
374 58 486 2035 0
106 483 226 2036 0
99 -30 -368 2037 0
-52 29 48 2038 0
258 91 413 2039 0
379 161 351 2040 0
110 -499 253 2041 0
-151 348 204 2042 0
193 -296 411 2043 0
-13 431 -1 2044 0
370 -158 476 2045 0
-101 151 -471 2046 0
319 -290 -347 2047 0
-50 487 284 2048 0
110 484 210 2049 0
-299 -236 -188 2050 0
-100 -286 499 2051 0
419 86 -268 2052 0
-485 -270 407 2053 0
-312 282 297 2054 0
-378 93 -268 2055 0
-214 -169 -172 2056 0
-213 -32 -326 2057 0
-256 -323 100 2058 0
241 100 -136 2059 0
-268 126 381 2060 0
-472 254 -166 2061 0
-320 95 -264 2062 0
-456 -312 -78 2063 0
-234 85 477 2064 0
-372 -325 -257 2065 0
143 61 -301 2066 0
333 -107 -109 2067 0
131 -12 -454 2068 0
129 288 -170 2069 0
86 -234 366 2070 0
-373 452 -175 2071 0
-410 -452 217 2072 0
-53 -316 436 2073 0
-215 -205 37 2074 0
439 -142 -217 2075 0
-138 452 119 2076 0
-431 -171 -464 2077 0
442 222 261 2078 0
123 21 219 2079 0
-206 -266 -153 2080 0
460 49 268 2081 0
-371 334 -399 2082 0
278 -296 299 2083 0
480 270 38 2084 0
500 -470 -147 2085 0
170 -223 -447 2086 0
-40 118 22 2087 0
424 -327 358 2088 0
-395 401 86 2089 0
394 -49 447 2090 0
45 85 -152 2091 0
-285 358 -161 2092 0
-169 -142 328 2093 0
60 -356 -375 2094 0
111 378 -402 2095 0
-100 -472 -35 2096 0
-188 324 145 2097 0
498 -229 461 2098 0
443 215 34 2099 0
-121 -213 -399 2100 0
-55 249 -438 2101 0
492 390 411 2102 0
-469 68 -61 2103 0
422 300 -490 2104 0
-279 -345 413 2105 0
420 -139 -187 2106 0
171 -229 -30 2107 0
87 181 -261 2108 0
413 211 350 2109 0
69 -84 -311 2110 0
52 27 -159 2111 0
241 321 -444 2112 0
-61 -313 1 2113 0
139 -332 -408 2114 0
430 359 -343 2115 0
314 -144 -401 2116 0
-153 -255 382 2117 0
70 450 12 2118 0
-57 133 -394 2119 0
94 -208 -221 2120 0
345 288 139 2121 0
252 -51 240 2122 0
-424 321 -19 2123 0
186 399 -93 2124 0
-4 28 -47 2125 0
-141 -274 -308 2126 0
370 259 -32 2127 0
-278 13 -457 2128 0
-71 -8 240 2129 0
462 487 312 2130 0
-217 305 272 2131 0
-52 -216 -308 2132 0
57 180 -208 2133 0
-103 -162 -486 2134 0
254 -97 -18 2135 0
-301 94 -161 2136 0
-16 -194 -318 2137 0
269 -430 -183 2138 0
-6 375 43 2139 0
-84 -47 185 2140 0
-445 -97 275 2141 0
-228 -87 -129 2142 0
7 -29 -341 2143 0
-58 113 -474 2144 0
-46 -334 -289 2145 0
-368 243 194 2146 0
74 -159 258 2147 0
336 -334 -462 2148 0
-493 350 -36 2149 0
16 165 279 2150 0
-237 43 290 2151 0
478 -237 -379 2152 0
67 428 447 2153 0
59 350 334 2154 0
-304 -417 253 2155 0
-427 -278 -77 2156 0
353 -418 343 2157 0
-434 -222 -153 2158 0
-102 -407 -148 2159 0
43 -256 -452 2160 0
68 236 -179 2161 0
-180 7 112 2162 0
183 -468 221 2163 0
470 -212 115 2164 0
-103 433 -6 2165 0
60 182 437 2166 0
147 454 -251 2167 0
-293 377 -156 2168 0
-351 -29 212 2169 0
447 -379 -226 2170 0
141 382 -476 2171 0
-499 -92 219 2172 0
-319 -94 -309 2173 0
-481 -437 403 2174 0
166 -255 -116 2175 0
-143 171 100 2176 0
326 207 -283 2177 0
108 -100 429 2178 0
495 492 54 2179 0
161 239 -216 2180 0
203 -491 49 2181 0
-274 -136 200 2182 0
-279 353 384 2183 0
-496 -35 422 2184 0
477 -318 -307 2185 0
136 -492 -313 2186 0
-348 -449 -94 2187 0
118 -68 473 2188 0
112 120 361 2189 0
-370 495 13 2190 0
198 133 -159 2191 0
-76 264 -312 2192 0
57 279 -50 2193 0
-143 433 399 2194 0
435 461 -208 2195 0
-356 -90 -311 2196 0
-19 476 -314 2197 0
112 -310 -351 2198 0
-391 58 -96 2199 0
307 -438 -297 2200 0
-445 -359 -29 2201 0
-103 -257 -378 2202 0
-415 375 107 2203 0
359 296 282 2204 0
97 -449 -196 2205 0
-167 -380 258 2206 0
370 -210 -405 2207 0
82 -264 339 2208 0
-117 -434 226 2209 0
-177 454 -259 2210 0
22 206 -173 2211 0
220 148 -87 2212 0
-281 -252 -337 2213 0
80 -474 -351 2214 0
118 -477 -26 2215 0
443 -419 112 2216 0
199 -281 -234 2217 0
61 415 -202 2218 0
49 -351 -79 2219 0
-427 241 396 2220 0
359 -85 256 2221 0
431 -332 -49 2222 0
409 -259 195 2223 0
113 151 99 2224 0
-3 124 120 2225 0
239 -384 350 2226 0
-97 -120 -428 2227 0
-44 278 209 2228 0
439 -334 301 2229 0
230 -34 -61 2230 0
183 19 362 2231 0
-348 266 458 2232 0
-334 -287 -80 2233 0
271 -212 -331 2234 0
-399 -255 145 2235 0
427 165 -143 2236 0
-197 -269 382 2237 0
-337 55 393 2238 0
301 21 230 2239 0
-70 -452 202 2240 0
397 461 -52 2241 0
226 -433 322 2242 0
6 -215 119 2243 0
369 391 -35 2244 0
495 308 -52 2245 0
-449 -235 329 2246 0
454 -292 313 2247 0
-499 109 360 2248 0
-152 258 35 2249 0
291 -465 -157 2250 0
-308 -343 -1 2251 0
362 -464 -166 2252 0
-380 11 444 2253 0
-187 333 -144 2254 0
-197 326 -353 2255 0
61 117 -314 2256 0
-421 -370 206 2257 0
151 -78 -474 2258 0
323 -96 44 2259 0
-209 -385 -162 2260 0
-250 14 223 2261 0
489 -250 439 2262 0
418 -302 -44 2263 0
305 -118 -154 2264 0
256 -97 171 2265 0
499 53 288 2266 0
-371 348 -135 2267 0
479 -255 281 2268 0
331 491 -28 2269 0
155 315 158 2270 0
247 -374 274 2271 0
-484 446 -107 2272 0
259 140 461 2273 0
-129 161 -257 2274 0
-477 -281 -337 2275 0
-310 -171 111 2276 0
-224 -433 -174 2277 0
-54 -468 284 2278 0
-157 331 -368 2279 0
-422 287 -493 2280 0
-265 -357 -23 2281 0
221 -22 322 2282 0
453 321 -357 2283 0
291 -34 -194 2284 0
-94 -103 461 2285 0
182 188 266 2286 0
250 68 84 2287 0
-115 -76 -259 2288 0
352 49 -130 2289 0
454 -395 -403 2290 0
-265 -395 -175 2291 0
-271 471 -439 2292 0
35 -439 216 2293 0
27 -51 464 2294 0
125 446 413 2295 0
-62 440 -172 2296 0
-210 81 231 2297 0
25 -455 292 2298 0
-228 -253 -435 2299 0
198 347 90 2300 0
58 299 272 2301 0
222 -433 459 2302 0
233 182 -127 2303 0
-435 462 -142 2304 0
208 -192 10 2305 0
354 99 -484 2306 0
375 -311 -421 2307 0
-63 -444 488 2308 0
407 41 389 2309 0
460 -245 -115 2310 0
310 -290 235 2311 0
29 86 292 2312 0
-203 350 499 2313 0
412 -267 121 2314 0
-153 496 116 2315 0
-98 -418 48 2316 0
-460 389 -397 2317 0
-458 337 245 2318 0
226 -278 17 2319 0
169 199 -386 2320 0
-87 426 188 2321 0
-464 449 -400 2322 0
353 227 -373 2323 0
286 54 -461 2324 0
-367 -193 336 2325 0
-388 116 -347 2326 0
451 448 -100 2327 0
-8 488 104 2328 0
371 312 -98 2329 0
295 74 -67 2330 0
-464 134 -322 2331 0
-142 181 440 2332 0
21 475 -453 2333 0
497 342 -402 2334 0
-85 326 -430 2335 0
-253 298 412 2336 0
-5 -186 -236 2337 0
-458 18 -207 2338 0
241 198 -348 2339 0
203 290 437 2340 0
170 64 338 2341 0
-96 -443 -100 2342 0
-205 140 5 2343 0
418 335 -324 2344 0
424 263 179 2345 0
-399 438 109 2346 0
-467 -247 175 2347 0
-408 433 -430 2348 0
487 -295 491 2349 0
-403 -56 67 2350 0
-186 -258 -130 2351 0
241 -368 -323 2352 0
55 417 -62 2353 0
428 -370 -406 2354 0
-51 -285 -362 2355 0
228 258 -2 2356 0
174 -467 5 2357 0
-433 337 289 2358 0
-133 -360 -140 2359 0
-451 -466 -350 2360 0
-426 67 280 2361 0
-499 449 -37 2362 0
-201 -334 357 2363 0
-292 248 377 2364 0
-394 356 314 2365 0
-383 -245 -396 2366 0
-187 112 -93 2367 0
-438 -138 -160 2368 0
2 385 442 2369 0
-398 339 -179 2370 0
-147 172 -23 2371 0
83 -494 -379 2372 0
-399 -121 -344 2373 0
-291 -66 237 2374 0
112 -195 -363 2375 0
63 -112 -458 2376 0
-496 100 -104 2377 0
-408 -107 -397 2378 0
-397 327 97 2379 0
100 21 -275 2380 0
382 92 -430 2381 0
329 461 -199 2382 0
-306 195 -33 2383 0
-52 363 499 2384 0
208 -341 -148 2385 0
-237 -340 439 2386 0
472 405 410 2387 0
298 -296 -37 2388 0
-195 193 259 2389 0
-74 -381 -186 2390 0
-149 425 490 2391 0
-207 59 -321 2392 0
-21 403 142 2393 0
218 -350 421 2394 0
232 -140 394 2395 0
256 -363 133 2396 0
-480 247 -104 2397 0
293 -126 -268 2398 0
207 -322 -451 2399 0
5 -323 164 2400 0
384 323 446 2401 0
235 -354 -433 2402 0
-119 347 383 2403 0
-347 -443 -247 2404 0
-39 -98 183 2405 0
-99 184 -296 2406 0
248 15 316 2407 0
-68 406 -78 2408 0
334 36 -173 2409 0
-457 61 156 2410 0
317 399 231 2411 0
470 145 435 2412 0
-277 -39 88 2413 0
424 -182 260 2414 0
-205 -309 81 2415 0
-97 281 485 2416 0
-182 -32 489 2417 0
454 246 453 2418 0
47 401 213 2419 0
-100 284 258 2420 0
237 -199 283 2421 0
-35 -246 487 2422 0
5 128 165 2423 0
347 38 230 2424 0
200 -29 275 2425 0
-459 -334 208 2426 0
122 -351 329 2427 0
-240 130 -316 2428 0
-31 -496 379 2429 0
82 -301 -390 2430 0
51 -297 -319 2431 0
-439 -478 10 2432 0
240 91 260 2433 0
399 222 164 2434 0
482 -131 -96 2435 0
12 165 -120 2436 0
6 28 -88 2437 0
422 -423 -436 2438 0
100 482 55 2439 0
35 459 -444 2440 0
328 -139 148 2441 0
-92 -201 -490 2442 0
169 -75 156 2443 0
16 278 -390 2444 0
-115 185 -410 2445 0
225 -172 -369 2446 0
494 437 164 2447 0
76 -465 -191 2448 0
-289 48 -84 2449 0
-112 -428 280 2450 0
1 -333 105 2451 0
-263 -328 483 2452 0
51 248 262 2453 0
-330 95 483 2454 0
-141 -211 -189 2455 0
-456 -278 -382 2456 0
454 -473 -438 2457 0
392 446 274 2458 0
-67 384 315 2459 0
444 297 256 2460 0
-426 -306 -317 2461 0
-232 195 216 2462 0
129 75 335 2463 0
303 300 -215 2464 0
-268 446 -7 2465 0
-201 407 471 2466 0
306 323 -203 2467 0
-207 -414 64 2468 0
429 -340 307 2469 0
242 406 -40 2470 0
148 88 344 2471 0
-28 309 241 2472 0
-212 335 -98 2473 0
418 -309 24 2474 0
-411 -287 84 2475 0
165 -187 367 2476 0
-103 98 99 2477 0
-222 -175 72 2478 0
95 -438 116 2479 0
-386 -67 41 2480 0
-45 -291 318 2481 0
-346 178 -158 2482 0
138 -30 -480 2483 0
-393 -312 260 2484 0
-117 -92 -394 2485 0
285 -7 -252 2486 0
-146 -82 -485 2487 0
-194 390 -252 2488 0
377 -225 -272 2489 0
-280 -172 -218 2490 0
-14 101 392 2491 0
150 368 366 2492 0
197 120 -126 2493 0
-141 298 431 2494 0
233 398 -411 2495 0
347 -425 476 2496 0
-308 369 360 2497 0
-324 -367 236 2498 0
-299 -239 274 2499 0
-160 82 341 2500 0
-466 224 -344 2501 0
394 -393 -454 2502 0
-435 440 -412 2503 0
-179 -217 -297 2504 0
-80 -361 463 2505 0
-159 150 180 2506 0
-105 -456 225 2507 0
321 -128 361 2508 0
-381 328 265 2509 0
370 41 149 2510 0
118 -246 17 2511 0
-374 -169 -145 2512 0
157 464 -48 2513 0
322 -153 454 2514 0
-490 31 -395 2515 0
-6 398 -199 2516 0
-49 490 -433 2517 0
272 -91 -428 2518 0
-261 -275 153 2519 0
-124 384 -170 2520 0
241 -181 171 2521 0
222 462 294 2522 0
114 -218 -292 2523 0
424 -223 -259 2524 0
-372 35 -241 2525 0
459 -206 -319 2526 0
-277 -258 384 2527 0
-112 3 -24 2528 0
-79 2 345 2529 0
346 191 230 2530 0
-428 -304 437 2531 0
-351 -426 -185 2532 0
-476 -6 361 2533 0
265 -39 -154 2534 0
-468 235 332 2535 0
221 378 443 2536 0
405 493 -11 2537 0
8 -483 14 2538 0
191 -169 9 2539 0
377 -331 -410 2540 0
419 -180 -30 2541 0
-202 -432 -340 2542 0
358 -394 71 2543 0
357 55 195 2544 0
335 427 -396 2545 0
-486 121 53 2546 0
-75 19 216 2547 0
-377 -499 241 2548 0
-10 -80 -363 2549 0
361 203 -291 2550 0
-417 -206 384 2551 0
186 -332 11 2552 0
361 -427 237 2553 0
-138 213 272 2554 0
48 250 147 2555 0
411 80 103 2556 0
70 -102 139 2557 0
-351 -146 207 2558 0
-161 -404 50 2559 0
-221 -236 -31 2560 0
-500 269 -185 2561 0
-24 317 197 2562 0
-374 -477 10 2563 0
389 105 -12 2564 0
500 -363 -212 2565 0
99 -364 -56 2566 0
404 262 -398 2567 0
217 -310 80 2568 0
-364 420 -115 2569 0
183 -131 237 2570 0
51 -488 127 2571 0
79 -487 205 2572 0
80 16 278 2573 0
350 227 -362 2574 0
386 204 323 2575 0
-292 -99 369 2576 0
-343 -163 -216 2577 0
443 -70 43 2578 0
-500 37 123 2579 0
-155 -480 -464 2580 0
439 101 278 2581 0
146 -241 313 2582 0
-218 443 -122 2583 0
309 415 -113 2584 0
-301 99 -360 2585 0
306 -418 -82 2586 0
241 -490 5 2587 0
-466 35 263 2588 0
444 -426 -349 2589 0
-43 -51 423 2590 0
-137 480 -154 2591 0
-407 18 376 2592 0
6 -397 140 2593 0
-264 -96 -280 2594 0
158 -24 -142 2595 0
61 389 416 2596 0
497 -306 -286 2597 0
263 121 -57 2598 0
-284 -181 246 2599 0
-146 378 264 2600 0
-19 -114 428 2601 0
-305 55 431 2602 0
347 325 -295 2603 0
-123 173 -266 2604 0
-419 236 163 2605 0
-148 -437 -204 2606 0
-372 389 -280 2607 0
-429 181 87 2608 0
-479 148 464 2609 0
-376 -65 30 2610 0
492 297 195 2611 0
112 -494 189 2612 0
401 197 150 2613 0
497 9 242 2614 0
114 170 88 2615 0
-310 -277 285 2616 0
-16 -468 138 2617 0
140 165 29 2618 0
466 -371 14 2619 0
-336 -118 -405 2620 0
-422 -108 -16 2621 0
321 261 -78 2622 0
314 -179 143 2623 0
318 160 451 2624 0
-18 -4 -238 2625 0
139 -108 319 2626 0
-6 64 406 2627 0
-399 -11 -463 2628 0
49 -445 223 2629 0
-452 466 286 2630 0
-119 170 155 2631 0
17 471 247 2632 0
482 -112 -152 2633 0
433 -234 379 2634 0
-458 266 -51 2635 0
121 46 -364 2636 0
-107 105 325 2637 0
335 306 41 2638 0
-39 130 -133 2639 0
-267 483 279 2640 0
39 -416 338 2641 0
-152 77 -37 2642 0
354 -299 -197 2643 0
-98 -371 -119 2644 0
121 -290 312 2645 0
-360 383 77 2646 0
-221 454 336 2647 0
-474 -52 -406 2648 0
370 -261 158 2649 0
433 -258 -138 2650 0
