p cnf 2650 2150
332 -395 98 501 0
144 -440 312 502 0
-455 -472 -198 503 0
253 -150 143 504 0
-111 293 404 505 0
-399 412 -264 506 0
-296 184 -135 507 0
-33 120 -344 508 0
37 -224 -222 509 0
462 -197 -237 510 0
-295 -413 -107 511 0
249 -375 -53 512 0
39 93 -66 513 0
-126 -253 120 514 0
-120 273 395 515 0
438 189 357 516 0
116 280 298 517 0
-480 390 -65 518 0
-476 289 -352 519 0
332 -4 -215 520 0
177 495 492 521 0
132 -400 -6 522 0
434 -245 -455 523 0
199 45 76 524 0
-193 137 -218 525 0
133 -357 41 526 0
-453 -24 338 527 0
-468 43 81 528 0
476 -167 109 529 0
144 -155 301 530 0
-106 -271 -364 531 0
-390 261 -293 532 0
-304 454 182 533 0
62 457 -365 534 0
-166 407 10 535 0
-259 274 493 536 0
37 -66 499 537 0
269 -179 -64 538 0
-243 246 285 539 0
219 274 178 540 0
24 132 234 541 0
274 -210 353 542 0
-419 -132 249 543 0
-432 -349 267 544 0
-426 -26 2 545 0
-272 -262 -227 546 0
19 33 280 547 0
-456 -471 -100 548 0
-47 285 121 549 0
-191 -187 -488 550 0
293 -178 -421 551 0
-298 -204 104 552 0
144 416 359 553 0
-287 182 132 554 0
449 354 -492 555 0
22 -274 151 556 0
-133 -326 40 557 0
-359 -72 470 558 0
-366 375 278 559 0
-288 425 53 560 0
-342 213 -91 561 0
-226 106 241 562 0
-180 334 -303 563 0
-459 -380 133 564 0
89 -450 -291 565 0
-371 67 -244 566 0
-18 301 375 567 0
-280 -364 311 568 0
-207 156 -78 569 0
-13 -71 -228 570 0
279 137 351 571 0
-266 202 95 572 0
-47 -403 -385 573 0
69 -72 210 574 0
-434 96 56 575 0
383 -450 363 576 0
391 244 -271 577 0
466 148 -295 578 0
-486 315 -352 579 0
-485 -331 248 580 0
105 -481 -86 581 0
-484 423 224 582 0
-111 -365 415 583 0
378 -467 103 584 0
266 -11 -252 585 0
82 -102 -308 586 0
-333 295 -38 587 0
130 -12 -408 588 0
379 -281 325 589 0
489 191 149 590 0
125 -379 -377 591 0
-177 -90 -57 592 0
-233 -19 -70 593 0
52 -271 358 594 0
480 384 274 595 0
-49 199 -285 596 0
256 -183 -361 597 0
74 425 296 598 0
425 -70 -477 599 0
-330 -84 -300 600 0
167 -466 -201 601 0
441 -7 -64 602 0
-31 -346 437 603 0
-87 -385 89 604 0
404 286 -381 605 0
-378 403 -436 606 0
363 260 52 607 0
327 432 -203 608 0
157 -312 243 609 0
-190 86 240 610 0
454 499 -143 611 0
-58 165 312 612 0
-476 -449 -318 613 0
291 152 194 614 0
268 277 -79 615 0
247 127 -318 616 0
497 471 272 617 0
462 -384 176 618 0
407 -34 -298 619 0
-45 458 -102 620 0
200 -389 144 621 0
305 -379 418 622 0
120 179 113 623 0
188 -451 65 624 0
236 -261 -438 625 0
19 202 244 626 0
-320 -54 -231 627 0
499 -452 486 628 0
-348 428 50 629 0
354 396 -412 630 0
190 -266 449 631 0
361 -195 -29 632 0
401 -415 -321 633 0
450 -54 -151 634 0
-454 137 7 635 0
458 -215 7 636 0
-227 -20 123 637 0
-107 -296 144 638 0
190 -8 -308 639 0
103 -128 -262 640 0
419 -167 -316 641 0
367 424 -312 642 0
-37 73 -111 643 0
-393 441 -45 644 0
-122 -275 -3 645 0
-207 -284 -368 646 0
-370 -2 75 647 0
318 -107 -56 648 0
468 251 432 649 0
94 400 -43 650 0
-52 188 112 651 0
410 -326 434 652 0
-320 157 354 653 0
424 -89 212 654 0
138 -185 -104 655 0
117 -174 307 656 0
-425 205 181 657 0
-209 -330 485 658 0
180 34 242 659 0
175 385 372 660 0
350 -153 243 661 0
-116 150 299 662 0
-476 56 43 663 0
-138 77 -121 664 0
111 -116 -85 665 0
208 -470 310 666 0
168 85 398 667 0
306 -79 66 668 0
432 -288 496 669 0
85 -299 -302 670 0
-282 -120 -403 671 0
240 -225 -415 672 0
-435 190 -451 673 0
217 186 -271 674 0
67 -38 -31 675 0
-28 418 -46 676 0
-144 362 20 677 0
-14 -480 322 678 0
484 -45 -19 679 0
-138 -275 -252 680 0
-484 -241 66 681 0
-150 -444 382 682 0
239 -324 -2 683 0
-430 -287 62 684 0
-107 -342 340 685 0
-475 178 9 686 0
132 348 285 687 0
-339 265 -61 688 0
-485 164 32 689 0
-108 361 218 690 0
172 104 207 691 0
153 388 144 692 0
-466 -189 108 693 0
60 -147 -42 694 0
256 446 -113 695 0
194 -175 430 696 0
168 185 105 697 0
-488 -77 -259 698 0
248 119 -290 699 0
218 497 356 700 0
-459 -331 -182 701 0
122 253 313 702 0
288 136 146 703 0
318 -369 103 704 0
311 -12 -262 705 0
-411 -124 175 706 0
279 -121 499 707 0
47 -377 -351 708 0
398 437 305 709 0
108 -480 -265 710 0
-156 414 249 711 0
-236 282 413 712 0
166 7 464 713 0
125 -335 -136 714 0
113 -384 427 715 0
-436 359 -498 716 0
183 194 496 717 0
213 279 475 718 0
491 298 321 719 0
-136 300 198 720 0
351 -335 -227 721 0
43 -52 425 722 0
-103 -280 -426 723 0
-463 368 -283 724 0
77 407 -217 725 0
-181 475 42 726 0
400 279 113 727 0
351 119 -64 728 0
-252 -294 -397 729 0
-40 138 -280 730 0
317 -200 -302 731 0
-422 -309 71 732 0
-10 306 240 733 0
-410 -247 189 734 0
-316 -92 -356 735 0
-222 -418 -375 736 0
-145 -271 -442 737 0
-434 213 -76 738 0
-403 -138 -23 739 0
-114 -110 -340 740 0
-372 152 -380 741 0
414 391 -486 742 0
22 -449 -430 743 0
435 -253 -134 744 0
449 -497 245 745 0
130 152 20 746 0
-448 385 453 747 0
328 32 224 748 0
-332 -391 417 749 0
464 -3 -165 750 0
-291 -161 -86 751 0
-5 -17 353 752 0
-200 -25 158 753 0
443 -459 -414 754 0
-284 -282 142 755 0
-295 -142 438 756 0
-10 284 -468 757 0
-127 142 -27 758 0
483 -132 -331 759 0
15 -62 -6 760 0
-201 123 379 761 0
8 -79 -407 762 0
99 463 22 763 0
214 -499 -418 764 0
150 -10 343 765 0
-456 229 -115 766 0
107 -122 121 767 0
209 294 234 768 0
-183 491 -469 769 0
77 121 255 770 0
11 -98 319 771 0
-240 -437 -273 772 0
90 -389 -112 773 0
271 -185 -486 774 0
355 499 -390 775 0
-197 376 -499 776 0
-206 -398 153 777 0
-187 -455 -308 778 0
262 160 -428 779 0
-99 372 -91 780 0
-153 369 -321 781 0
337 -376 -204 782 0
140 -204 26 783 0
-489 202 152 784 0
-330 -406 409 785 0
492 -178 -29 786 0
137 -346 162 787 0
81 84 -128 788 0
136 183 -143 789 0
-86 368 -388 790 0
-129 2 331 791 0
175 186 96 792 0
-317 335 -451 793 0
-359 178 -153 794 0
-360 -369 -156 795 0
-300 108 357 796 0
-458 279 -109 797 0
-469 -242 1 798 0
-356 -292 -214 799 0
5 -170 -72 800 0
355 -455 -400 801 0
72 -2 487 802 0
-100 355 363 803 0
460 270 -450 804 0
-411 -494 197 805 0
-179 307 -224 806 0
-278 144 -44 807 0
323 -386 273 808 0
-81 -147 379 809 0
392 -345 -292 810 0
230 40 209 811 0
-490 479 -488 812 0
-209 142 497 813 0
334 240 53 814 0
39 -320 -184 815 0
21 10 349 816 0
-489 389 -218 817 0
-300 231 193 818 0
-500 -173 -399 819 0
498 -475 -263 820 0
343 -463 -159 821 0
290 -198 -136 822 0
127 437 -5 823 0
344 267 313 824 0
53 -12 293 825 0
-476 -71 -34 826 0
295 9 -280 827 0
-209 -235 -251 828 0
428 -275 -46 829 0
82 -101 -145 830 0
116 482 -184 831 0
-85 -375 242 832 0
23 -372 132 833 0
87 277 327 834 0
208 258 455 835 0
122 -445 202 836 0
-169 190 266 837 0
59 -294 297 838 0
150 -282 -376 839 0
143 466 82 840 0
472 424 167 841 0
-306 33 491 842 0
-176 -345 -367 843 0
301 493 -490 844 0
-259 -75 197 845 0
213 -201 -71 846 0
-440 -29 209 847 0
483 415 -25 848 0
411 53 34 849 0
-313 322 219 850 0
-362 -244 397 851 0
401 309 148 852 0
-209 -328 -115 853 0
336 -63 202 854 0
473 -375 383 855 0
-330 440 -415 856 0
-206 -43 -410 857 0
-275 -46 -266 858 0
9 226 -217 859 0
-439 208 294 860 0
-285 -130 -221 861 0
322 220 2 862 0
-423 50 -454 863 0
101 -162 397 864 0
4 305 190 865 0
-89 187 441 866 0
145 -237 -177 867 0
327 -420 110 868 0
-390 140 270 869 0
-349 -324 189 870 0
70 110 167 871 0
-389 -53 339 872 0
410 426 389 873 0
-437 73 -45 874 0
-441 198 498 875 0
426 -89 -263 876 0
-298 335 377 877 0
145 -151 51 878 0
476 86 -276 879 0
-387 -303 -250 880 0
153 -319 -443 881 0
420 23 197 882 0
327 -65 -270 883 0
-421 -209 -61 884 0
393 -53 348 885 0
-472 -408 470 886 0
301 -411 -190 887 0
59 -155 19 888 0
74 198 412 889 0
-472 -371 -291 890 0
-6 146 67 891 0
-80 -290 358 892 0
-18 199 -197 893 0
360 33 404 894 0
-352 281 -326 895 0
336 152 484 896 0
-39 112 118 897 0
195 88 -261 898 0
-440 78 -286 899 0
-39 421 -140 900 0
271 -201 -150 901 0
-314 426 415 902 0
-143 88 -55 903 0
-130 213 -234 904 0
15 -337 -94 905 0
74 480 -134 906 0
-5 227 86 907 0
-413 479 480 908 0
-226 103 -5 909 0
-249 -490 -281 910 0
409 -231 154 911 0
-30 453 -23 912 0
425 -87 475 913 0
-460 -420 389 914 0
265 314 -472 915 0
472 114 -93 916 0
-193 68 -211 917 0
-117 281 -440 918 0
202 -272 364 919 0
-448 -204 393 920 0
-169 -314 122 921 0
415 -87 -458 922 0
66 266 11 923 0
349 154 -134 924 0
-449 -159 473 925 0
-368 -112 -78 926 0
-68 350 309 927 0
-422 154 384 928 0
263 216 -96 929 0
-430 -169 137 930 0
364 237 387 931 0
333 -32 65 932 0
10 497 50 933 0
-317 -361 -94 934 0
178 485 59 935 0
-340 84 -476 936 0
163 10 257 937 0
249 276 237 938 0
172 480 -84 939 0
337 399 403 940 0
55 450 -398 941 0
-480 8 119 942 0
-461 -396 -358 943 0
-358 18 245 944 0
151 312 -383 945 0
391 -76 -236 946 0
246 15 398 947 0
-170 27 463 948 0
-440 234 -231 949 0
271 -125 308 950 0
-491 321 418 951 0
-387 -183 168 952 0
451 232 223 953 0
14 71 18 954 0
377 -150 -248 955 0
-40 141 85 956 0
328 -209 -124 957 0
-36 317 35 958 0
-40 -378 361 959 0
97 383 -395 960 0
210 479 183 961 0
18 42 -381 962 0
-42 -370 239 963 0
-44 58 -421 964 0
271 -63 148 965 0
-266 -249 -140 966 0
6 154 150 967 0
236 -11 344 968 0
13 -188 500 969 0
-260 72 321 970 0
258 67 -226 971 0
286 -350 214 972 0
-266 109 420 973 0
-3 -257 -460 974 0
-472 -270 -203 975 0
32 -417 93 976 0
-184 -97 405 977 0
-162 -191 -205 978 0
-15 -402 -222 979 0
-85 113 -204 980 0
-174 -129 264 981 0
-6 -170 89 982 0
-193 266 481 983 0
312 -281 185 984 0
-12 -182 -257 985 0
-340 -88 -227 986 0
111 191 317 987 0
-306 12 -467 988 0
250 -84 -15 989 0
252 -13 71 990 0
-229 -378 -488 991 0
329 -236 455 992 0
-309 -88 -252 993 0
342 -149 -207 994 0
5 -210 -171 995 0
483 -460 -97 996 0
228 -482 371 997 0
-142 -39 422 998 0
436 422 388 999 0
436 246 -49 1000 0
-308 -135 303 1001 0
91 322 -455 1002 0
107 161 -249 1003 0
449 -85 139 1004 0
-296 207 138 1005 0
349 -49 245 1006 0
438 -342 -486 1007 0
478 93 -484 1008 0
104 -16 151 1009 0
-461 -349 421 1010 0
162 -470 -433 1011 0
437 -193 -292 1012 0
-405 -278 -106 1013 0
-128 140 -266 1014 0
139 -297 -241 1015 0
321 -167 -21 1016 0
-440 -128 213 1017 0
-44 461 193 1018 0
-274 -89 95 1019 0
29 -158 252 1020 0
-17 -125 290 1021 0
-101 163 -261 1022 0
-86 -164 -271 1023 0
443 -244 -123 1024 0
-484 154 -306 1025 0
476 472 180 1026 0
-192 287 120 1027 0
-187 135 399 1028 0
-93 257 146 1029 0
-192 -78 313 1030 0
-26 -121 372 1031 0
112 -29 222 1032 0
450 470 -453 1033 0
-195 -421 460 1034 0
-97 317 142 1035 0
382 -341 80 1036 0
316 -292 148 1037 0
71 205 -383 1038 0
-404 57 206 1039 0
-116 -110 -113 1040 0
-491 105 -422 1041 0
-61 -133 317 1042 0
388 -215 -499 1043 0
-180 -475 -440 1044 0
16 -409 -12 1045 0
-338 -205 -8 1046 0
44 188 25 1047 0
24 -291 20 1048 0
-142 136 113 1049 0
-488 459 271 1050 0
86 118 -5 1051 0
-7 -453 31 1052 0
156 393 -384 1053 0
-462 46 -336 1054 0
-180 -132 318 1055 0
-492 139 178 1056 0
389 215 409 1057 0
351 -385 366 1058 0
469 482 -348 1059 0
-281 420 39 1060 0
-271 262 -197 1061 0
12 -339 286 1062 0
-71 -310 178 1063 0
124 -103 -202 1064 0
-355 -407 264 1065 0
479 387 -285 1066 0
-465 338 -343 1067 0
-232 -193 -234 1068 0
427 494 346 1069 0
415 -490 -161 1070 0
262 -233 -250 1071 0
272 -409 -105 1072 0
467 87 -204 1073 0
223 261 421 1074 0
-375 -279 -105 1075 0
-84 -469 -147 1076 0
293 -169 414 1077 0
108 -156 -202 1078 0
401 219 60 1079 0
394 262 134 1080 0
-12 -109 -442 1081 0
495 -331 -420 1082 0
243 -261 -91 1083 0
-339 358 164 1084 0
371 -199 109 1085 0
-277 -470 -146 1086 0
-281 -55 -226 1087 0
206 -389 -129 1088 0
-278 301 31 1089 0
-140 -387 216 1090 0
-268 -71 -487 1091 0
189 -123 -158 1092 0
-206 -21 118 1093 0
-131 300 -126 1094 0
257 -145 222 1095 0
-76 -156 412 1096 0
-60 -149 -295 1097 0
-126 -312 -316 1098 0
-188 -343 284 1099 0
60 131 -275 1100 0
206 -114 247 1101 0
-487 -48 84 1102 0
127 340 458 1103 0
445 -46 323 1104 0
354 -155 -457 1105 0
-187 -228 313 1106 0
385 -323 -433 1107 0
163 -336 -215 1108 0
-257 -407 -154 1109 0
-21 -274 -11 1110 0
-295 -16 368 1111 0
173 -425 353 1112 0
485 133 452 1113 0
-210 475 -88 1114 0
310 -231 368 1115 0
-196 -152 -179 1116 0
-192 -447 -86 1117 0
395 -375 462 1118 0
-400 -434 458 1119 0
444 -234 -306 1120 0
109 -425 -60 1121 0
-181 143 -293 1122 0
81 8 365 1123 0
-282 295 -145 1124 0
-29 -424 -355 1125 0
-112 376 340 1126 0
-455 301 485 1127 0
364 -73 -97 1128 0
339 211 28 1129 0
85 -10 462 1130 0
-309 -473 292 1131 0
33 192 473 1132 0
178 133 -115 1133 0
455 -69 287 1134 0
-330 -231 186 1135 0
471 -39 188 1136 0
224 -352 130 1137 0
-28 303 265 1138 0
-140 11 23 1139 0
317 435 -192 1140 0
9 -405 -276 1141 0
-179 -275 234 1142 0
355 -372 218 1143 0
-174 175 186 1144 0
-203 -223 377 1145 0
-453 301 -11 1146 0
-235 147 -200 1147 0
167 173 283 1148 0
336 -134 434 1149 0
-248 194 -91 1150 0
111 -214 -465 1151 0
286 -456 499 1152 0
-431 209 -255 1153 0
1 -199 61 1154 0
-108 -49 -355 1155 0
67 -392 481 1156 0
335 -468 354 1157 0
-62 261 -4 1158 0
-143 -41 -275 1159 0
-172 279 -422 1160 0
-347 -183 269 1161 0
-364 -142 287 1162 0
-348 397 -60 1163 0
450 185 -177 1164 0
-345 405 -472 1165 0
299 75 -97 1166 0
-453 55 -171 1167 0
-3 -358 40 1168 0
315 390 130 1169 0
-166 -97 37 1170 0
-205 128 -63 1171 0
284 262 -93 1172 0
121 -91 -168 1173 0
-235 -153 -125 1174 0
172 -483 -50 1175 0
-42 -497 109 1176 0
-73 -364 -265 1177 0
448 66 -131 1178 0
-107 -240 29 1179 0
176 -386 199 1180 0
-234 -237 -53 1181 0
-487 -43 433 1182 0
-16 204 263 1183 0
28 -414 390 1184 0
-408 422 -81 1185 0
-193 -132 155 1186 0
-13 -219 -168 1187 0
356 -461 202 1188 0
299 -352 216 1189 0
374 410 487 1190 0
350 414 -481 1191 0
-317 -313 496 1192 0
436 13 146 1193 0
141 175 320 1194 0
-30 -400 -163 1195 0
-189 -243 -15 1196 0
-12 -77 -19 1197 0
278 -438 29 1198 0
-280 -135 266 1199 0
-285 253 -95 1200 0
-342 -308 319 1201 0
-63 184 -233 1202 0
-400 -363 267 1203 0
27 111 451 1204 0
-418 278 386 1205 0
-43 -97 238 1206 0
243 366 320 1207 0
499 -370 -88 1208 0
-205 124 324 1209 0
-18 -500 56 1210 0
-427 -152 -207 1211 0
176 69 43 1212 0
255 -302 376 1213 0
-382 -302 8 1214 0
-499 -243 -371 1215 0
377 -96 406 1216 0
191 -476 59 1217 0
1 98 -318 1218 0
357 119 388 1219 0
246 369 34 1220 0
-149 133 453 1221 0
-119 -312 156 1222 0
-417 -379 -457 1223 0
-87 211 291 1224 0
339 -295 -453 1225 0
-24 -105 14 1226 0
-334 252 298 1227 0
-260 -85 359 1228 0
154 146 144 1229 0
480 238 -298 1230 0
15 -147 500 1231 0
322 -363 484 1232 0
43 -187 4 1233 0
144 -117 227 1234 0
-486 446 -80 1235 0
-360 -403 168 1236 0
18 -171 -147 1237 0
-96 434 198 1238 0
-240 305 213 1239 0
43 145 35 1240 0
47 -44 133 1241 0
167 162 478 1242 0
-354 -317 245 1243 0
-346 202 97 1244 0
146 -275 479 1245 0
-246 473 293 1246 0
-81 -373 416 1247 0
213 -304 -208 1248 0
-304 -184 237 1249 0
332 -400 -96 1250 0
420 411 105 1251 0
-167 -26 -179 1252 0
-50 16 -223 1253 0
494 -111 -12 1254 0
-401 -431 -136 1255 0
120 -158 -24 1256 0
43 -385 60 1257 0
-79 137 472 1258 0
342 102 489 1259 0
-208 129 260 1260 0
231 -404 -217 1261 0
-385 -78 -488 1262 0
-75 -374 238 1263 0
-345 42 -451 1264 0
424 -110 434 1265 0
228 108 -416 1266 0
-368 310 -8 1267 0
-220 -466 -484 1268 0
61 -146 114 1269 0
-6 83 204 1270 0
-161 273 420 1271 0
-269 44 -36 1272 0
-435 134 -396 1273 0
492 408 156 1274 0
-128 -29 -323 1275 0
-16 377 47 1276 0
357 -184 58 1277 0
353 126 -169 1278 0
251 399 167 1279 0
-330 6 287 1280 0
-226 -283 407 1281 0
262 458 -271 1282 0
354 -270 266 1283 0
-102 -132 -306 1284 0
452 319 -290 1285 0
-448 -292 241 1286 0
-229 -74 333 1287 0
9 62 465 1288 0
316 339 -192 1289 0
289 -94 -158 1290 0
338 444 -54 1291 0
285 -110 134 1292 0
-302 60 4 1293 0
-73 2 372 1294 0
351 -406 -34 1295 0
-416 -186 220 1296 0
10 -423 265 1297 0
-394 -379 148 1298 0
16 343 -358 1299 0
127 389 175 1300 0
-447 210 197 1301 0
-497 -214 179 1302 0
-367 497 -216 1303 0
-37 462 133 1304 0
-417 -42 -81 1305 0
433 259 -362 1306 0
123 181 322 1307 0
204 20 -198 1308 0
-283 -111 477 1309 0
-95 280 442 1310 0
80 -333 411 1311 0
52 -130 142 1312 0
328 -383 492 1313 0
30 -424 468 1314 0
-212 218 -8 1315 0
-379 -417 162 1316 0
-380 437 -114 1317 0
422 -223 -158 1318 0
254 -275 -87 1319 0
-355 91 -128 1320 0
-158 139 113 1321 0
337 -52 348 1322 0
-272 280 -482 1323 0
-86 295 310 1324 0
-293 29 -18 1325 0
137 -68 -287 1326 0
-108 202 78 1327 0
-261 -492 307 1328 0
-467 -288 276 1329 0
280 36 370 1330 0
-212 236 -237 1331 0
-331 -335 -29 1332 0
-290 -16 -101 1333 0
-14 -182 -420 1334 0
-300 410 92 1335 0
468 -308 -243 1336 0
185 -438 301 1337 0
485 -475 -225 1338 0
-139 -480 50 1339 0
8 -296 -254 1340 0
-155 91 225 1341 0
-204 -379 176 1342 0
361 -125 139 1343 0
354 -422 89 1344 0
-244 -400 -391 1345 0
381 -244 252 1346 0
-69 32 73 1347 0
205 -105 223 1348 0
-54 124 -355 1349 0
80 109 -447 1350 0
-371 -183 -129 1351 0
339 -8 -282 1352 0
-433 -1 -393 1353 0
-286 319 -204 1354 0
-113 -66 -351 1355 0
218 -269 185 1356 0
-181 373 -86 1357 0
242 -450 72 1358 0
-179 392 361 1359 0
449 -127 -328 1360 0
451 -46 -199 1361 0
185 336 54 1362 0
251 271 -218 1363 0
180 -106 133 1364 0
8 -329 -46 1365 0
257 -154 24 1366 0
-189 29 -392 1367 0
157 443 -271 1368 0
-157 -52 -259 1369 0
-250 -193 94 1370 0
157 123 -96 1371 0
-345 -368 -464 1372 0
224 2 -79 1373 0
-117 -128 -8 1374 0
-474 313 70 1375 0
-467 -433 -381 1376 0
167 134 -194 1377 0
82 210 -233 1378 0
284 -114 80 1379 0
494 298 -370 1380 0
-86 207 242 1381 0
450 -74 -88 1382 0
190 166 -337 1383 0
86 459 34 1384 0
-39 498 -368 1385 0
193 52 239 1386 0
90 -353 407 1387 0
145 -8 25 1388 0
53 -49 -185 1389 0
21 262 -97 1390 0
-333 -4 461 1391 0
347 247 -40 1392 0
-263 -22 -397 1393 0
435 -354 -143 1394 0
102 292 389 1395 0
-418 -500 -172 1396 0
112 -227 -244 1397 0
-318 278 -377 1398 0
440 -496 218 1399 0
-156 142 -392 1400 0
376 435 -24 1401 0
233 -89 313 1402 0
256 488 -191 1403 0
182 293 -68 1404 0
-194 36 271 1405 0
4 -259 -59 1406 0
134 5 287 1407 0
323 -183 296 1408 0
-323 -334 421 1409 0
437 -238 6 1410 0
-67 -451 301 1411 0
-23 29 -358 1412 0
-385 -63 -47 1413 0
-376 403 -177 1414 0
-303 49 241 1415 0
-121 1 -19 1416 0
69 -418 -297 1417 0
-95 -320 -354 1418 0
-224 167 -415 1419 0
415 -380 201 1420 0
-376 -207 216 1421 0
269 22 399 1422 0
294 118 -143 1423 0
272 421 -427 1424 0
-7 309 -61 1425 0
-146 -491 474 1426 0
285 -467 53 1427 0
477 -100 -45 1428 0
115 218 298 1429 0
175 35 -241 1430 0
327 -215 290 1431 0
-385 -178 282 1432 0
-199 498 99 1433 0
341 124 206 1434 0
182 143 -356 1435 0
-321 -79 71 1436 0
441 -103 -66 1437 0
-75 92 162 1438 0
-347 -142 -187 1439 0
-491 9 -97 1440 0
260 299 10 1441 0
275 -254 -7 1442 0
153 -347 11 1443 0
96 487 292 1444 0
260 435 380 1445 0
333 366 416 1446 0
-489 -372 -66 1447 0
-232 -493 479 1448 0
-381 231 357 1449 0
-390 -73 85 1450 0
-206 -190 228 1451 0
-213 445 -474 1452 0
-181 -27 -40 1453 0
-100 -485 391 1454 0
273 -305 55 1455 0
-254 -445 -146 1456 0
-290 279 -368 1457 0
154 83 -192 1458 0
-261 395 392 1459 0
-310 -384 28 1460 0
-403 -218 68 1461 0
88 116 -473 1462 0
-76 135 129 1463 0
-432 2 -209 1464 0
-197 449 398 1465 0
486 133 -227 1466 0
-178 238 186 1467 0
264 -232 -107 1468 0
-262 -97 47 1469 0
250 476 34 1470 0
388 -427 99 1471 0
470 -320 -237 1472 0
-239 -214 -351 1473 0
146 485 -128 1474 0
165 127 -336 1475 0
-133 -282 408 1476 0
135 -248 198 1477 0
247 -477 -159 1478 0
287 -223 426 1479 0
-180 43 102 1480 0
-173 -298 223 1481 0
204 -410 -289 1482 0
-434 -415 -445 1483 0
-315 -365 53 1484 0
-104 -336 -3 1485 0
-32 12 -389 1486 0
-500 336 435 1487 0
-76 372 178 1488 0
471 -489 -397 1489 0
-493 231 -87 1490 0
24 -73 -315 1491 0
-369 -117 412 1492 0
-324 387 -421 1493 0
-354 -444 -26 1494 0
100 479 34 1495 0
9 -80 439 1496 0
-43 78 423 1497 0
-58 -489 70 1498 0
-144 -344 -492 1499 0
-399 137 249 1500 0
-362 -415 148 1501 0
36 -69 142 1502 0
-390 57 -185 1503 0
221 459 81 1504 0
181 163 18 1505 0
-159 -175 -445 1506 0
433 -432 315 1507 0
499 -390 22 1508 0
127 -278 410 1509 0
410 -203 114 1510 0
385 121 -355 1511 0
168 199 133 1512 0
-3 437 387 1513 0
-232 304 408 1514 0
123 -500 240 1515 0
274 -151 30 1516 0
-368 -325 290 1517 0
230 -344 359 1518 0
296 -322 295 1519 0
424 -32 -176 1520 0
-354 -36 -409 1521 0
145 120 181 1522 0
42 311 -109 1523 0
-370 218 188 1524 0
-220 168 81 1525 0
409 -249 -290 1526 0
419 -276 -226 1527 0
-254 26 -316 1528 0
232 331 -4 1529 0
-333 372 295 1530 0
-227 -239 33 1531 0
351 158 41 1532 0
265 335 310 1533 0
494 -89 348 1534 0
-451 247 97 1535 0
-325 378 143 1536 0
337 -148 500 1537 0
-36 -255 326 1538 0
480 86 -212 1539 0
-28 -338 219 1540 0
265 455 -51 1541 0
-237 -285 402 1542 0
-94 -314 -250 1543 0
-175 -104 -197 1544 0
-254 400 -160 1545 0
179 471 -183 1546 0
-457 314 297 1547 0
150 423 176 1548 0
19 155 441 1549 0
-245 -464 -171 1550 0
-150 408 -493 1551 0
284 74 -367 1552 0
-140 -451 -346 1553 0
-391 370 476 1554 0
71 244 -39 1555 0
357 110 103 1556 0
360 -48 -441 1557 0
216 -34 -177 1558 0
-472 28 -51 1559 0
404 322 70 1560 0
303 -32 -120 1561 0
390 460 306 1562 0
281 117 438 1563 0
-397 -16 84 1564 0
100 -140 -331 1565 0
355 -266 -349 1566 0
35 366 332 1567 0
-2 -437 282 1568 0
343 434 389 1569 0
-10 -285 -393 1570 0
379 -485 -85 1571 0
-230 180 206 1572 0
264 -135 464 1573 0
453 -106 362 1574 0
305 472 279 1575 0
-307 435 334 1576 0
345 -448 460 1577 0
377 -55 449 1578 0
-357 306 -282 1579 0
302 -28 131 1580 0
260 112 -237 1581 0
-61 -296 -425 1582 0
32 -81 -139 1583 0
329 -46 375 1584 0
-272 -319 -359 1585 0
125 403 -407 1586 0
-217 390 381 1587 0
-264 223 -323 1588 0
-22 -337 77 1589 0
174 278 -403 1590 0
-80 -177 476 1591 0
-288 -208 211 1592 0
-470 362 253 1593 0
-458 287 354 1594 0
-184 -362 291 1595 0
241 462 229 1596 0
204 -465 494 1597 0
455 76 -128 1598 0
-68 272 -211 1599 0
457 53 -410 1600 0
180 -380 -189 1601 0
415 -229 -201 1602 0
-100 219 111 1603 0
163 104 342 1604 0
155 -423 347 1605 0
158 -254 57 1606 0
235 -458 -422 1607 0
318 282 -6 1608 0
-155 387 465 1609 0
493 308 126 1610 0
-18 -307 172 1611 0
-446 358 48 1612 0
494 87 3 1613 0
-222 -171 148 1614 0
-301 114 261 1615 0
208 17 319 1616 0
-494 -483 283 1617 0
-308 -306 -41 1618 0
-157 -324 -11 1619 0
126 -91 -347 1620 0
483 -260 -272 1621 0
-397 481 195 1622 0
377 -338 337 1623 0
-396 193 186 1624 0
-492 -298 -497 1625 0
463 -96 2 1626 0
-452 -468 137 1627 0
387 429 371 1628 0
211 213 -195 1629 0
-362 209 -396 1630 0
220 193 328 1631 0
-427 126 159 1632 0
100 -96 437 1633 0
-449 -371 155 1634 0
-38 123 416 1635 0
-13 -49 275 1636 0
310 -234 450 1637 0
228 485 193 1638 0
-14 112 -347 1639 0
262 -108 268 1640 0
-337 456 -378 1641 0
-194 -167 -303 1642 0
-240 -176 -45 1643 0
221 256 430 1644 0
-146 129 -385 1645 0
-310 236 355 1646 0
-8 203 -199 1647 0
-249 496 -76 1648 0
92 262 292 1649 0
-484 -498 309 1650 0
-390 146 -171 1651 0
-168 236 342 1652 0
-51 260 -259 1653 0
289 308 -58 1654 0
-238 164 -493 1655 0
363 -23 461 1656 0
-13 288 235 1657 0
385 -77 444 1658 0
262 237 364 1659 0
7 -218 -330 1660 0
-356 -182 -69 1661 0
-81 273 296 1662 0
442 -401 341 1663 0
259 -254 -293 1664 0
-369 498 -309 1665 0
496 -382 468 1666 0
-225 -489 133 1667 0
-297 445 293 1668 0
-62 405 -191 1669 0
63 -88 -284 1670 0
-286 -410 -389 1671 0
-36 235 68 1672 0
-160 -240 490 1673 0
-215 -188 213 1674 0
-400 77 396 1675 0
-348 2 344 1676 0
409 -286 -494 1677 0
-207 -171 -316 1678 0
299 128 391 1679 0
99 -488 -253 1680 0
-18 175 392 1681 0
10 -363 -176 1682 0
99 -235 368 1683 0
-169 -138 78 1684 0
355 -458 -327 1685 0
-424 -251 -253 1686 0
365 361 -488 1687 0
-120 11 70 1688 0
484 -144 74 1689 0
122 -422 478 1690 0
-438 342 277 1691 0
491 -448 358 1692 0
-296 -139 98 1693 0
120 -409 -352 1694 0
427 77 21 1695 0
29 -475 -70 1696 0
-228 343 114 1697 0
-148 274 -51 1698 0
57 24 -39 1699 0
398 476 170 1700 0
-212 289 -361 1701 0
152 252 -336 1702 0
347 -444 -180 1703 0
-190 -187 15 1704 0
351 105 -163 1705 0
-83 463 24 1706 0
-363 366 -407 1707 0
-340 -139 -170 1708 0
362 -111 -67 1709 0
-349 -152 416 1710 0
408 -217 400 1711 0
-430 -144 100 1712 0
-335 495 -288 1713 0
230 138 -471 1714 0
-38 230 -203 1715 0
-245 -411 395 1716 0
-433 -423 -333 1717 0
267 -404 -176 1718 0
-466 -500 152 1719 0
298 -186 -107 1720 0
-404 -399 155 1721 0
110 51 -463 1722 0
-53 355 15 1723 0
432 266 427 1724 0
-161 -336 -373 1725 0
250 145 -499 1726 0
-71 451 -156 1727 0
399 -272 -56 1728 0
285 167 -295 1729 0
197 70 -259 1730 0
132 449 -175 1731 0
406 344 147 1732 0
-19 -260 124 1733 0
-398 190 462 1734 0
39 -62 -387 1735 0
322 122 74 1736 0
-354 -74 79 1737 0
421 326 -24 1738 0
109 183 323 1739 0
-219 -66 40 1740 0
-342 427 182 1741 0
155 -341 307 1742 0
49 188 435 1743 0
194 -143 -286 1744 0
-416 356 -479 1745 0
219 106 -86 1746 0
-404 -111 -438 1747 0
17 -434 414 1748 0
209 -412 130 1749 0
-448 -191 -435 1750 0
-162 -170 234 1751 0
26 326 348 1752 0
146 -403 499 1753 0
84 -344 134 1754 0
291 -16 -417 1755 0
-219 318 437 1756 0
-465 316 -383 1757 0
190 326 -347 1758 0
-292 -290 -346 1759 0
366 274 -245 1760 0
-73 330 373 1761 0
-473 -308 -296 1762 0
345 -392 398 1763 0
276 -178 379 1764 0
-362 -347 275 1765 0
-201 279 409 1766 0
465 -96 -405 1767 0
449 408 498 1768 0
-181 -431 447 1769 0
-390 214 490 1770 0
442 -175 28 1771 0
-201 93 262 1772 0
-158 107 -90 1773 0
238 499 109 1774 0
293 209 -320 1775 0
-69 -442 104 1776 0
-316 90 -162 1777 0
107 87 240 1778 0
54 301 456 1779 0
-269 389 -87 1780 0
383 -489 -453 1781 0
-52 8 -262 1782 0
484 329 144 1783 0
-90 135 -116 1784 0
145 -386 213 1785 0
-8 -300 237 1786 0
388 70 208 1787 0
402 107 -225 1788 0
491 422 326 1789 0
219 -23 311 1790 0
-134 467 -82 1791 0
352 210 -359 1792 0
-195 -281 474 1793 0
226 -309 375 1794 0
459 398 -110 1795 0
336 124 -30 1796 0
483 94 343 1797 0
-419 -241 -408 1798 0
-263 491 10 1799 0
-5 237 -90 1800 0
-169 88 424 1801 0
-447 -170 -453 1802 0
191 -401 269 1803 0
309 500 437 1804 0
-236 209 -252 1805 0
209 -274 47 1806 0
55 441 -65 1807 0
470 -57 -388 1808 0
19 -2 478 1809 0
4 -480 -195 1810 0
95 434 127 1811 0
168 -363 312 1812 0
461 -61 118 1813 0
25 -190 -385 1814 0
-201 18 -233 1815 0
406 21 162 1816 0
399 -381 279 1817 0
-382 374 222 1818 0
-415 -173 -3 1819 0
65 71 438 1820 0
-103 218 -76 1821 0
-296 -359 38 1822 0
37 -61 -253 1823 0
242 96 121 1824 0
179 363 -34 1825 0
-70 -184 447 1826 0
-93 -432 51 1827 0
-11 -205 375 1828 0
23 14 162 1829 0
214 -324 206 1830 0
23 96 -173 1831 0
369 166 -42 1832 0
-106 163 -420 1833 0
-329 -39 397 1834 0
444 -152 443 1835 0
194 303 152 1836 0
-310 373 -210 1837 0
286 325 4 1838 0
77 -347 328 1839 0
-101 -220 492 1840 0
-8 -225 -223 1841 0
441 -125 -490 1842 0
-175 486 -470 1843 0
-99 -488 -295 1844 0
478 152 418 1845 0
-194 154 -18 1846 0
-129 375 38 1847 0
-358 -318 -145 1848 0
-431 -379 96 1849 0
-169 -280 -334 1850 0
259 339 -250 1851 0
333 398 -159 1852 0
335 385 -429 1853 0
-43 -227 -34 1854 0
-156 -320 80 1855 0
286 -153 -341 1856 0
91 477 184 1857 0
312 475 -376 1858 0
-240 -125 -401 1859 0
199 -69 115 1860 0
339 466 451 1861 0
313 -461 -256 1862 0
-104 -168 -264 1863 0
464 410 -12 1864 0
455 58 -427 1865 0
-451 -72 -236 1866 0
266 442 -491 1867 0
-161 415 220 1868 0
-248 257 -215 1869 0
332 287 -268 1870 0
-210 452 -173 1871 0
-373 469 490 1872 0
284 367 332 1873 0
-418 -430 406 1874 0
463 478 -229 1875 0
-492 228 -448 1876 0
-180 327 -368 1877 0
286 340 245 1878 0
25 -77 53 1879 0
-171 422 -115 1880 0
422 225 284 1881 0
345 398 184 1882 0
-309 -424 291 1883 0
-71 -190 -323 1884 0
166 157 261 1885 0
325 -492 -484 1886 0
-438 -340 -111 1887 0
216 201 -462 1888 0
158 167 221 1889 0
92 -172 -298 1890 0
-275 109 -281 1891 0
-10 364 463 1892 0
236 -149 230 1893 0
164 367 -419 1894 0
489 -487 19 1895 0
-238 447 2 1896 0
-483 -423 -154 1897 0
251 466 187 1898 0
-405 -457 451 1899 0
21 -446 -468 1900 0
-60 32 -425 1901 0
-338 -346 -488 1902 0
-11 63 79 1903 0
399 -210 122 1904 0
253 458 -59 1905 0
-232 -195 -233 1906 0
407 229 -228 1907 0
49 -495 -318 1908 0
-177 429 -457 1909 0
195 87 -321 1910 0
367 -107 116 1911 0
-32 -473 154 1912 0
-414 -363 250 1913 0
-386 3 -265 1914 0
489 -335 -38 1915 0
342 -240 348 1916 0
336 420 -146 1917 0
-27 -212 -326 1918 0
225 146 -158 1919 0
-106 5 -207 1920 0
-158 112 -40 1921 0
326 -97 430 1922 0
-421 -299 381 1923 0
-65 154 -481 1924 0
-169 11 -396 1925 0
79 -272 129 1926 0
133 -470 -48 1927 0
110 -260 498 1928 0
-154 -402 -292 1929 0
-216 -28 -259 1930 0
-462 -121 346 1931 0
-32 -458 -22 1932 0
-5 269 -445 1933 0
481 -397 -127 1934 0
351 147 -314 1935 0
75 43 164 1936 0
-126 165 -307 1937 0
158 296 288 1938 0
185 56 -197 1939 0
494 402 319 1940 0
-340 158 50 1941 0
-318 420 416 1942 0
336 233 360 1943 0
-205 -495 -391 1944 0
-291 -392 434 1945 0
-135 -472 -240 1946 0
-247 175 -439 1947 0
170 -353 -229 1948 0
467 15 -181 1949 0
-28 -305 323 1950 0
62 -111 332 1951 0
-75 -221 47 1952 0
491 -172 198 1953 0
150 -412 -382 1954 0
-229 -58 447 1955 0
74 444 -45 1956 0
-50 -173 65 1957 0
250 417 166 1958 0
334 -447 130 1959 0
-136 165 472 1960 0
-156 122 -434 1961 0
-433 -147 -13 1962 0
-185 -465 -190 1963 0
-489 -32 466 1964 0
122 -316 475 1965 0
448 91 20 1966 0
198 79 248 1967 0
321 448 -99 1968 0
-265 -314 -361 1969 0
114 -41 26 1970 0
-20 -69 289 1971 0
386 -9 -18 1972 0
75 336 -281 1973 0
472 459 157 1974 0
342 271 -136 1975 0
13 -223 -484 1976 0
451 351 -460 1977 0
-248 -141 -227 1978 0
-48 164 -45 1979 0
447 411 102 1980 0
-303 -271 -1 1981 0
384 167 112 1982 0
-325 395 -436 1983 0
-495 -462 340 1984 0
318 476 450 1985 0
-17 -249 -258 1986 0
-3 -310 261 1987 0
236 -451 257 1988 0
-64 249 -373 1989 0
223 428 327 1990 0
-63 465 -471 1991 0
-208 176 -449 1992 0
169 -407 246 1993 0
-27 229 -443 1994 0
44 420 15 1995 0
298 -477 -419 1996 0
409 11 -237 1997 0
18 -313 356 1998 0
-390 -96 343 1999 0
-329 -164 258 2000 0
462 -162 -328 2001 0
191 64 -48 2002 0
-40 -177 135 2003 0
311 359 -402 2004 0
-43 -336 234 2005 0
-390 -365 114 2006 0
152 -478 260 2007 0
366 29 -435 2008 0
386 113 -23 2009 0
288 446 167 2010 0
-127 -165 274 2011 0
48 105 -81 2012 0
-279 -337 256 2013 0
-15 -332 -434 2014 0
276 2 -190 2015 0
-31 -250 235 2016 0
498 -63 323 2017 0
86 -301 131 2018 0
-485 466 -264 2019 0
250 -195 478 2020 0
-192 112 -250 2021 0
-477 285 27 2022 0
-305 463 481 2023 0
-199 -3 485 2024 0
-183 440 460 2025 0
-173 177 -120 2026 0
499 46 -106 2027 0
77 -460 -373 2028 0
-197 -177 195 2029 0
287 424 230 2030 0
219 143 -242 2031 0
286 -465 386 2032 0
29 -150 -454 2033 0
452 -179 -226 2034 0
326 -272 -467 2035 0
-100 445 50 2036 0
40 394 -28 2037 0
-453 428 463 2038 0
-246 264 358 2039 0
-222 357 -429 2040 0
-353 350 -181 2041 0
185 -290 -358 2042 0
-52 91 -64 2043 0
-346 -278 -348 2044 0
65 421 289 2045 0
273 219 -408 2046 0
270 483 -152 2047 0
259 46 89 2048 0
313 -414 161 2049 0
376 -208 -317 2050 0
73 234 453 2051 0
-8 225 -362 2052 0
496 149 -261 2053 0
350 -321 -455 2054 0
380 -371 -309 2055 0
20 -45 497 2056 0
-463 -303 205 2057 0
4 -123 -299 2058 0
9 -310 81 2059 0
482 -126 37 2060 0
-414 379 176 2061 0
189 179 -37 2062 0
-172 146 -171 2063 0
-61 90 -413 2064 0
-49 470 16 2065 0
-267 -82 235 2066 0
-496 443 -242 2067 0
252 -245 170 2068 0
-472 126 -156 2069 0
280 168 288 2070 0
452 150 -95 2071 0
-197 -315 213 2072 0
276 158 356 2073 0
159 183 -138 2074 0
-289 -484 -162 2075 0
-236 -285 297 2076 0
-194 -397 -55 2077 0
-298 356 307 2078 0
-437 -132 234 2079 0
322 278 -342 2080 0
60 362 -3 2081 0
-258 489 170 2082 0
117 268 -267 2083 0
230 10 335 2084 0
86 348 486 2085 0
14 -407 -462 2086 0
497 286 -295 2087 0
-441 335 448 2088 0
489 241 -412 2089 0
-220 319 -160 2090 0
33 -194 -404 2091 0
46 -307 -195 2092 0
-369 112 -478 2093 0
-189 385 -181 2094 0
391 -411 389 2095 0
477 140 -169 2096 0
-424 299 380 2097 0
-346 -9 -206 2098 0
-302 -396 -254 2099 0
-453 176 -11 2100 0
310 -317 211 2101 0
14 95 -339 2102 0
-463 -131 172 2103 0
-141 325 -185 2104 0
-359 -134 -175 2105 0
221 -29 -479 2106 0
-408 -77 471 2107 0
-447 319 -116 2108 0
-288 316 -432 2109 0
-479 10 342 2110 0
400 -436 170 2111 0
457 31 -142 2112 0
130 193 412 2113 0
105 -322 -405 2114 0
-39 1 -483 2115 0
332 -244 307 2116 0
136 495 -113 2117 0
-51 499 -140 2118 0
-493 -286 358 2119 0
486 209 263 2120 0
282 147 196 2121 0
492 -401 -337 2122 0
189 314 94 2123 0
266 -315 91 2124 0
424 370 271 2125 0
465 -350 440 2126 0
55 405 -8 2127 0
-160 -350 313 2128 0
-117 244 -217 2129 0
-445 -150 -461 2130 0
-426 335 137 2131 0
-152 -3 475 2132 0
313 51 -335 2133 0
82 -175 -317 2134 0
477 -304 -318 2135 0
249 -124 -488 2136 0
11 482 -27 2137 0
8 343 -264 2138 0
-202 130 192 2139 0
-376 -1 6 2140 0
-413 -21 46 2141 0
422 323 -258 2142 0
356 -354 150 2143 0
-376 442 -189 2144 0
20 -489 -123 2145 0
-345 125 290 2146 0
44 -91 -84 2147 0
-99 -97 325 2148 0
387 -486 -229 2149 0
151 -166 -286 2150 0
-89 -236 297 2151 0
219 316 192 2152 0
417 283 475 2153 0
-214 92 416 2154 0
17 398 446 2155 0
-286 -332 -226 2156 0
-333 446 7 2157 0
-424 -368 -220 2158 0
421 -14 345 2159 0
413 343 -185 2160 0
185 -294 181 2161 0
-121 44 -264 2162 0
315 49 38 2163 0
156 429 357 2164 0
479 22 48 2165 0
69 316 370 2166 0
406 434 1 2167 0
347 -281 -248 2168 0
437 12 -424 2169 0
-449 339 393 2170 0
341 290 289 2171 0
341 97 344 2172 0
142 171 317 2173 0
257 332 -122 2174 0
-430 -165 398 2175 0
184 29 271 2176 0
401 47 -387 2177 0
193 236 407 2178 0
50 -385 -351 2179 0
192 -318 475 2180 0
330 -72 431 2181 0
143 91 -152 2182 0
-81 423 300 2183 0
489 -424 238 2184 0
185 -19 -140 2185 0
-183 -155 188 2186 0
-13 -290 159 2187 0
447 -156 201 2188 0
-230 -436 23 2189 0
-476 -92 13 2190 0
-354 135 -475 2191 0
142 164 -248 2192 0
349 453 372 2193 0
320 486 270 2194 0
153 371 -117 2195 0
92 119 383 2196 0
-179 197 368 2197 0
54 -193 -437 2198 0
436 172 -462 2199 0
142 339 136 2200 0
5 312 358 2201 0
238 -112 141 2202 0
-197 -446 329 2203 0
12 485 73 2204 0
-335 429 -344 2205 0
164 463 -168 2206 0
4 478 -3 2207 0
255 295 351 2208 0
-318 -168 -36 2209 0
-351 -188 -12 2210 0
246 12 -216 2211 0
482 105 78 2212 0
22 -11 -488 2213 0
-278 -210 437 2214 0
184 246 367 2215 0
397 -241 -245 2216 0
-144 -138 188 2217 0
334 374 -463 2218 0
367 -223 -93 2219 0
114 -222 107 2220 0
286 -457 346 2221 0
-256 261 70 2222 0
141 198 41 2223 0
-8 -125 -61 2224 0
44 -449 251 2225 0
138 178 -278 2226 0
204 -311 -44 2227 0
-239 -87 234 2228 0
307 71 -362 2229 0
439 6 -427 2230 0
267 6 -285 2231 0
43 311 246 2232 0
445 161 -171 2233 0
227 -396 -54 2234 0
-367 239 -197 2235 0
139 417 -106 2236 0
309 -247 -352 2237 0
54 -330 -87 2238 0
454 177 -209 2239 0
499 203 134 2240 0
-198 56 381 2241 0
111 -363 4 2242 0
279 -451 -21 2243 0
-362 -14 182 2244 0
-174 211 -97 2245 0
277 366 124 2246 0
-320 268 -203 2247 0
340 458 -412 2248 0
-108 202 61 2249 0
400 -85 -333 2250 0
445 -490 462 2251 0
363 -385 25 2252 0
-330 -349 -265 2253 0
369 129 31 2254 0
-327 472 -194 2255 0
-42 229 -57 2256 0
-466 4 -142 2257 0
474 -168 -24 2258 0
-467 359 349 2259 0
-180 -187 -466 2260 0
72 52 -384 2261 0
263 138 -130 2262 0
-358 134 -70 2263 0
314 294 95 2264 0
-408 97 -353 2265 0
-462 285 339 2266 0
159 -311 -75 2267 0
-11 481 -26 2268 0
99 393 273 2269 0
119 408 -165 2270 0
-142 64 -440 2271 0
-125 -424 -343 2272 0
-40 -122 -468 2273 0
88 -173 -439 2274 0
432 253 162 2275 0
-204 332 107 2276 0
122 246 -129 2277 0
112 -471 74 2278 0
243 -393 226 2279 0
109 27 470 2280 0
-61 -272 162 2281 0
134 165 -186 2282 0
56 339 298 2283 0
360 183 -8 2284 0
-499 -116 421 2285 0
-93 331 -328 2286 0
-119 381 -106 2287 0
477 -249 -370 2288 0
-287 -236 218 2289 0
374 -500 99 2290 0
-41 -81 489 2291 0
-100 -3 13 2292 0
-160 -178 107 2293 0
-42 230 92 2294 0
-117 -43 138 2295 0
-279 -126 96 2296 0
21 382 -408 2297 0
-311 196 40 2298 0
415 71 365 2299 0
-123 -323 -41 2300 0
-52 -232 190 2301 0
256 439 -267 2302 0
319 334 -177 2303 0
314 -302 39 2304 0
-343 260 -318 2305 0
209 404 184 2306 0
255 -277 334 2307 0
395 211 206 2308 0
-120 -146 354 2309 0
208 -160 -109 2310 0
406 482 122 2311 0
-100 158 -102 2312 0
-70 -318 37 2313 0
66 -122 8 2314 0
-347 -303 65 2315 0
-95 -434 69 2316 0
50 491 -52 2317 0
-66 153 286 2318 0
-11 38 92 2319 0
-100 -328 -205 2320 0
-422 -340 -407 2321 0
249 240 -308 2322 0
69 -439 -192 2323 0
-170 111 322 2324 0
450 -429 170 2325 0
-113 261 178 2326 0
20 457 129 2327 0
-409 -106 50 2328 0
101 -158 -415 2329 0
11 -382 -484 2330 0
485 329 -330 2331 0
413 -389 -49 2332 0
-378 -49 -261 2333 0
-146 381 -442 2334 0
344 196 -138 2335 0
-39 360 3 2336 0
-112 27 -481 2337 0
89 117 213 2338 0
-127 -226 254 2339 0
-318 -234 -362 2340 0
200 -236 189 2341 0
-290 228 -25 2342 0
298 383 -429 2343 0
-211 -121 -406 2344 0
166 33 -462 2345 0
-108 -3 363 2346 0
310 149 -297 2347 0
96 452 -231 2348 0
438 -248 -411 2349 0
-298 -128 -1 2350 0
-403 -70 285 2351 0
107 -135 -237 2352 0
324 263 -19 2353 0
154 72 416 2354 0
9 460 186 2355 0
-239 -352 -408 2356 0
470 -500 421 2357 0
-335 42 -54 2358 0
92 106 -202 2359 0
365 416 46 2360 0
224 31 358 2361 0
-286 335 170 2362 0
63 71 268 2363 0
18 98 248 2364 0
-424 261 399 2365 0
254 82 -190 2366 0
-271 286 118 2367 0
317 -481 193 2368 0
-302 457 143 2369 0
231 384 424 2370 0
421 476 -389 2371 0
281 124 -422 2372 0
55 -241 -477 2373 0
254 -275 260 2374 0
-434 -63 436 2375 0
-298 269 463 2376 0
-428 325 209 2377 0
286 186 20 2378 0
-497 -441 430 2379 0
273 -386 -481 2380 0
227 405 343 2381 0
88 -349 274 2382 0
337 113 -62 2383 0
-261 385 382 2384 0
-477 53 -66 2385 0
-374 -202 85 2386 0
-480 -166 -215 2387 0
348 -492 -221 2388 0
-49 -201 -454 2389 0
169 -458 -392 2390 0
-373 253 297 2391 0
367 410 -165 2392 0
-70 438 401 2393 0
-91 -330 -257 2394 0
423 -392 333 2395 0
237 386 -408 2396 0
486 33 -89 2397 0
-113 230 -434 2398 0
-235 467 -355 2399 0
246 -295 -404 2400 0
389 -116 427 2401 0
90 -333 -31 2402 0
-199 378 -30 2403 0
323 -201 41 2404 0
-113 -240 -339 2405 0
41 494 181 2406 0
-480 -162 320 2407 0
366 5 -244 2408 0
-208 -10 -220 2409 0
-134 301 267 2410 0
-473 217 -307 2411 0
-396 -166 261 2412 0
-431 136 134 2413 0
196 25 35 2414 0
-20 -471 -126 2415 0
351 100 -413 2416 0
-262 -99 360 2417 0
-94 418 294 2418 0
9 111 -174 2419 0
-59 -337 -415 2420 0
161 -24 304 2421 0
-57 427 -13 2422 0
232 154 -443 2423 0
189 127 400 2424 0
-222 53 -106 2425 0
-358 209 280 2426 0
266 -497 -407 2427 0
272 294 -85 2428 0
-411 409 111 2429 0
-375 344 -145 2430 0
461 -423 -183 2431 0
469 63 122 2432 0
-251 -441 494 2433 0
438 303 152 2434 0
-302 455 335 2435 0
-430 43 -215 2436 0
-99 -403 229 2437 0
-219 -319 457 2438 0
-227 -375 -181 2439 0
371 -138 120 2440 0
-52 229 -166 2441 0
-319 -219 196 2442 0
-180 -237 274 2443 0
233 -83 -45 2444 0
-135 460 -165 2445 0
-74 -295 -478 2446 0
159 -359 126 2447 0
44 336 -124 2448 0
-147 -297 -320 2449 0
-376 85 -12 2450 0
400 92 -281 2451 0
-390 311 145 2452 0
-189 -479 -177 2453 0
278 -5 331 2454 0
-136 153 124 2455 0
-89 443 -47 2456 0
-460 103 -441 2457 0
262 237 -115 2458 0
259 396 -355 2459 0
-375 440 133 2460 0
-362 -134 -389 2461 0
-20 474 -461 2462 0
388 -486 -459 2463 0
-427 -287 -485 2464 0
-248 339 353 2465 0
-236 489 86 2466 0
366 -269 89 2467 0
87 -167 -450 2468 0
435 357 -152 2469 0
131 94 311 2470 0
355 290 -130 2471 0
203 268 130 2472 0
-363 -271 -278 2473 0
317 429 18 2474 0
-180 199 -194 2475 0
-255 329 424 2476 0
234 -71 465 2477 0
331 -258 324 2478 0
216 4 199 2479 0
-345 496 -123 2480 0
-30 321 54 2481 0
85 -466 154 2482 0
396 481 -391 2483 0
220 74 -85 2484 0
-186 -14 -119 2485 0
152 -398 371 2486 0
341 -493 81 2487 0
332 231 500 2488 0
495 432 333 2489 0
-373 65 -457 2490 0
315 -282 188 2491 0
-273 -315 -263 2492 0
444 69 -59 2493 0
-355 -207 169 2494 0
-138 46 -310 2495 0
-381 336 410 2496 0
-134 189 426 2497 0
305 -214 -495 2498 0
-262 33 386 2499 0
-95 -61 -236 2500 0
45 431 -57 2501 0
187 -185 -48 2502 0
158 -142 306 2503 0
152 266 -77 2504 0
-126 369 -116 2505 0
186 -259 213 2506 0
356 19 -154 2507 0
-61 -409 -380 2508 0
413 83 -116 2509 0
167 -425 -319 2510 0
20 -384 93 2511 0
-209 323 -177 2512 0
224 -288 197 2513 0
308 -361 122 2514 0
-17 411 407 2515 0
-169 286 239 2516 0
-362 165 164 2517 0
-263 349 -138 2518 0
324 -272 -491 2519 0
-33 454 472 2520 0
362 -347 84 2521 0
-415 -220 -274 2522 0
-229 152 -110 2523 0
302 -334 246 2524 0
191 -297 300 2525 0
-49 456 -254 2526 0
-467 88 -499 2527 0
-294 375 126 2528 0
-255 -471 401 2529 0
-443 -228 34 2530 0
261 179 -329 2531 0
-295 -78 -420 2532 0
480 356 145 2533 0
199 -377 359 2534 0
-380 -310 -439 2535 0
-14 -333 -444 2536 0
-267 77 168 2537 0
-313 -429 462 2538 0
43 -375 185 2539 0
-123 284 -392 2540 0
233 -222 128 2541 0
-349 455 16 2542 0
240 -459 -213 2543 0
-422 125 -149 2544 0
-283 120 -403 2545 0
-341 453 -191 2546 0
-352 -290 497 2547 0
-288 -231 -291 2548 0
314 -308 -176 2549 0
4 -183 259 2550 0
-424 356 -440 2551 0
87 -457 303 2552 0
118 -357 -50 2553 0
-211 28 -185 2554 0
-313 492 101 2555 0
123 -211 218 2556 0
-281 215 22 2557 0
-400 -479 -228 2558 0
-209 464 63 2559 0
337 291 48 2560 0
-21 457 -215 2561 0
243 -144 309 2562 0
-374 65 -258 2563 0
109 154 -361 2564 0
383 204 -305 2565 0
110 -221 -173 2566 0
443 -409 104 2567 0
-266 406 218 2568 0
-285 -257 311 2569 0
-234 -261 -434 2570 0
302 464 -450 2571 0
305 -223 380 2572 0
-379 -225 16 2573 0
416 434 -88 2574 0
422 -16 103 2575 0
194 -49 421 2576 0
229 -454 -411 2577 0
-55 417 -499 2578 0
-9 -407 18 2579 0
-428 -65 -350 2580 0
182 -136 405 2581 0
-208 416 318 2582 0
-402 160 255 2583 0
91 -184 35 2584 0
-47 431 -429 2585 0
-217 -221 183 2586 0
109 131 -235 2587 0
-248 448 -282 2588 0
117 -21 118 2589 0
279 409 -90 2590 0
-448 -85 -429 2591 0
-78 -448 -359 2592 0
446 128 50 2593 0
-391 -493 356 2594 0
-200 32 -293 2595 0
-37 -218 305 2596 0
93 -426 18 2597 0
363 -418 372 2598 0
461 345 34 2599 0
-394 454 -345 2600 0
399 37 -464 2601 0
-266 -6 -193 2602 0
476 -428 464 2603 0
-334 -119 473 2604 0
-284 -48 336 2605 0
-488 -296 -13 2606 0
-57 -475 67 2607 0
-338 476 276 2608 0
470 73 217 2609 0
160 -72 259 2610 0
-149 431 -45 2611 0
313 236 -421 2612 0
282 -236 -88 2613 0
368 -355 -467 2614 0
-500 -98 163 2615 0
-284 36 -469 2616 0
-468 -6 457 2617 0
-59 318 307 2618 0
414 157 -400 2619 0
356 446 -299 2620 0
99 -351 79 2621 0
265 -374 258 2622 0
-351 -414 394 2623 0
-244 161 155 2624 0
283 -492 123 2625 0
448 109 -48 2626 0
455 260 -192 2627 0
-120 179 -34 2628 0
92 -116 387 2629 0
-342 467 -50 2630 0
147 -394 445 2631 0
23 -130 -1 2632 0
292 -437 -110 2633 0
-24 -496 -432 2634 0
174 -392 54 2635 0
-318 346 285 2636 0
-386 182 -257 2637 0
-404 -500 195 2638 0
471 -495 -465 2639 0
480 296 -438 2640 0
-194 261 277 2641 0
-142 240 55 2642 0
-318 450 484 2643 0
327 94 -179 2644 0
477 -52 346 2645 0
354 -365 281 2646 0
149 123 -70 2647 0
-69 130 -390 2648 0
91 258 -50 2649 0
-248 295 -398 2650 0
