p cnf 2650 2150
27 -12 -81 501 0
-21 30 -468 502 0
45 120 285 503 0
207 211 444 504 0
-146 446 -152 505 0
-262 -470 -227 506 0
190 -456 185 507 0
361 -303 497 508 0
-432 298 376 509 0
-489 495 330 510 0
-219 -230 339 511 0
91 90 269 512 0
-481 -204 185 513 0
390 59 -122 514 0
57 101 -67 515 0
-335 -486 369 516 0
497 111 303 517 0
486 353 93 518 0
3 490 -74 519 0
418 -199 -477 520 0
369 215 83 521 0
-452 -244 81 522 0
-380 -350 -412 523 0
30 53 356 524 0
44 -4 -112 525 0
45 103 -381 526 0
489 -115 -361 527 0
-318 -362 419 528 0
469 -52 410 529 0
-441 192 -54 530 0
245 -422 -198 531 0
77 270 -245 532 0
402 -425 274 533 0
-373 -428 462 534 0
180 -345 273 535 0
343 441 -51 536 0
-165 383 -91 537 0
271 319 284 538 0
201 157 -297 539 0
383 -326 14 540 0
271 -85 240 541 0
-459 178 -384 542 0
-412 5 -423 543 0
187 -70 117 544 0
409 -226 -34 545 0
-303 141 340 546 0
129 -242 50 547 0
-492 -35 314 548 0
-272 -203 400 549 0
363 397 -249 550 0
-154 162 -218 551 0
188 -282 458 552 0
125 -462 -283 553 0
-307 299 227 554 0
-380 -374 -61 555 0
-19 -322 38 556 0
-442 400 477 557 0
-270 303 427 558 0
-370 288 366 559 0
29 -139 356 560 0
120 48 -137 561 0
102 361 -115 562 0
246 -285 -73 563 0
-71 222 -9 564 0
-470 383 135 565 0
-21 -395 495 566 0
159 222 -264 567 0
278 139 469 568 0
-167 46 -343 569 0
-293 -121 -314 570 0
389 125 -386 571 0
72 -497 -233 572 0
68 1 -295 573 0
-104 -364 -423 574 0
-231 -283 -85 575 0
256 475 187 576 0
211 79 422 577 0
31 298 352 578 0
-420 -356 302 579 0
71 499 -471 580 0
-86 428 165 581 0
-250 -208 -80 582 0
-362 63 -452 583 0
-401 449 240 584 0
210 -461 91 585 0
-108 99 127 586 0
-62 294 441 587 0
-45 274 247 588 0
202 -4 498 589 0
-83 22 -373 590 0
48 -340 -466 591 0
126 280 -431 592 0
256 398 -101 593 0
493 324 422 594 0
191 21 209 595 0
-112 -101 132 596 0
-149 -379 -24 597 0
356 -231 444 598 0
-255 -106 -128 599 0
-228 126 97 600 0
241 -162 -455 601 0
61 -209 322 602 0
322 143 116 603 0
-405 -275 370 604 0
-29 236 302 605 0
50 380 -47 606 0
-388 410 473 607 0
-218 360 286 608 0
-466 453 431 609 0
249 297 442 610 0
-468 466 380 611 0
-142 -121 82 612 0
290 182 457 613 0
-342 -34 -448 614 0
-464 395 -241 615 0
-311 115 -344 616 0
-251 240 -152 617 0
460 -306 429 618 0
56 -77 112 619 0
-117 -42 -434 620 0
-30 -67 153 621 0
-183 346 285 622 0
-325 354 455 623 0
105 314 493 624 0
285 -253 55 625 0
32 96 -479 626 0
57 -46 -138 627 0
363 -435 -55 628 0
-231 -195 229 629 0
390 455 -226 630 0
336 -179 -432 631 0
197 -10 -5 632 0
-295 60 -66 633 0
127 -46 139 634 0
346 -338 396 635 0
420 325 386 636 0
68 172 106 637 0
22 -369 -460 638 0
308 -358 -188 639 0
482 451 -214 640 0
382 -357 -409 641 0
163 -117 99 642 0
-413 -284 353 643 0
161 -374 129 644 0
402 -197 -216 645 0
-366 -39 334 646 0
388 -186 -98 647 0
-329 9 167 648 0
431 452 -207 649 0
-13 482 -415 650 0
-433 -100 -76 651 0
-349 -186 -176 652 0
-485 -325 239 653 0
-498 235 85 654 0
167 253 -263 655 0
-5 172 -254 656 0
92 -126 -88 657 0
-402 241 -480 658 0
-371 71 -326 659 0
-255 -331 -148 660 0
-381 -54 -491 661 0
286 -16 29 662 0
331 192 -98 663 0
275 -114 74 664 0
-13 -391 -453 665 0
448 -65 488 666 0
-369 -431 -216 667 0
-385 129 420 668 0
118 -233 210 669 0
264 341 252 670 0
-455 -85 40 671 0
-434 -148 336 672 0
-390 -449 -339 673 0
371 -136 -403 674 0
138 -52 -366 675 0
-365 40 446 676 0
488 -74 -78 677 0
-397 -5 480 678 0
50 -252 -110 679 0
279 467 -87 680 0
-475 288 320 681 0
-440 -69 -121 682 0
286 324 146 683 0
-212 -218 93 684 0
-34 389 -7 685 0
-13 -385 120 686 0
404 -272 -434 687 0
-222 -289 487 688 0
-467 -281 -144 689 0
-72 8 377 690 0
341 -191 230 691 0
321 -111 -480 692 0
-167 3 -291 693 0
236 -409 -451 694 0
382 180 247 695 0
109 232 67 696 0
-116 241 427 697 0
304 67 -45 698 0
-368 -233 338 699 0
-459 86 48 700 0
403 -434 -241 701 0
-36 407 -357 702 0
-90 101 -28 703 0
361 -314 252 704 0
371 427 -340 705 0
-349 463 -464 706 0
-16 283 115 707 0
-300 355 -338 708 0
15 -284 152 709 0
-56 -229 395 710 0
-204 -166 47 711 0
324 345 -452 712 0
195 -298 -437 713 0
-41 -94 -17 714 0
80 -153 -421 715 0
-156 -441 -238 716 0
354 -207 -276 717 0
-456 121 426 718 0
320 -482 -88 719 0
14 60 -407 720 0
447 260 13 721 0
42 436 -379 722 0
25 479 -433 723 0
111 117 -474 724 0
388 162 53 725 0
-59 264 -404 726 0
442 34 78 727 0
-262 -431 450 728 0
386 84 32 729 0
18 -222 -223 730 0
-171 -163 488 731 0
-86 -323 313 732 0
490 -463 401 733 0
-285 -43 86 734 0
-25 220 47 735 0
75 -15 270 736 0
-249 -372 56 737 0
-112 16 488 738 0
423 -283 405 739 0
-437 -236 -469 740 0
-380 409 -252 741 0
-150 -486 -403 742 0
469 82 112 743 0
77 -460 -264 744 0
348 -83 262 745 0
326 139 -291 746 0
-17 -213 78 747 0
-493 -77 -118 748 0
57 102 -99 749 0
438 -155 -28 750 0
352 -433 -248 751 0
-382 44 -243 752 0
-300 -491 350 753 0
289 -286 -451 754 0
393 362 191 755 0
114 -335 226 756 0
-59 96 365 757 0
372 152 -183 758 0
191 4 -299 759 0
-480 245 -394 760 0
-378 295 -315 761 0
-119 441 398 762 0
-336 66 323 763 0
5 -401 336 764 0
-384 -361 447 765 0
294 397 428 766 0
-118 153 -447 767 0
219 496 128 768 0
106 -373 460 769 0
-92 -161 37 770 0
43 398 -178 771 0
9 206 192 772 0
-113 -78 -198 773 0
330 198 -474 774 0
-227 99 -436 775 0
-149 306 -374 776 0
38 73 -370 777 0
7 154 34 778 0
-316 398 -440 779 0
-177 -142 204 780 0
67 -333 479 781 0
-347 -305 -451 782 0
-494 -208 -289 783 0
-386 186 -19 784 0
-300 -153 -258 785 0
35 -146 415 786 0
166 361 136 787 0
-429 360 -161 788 0
159 464 -97 789 0
329 99 -424 790 0
120 -416 397 791 0
438 435 2 792 0
-11 252 32 793 0
122 -365 -240 794 0
-65 -374 -296 795 0
-261 336 -396 796 0
-383 -114 339 797 0
-99 -441 -268 798 0
490 436 303 799 0
201 -5 256 800 0
196 -101 210 801 0
-129 -382 71 802 0
-143 335 465 803 0
228 -338 203 804 0
-14 -412 442 805 0
-342 308 -134 806 0
-181 366 140 807 0
400 82 27 808 0
-482 449 -229 809 0
-77 -118 63 810 0
-462 432 -382 811 0
251 -107 -44 812 0
-494 116 479 813 0
-120 -240 451 814 0
-250 416 -472 815 0
458 -252 -390 816 0
337 126 265 817 0
-142 233 235 818 0
-19 -64 412 819 0
-377 361 -246 820 0
390 -290 249 821 0
153 -449 -414 822 0
272 182 212 823 0
-222 -243 192 824 0
-113 -175 198 825 0
-387 87 438 826 0
301 178 398 827 0
-433 482 26 828 0
352 289 249 829 0
399 -444 -267 830 0
480 229 -64 831 0
381 -44 244 832 0
-366 -448 -19 833 0
-224 421 -260 834 0
-182 -41 -140 835 0
185 -291 -255 836 0
-433 -366 359 837 0
173 -348 -137 838 0
-238 468 102 839 0
-393 -323 325 840 0
-170 -420 -106 841 0
252 -92 -298 842 0
-79 203 373 843 0
-489 -202 481 844 0
-21 -438 245 845 0
-67 -213 205 846 0
-114 -28 387 847 0
-403 -395 -303 848 0
235 340 72 849 0
132 88 96 850 0
498 311 -247 851 0
-143 7 -213 852 0
387 -134 -100 853 0
-433 -129 277 854 0
274 299 84 855 0
357 478 -134 856 0
-216 89 372 857 0
-100 -251 -72 858 0
290 -313 -92 859 0
14 193 356 860 0
-194 16 -103 861 0
8 158 -274 862 0
-354 -419 -347 863 0
-9 -336 -288 864 0
-342 466 -224 865 0
-409 -97 -144 866 0
8 45 166 867 0
-29 21 147 868 0
-497 -387 -156 869 0
-17 84 153 870 0
220 -462 145 871 0
-261 386 -461 872 0
41 -114 -50 873 0
-266 -143 -294 874 0
216 -14 -211 875 0
-354 240 -97 876 0
39 381 -264 877 0
-331 -286 -430 878 0
92 379 -136 879 0
105 130 -397 880 0
131 -178 8 881 0
137 -45 -354 882 0
-387 -351 228 883 0
-281 205 -284 884 0
-105 37 -187 885 0
-322 -52 -179 886 0
25 -325 1 887 0
222 -246 -146 888 0
-167 -27 -342 889 0
34 102 -286 890 0
176 484 -100 891 0
3 152 132 892 0
-97 446 -86 893 0
-267 258 -497 894 0
385 498 -226 895 0
439 358 236 896 0
-111 248 -122 897 0
372 412 263 898 0
432 93 255 899 0
-50 346 120 900 0
282 27 -92 901 0
-140 356 344 902 0
392 -15 2 903 0
-462 -90 -434 904 0
-9 -336 -417 905 0
254 67 -236 906 0
-166 338 -132 907 0
-333 191 -326 908 0
-468 161 335 909 0
252 -231 114 910 0
464 -349 -241 911 0
-178 -152 -194 912 0
256 442 -419 913 0
310 -78 398 914 0
73 -356 78 915 0
-226 -48 -7 916 0
-458 -117 -425 917 0
-373 429 52 918 0
-313 495 -108 919 0
399 -391 -120 920 0
-328 359 -422 921 0
48 160 -113 922 0
455 -99 204 923 0
390 264 137 924 0
-207 290 -364 925 0
347 65 154 926 0
-119 239 -322 927 0
321 2 -260 928 0
-376 -97 -9 929 0
402 -248 77 930 0
-420 318 61 931 0
-108 -472 -201 932 0
-244 -330 188 933 0
-238 141 -473 934 0
-440 268 500 935 0
-499 -312 51 936 0
-260 -267 230 937 0
-11 -392 -151 938 0
328 -179 -185 939 0
420 -322 -335 940 0
-314 364 -397 941 0
-364 -274 -316 942 0
107 63 220 943 0
441 -115 -452 944 0
36 -280 -3 945 0
-256 -88 120 946 0
59 116 -239 947 0
-149 416 298 948 0
395 -165 121 949 0
-140 162 264 950 0
89 -119 -61 951 0
-479 -127 -4 952 0
-378 424 80 953 0
231 226 -15 954 0
-258 -471 160 955 0
-15 459 -306 956 0
283 -378 -485 957 0
471 -357 171 958 0
69 355 320 959 0
-458 -226 290 960 0
296 395 196 961 0
250 -159 493 962 0
270 -318 272 963 0
75 -254 327 964 0
-495 284 101 965 0
-148 -96 -91 966 0
-377 -478 -110 967 0
314 -340 -12 968 0
409 -250 -365 969 0
264 20 114 970 0
216 -385 57 971 0
-87 -365 -211 972 0
69 14 -406 973 0
403 -314 218 974 0
189 234 221 975 0
270 -377 -252 976 0
481 -178 94 977 0
-466 422 -255 978 0
196 -116 324 979 0
203 237 -490 980 0
-19 68 -47 981 0
-407 8 -321 982 0
363 381 -250 983 0
494 -344 22 984 0
-306 52 -217 985 0
-281 61 -386 986 0
-215 238 -79 987 0
-343 -194 -291 988 0
439 290 1 989 0
355 336 -475 990 0
469 473 188 991 0
-219 -153 -382 992 0
130 221 343 993 0
353 -132 329 994 0
-266 -124 -301 995 0
-215 -189 -10 996 0
356 378 -411 997 0
240 112 480 998 0
-165 -257 -396 999 0
449 142 -4 1000 0
-326 402 328 1001 0
-105 76 -354 1002 0
-170 -276 60 1003 0
-499 496 280 1004 0
356 -245 -348 1005 0
430 293 473 1006 0
116 -346 336 1007 0
110 -228 102 1008 0
-287 359 214 1009 0
338 -469 427 1010 0
-184 -295 367 1011 0
198 404 -460 1012 0
158 238 178 1013 0
-36 -247 423 1014 0
-285 294 -60 1015 0
-398 -191 205 1016 0
378 251 -206 1017 0
-397 406 288 1018 0
269 -315 -275 1019 0
338 -112 10 1020 0
-461 423 -302 1021 0
-160 326 230 1022 0
475 -361 119 1023 0
-178 -64 -380 1024 0
270 -414 -265 1025 0
-7 365 90 1026 0
477 -116 499 1027 0
-387 117 -394 1028 0
300 432 339 1029 0
-21 -138 443 1030 0
-85 -50 152 1031 0
-4 -498 130 1032 0
394 -121 -235 1033 0
432 35 181 1034 0
192 399 483 1035 0
-109 -33 492 1036 0
199 -44 -450 1037 0
189 113 365 1038 0
-155 244 -302 1039 0
-212 -469 -331 1040 0
-5 -226 155 1041 0
489 -473 -165 1042 0
77 361 -138 1043 0
469 -407 -492 1044 0
-186 132 342 1045 0
-467 107 476 1046 0
-397 111 369 1047 0
-451 -328 479 1048 0
324 243 -34 1049 0
275 490 215 1050 0
-193 463 120 1051 0
286 -299 -185 1052 0
92 -316 -198 1053 0
-277 -208 -211 1054 0
26 446 316 1055 0
-279 189 -232 1056 0
-113 391 313 1057 0
-250 375 177 1058 0
-4 -141 -165 1059 0
-468 -156 266 1060 0
-92 -5 169 1061 0
-26 -45 220 1062 0
-347 369 -155 1063 0
104 -344 98 1064 0
-383 -344 277 1065 0
273 -158 -72 1066 0
-206 -266 -380 1067 0
383 186 -463 1068 0
-16 387 -281 1069 0
472 -41 -238 1070 0
438 -50 -426 1071 0
133 181 230 1072 0
-9 37 -126 1073 0
198 -354 224 1074 0
-187 -332 -389 1075 0
-92 189 -226 1076 0
-210 304 154 1077 0
264 -420 482 1078 0
190 315 282 1079 0
428 251 54 1080 0
-472 377 -468 1081 0
-46 -466 84 1082 0
379 50 405 1083 0
484 255 256 1084 0
435 319 173 1085 0
213 454 -96 1086 0
-467 106 -336 1087 0
-21 -176 328 1088 0
268 -101 -105 1089 0
415 -24 -167 1090 0
-487 455 -427 1091 0
-131 -148 -75 1092 0
479 -475 -447 1093 0
-466 448 164 1094 0
-181 268 184 1095 0
-13 416 443 1096 0
-211 -142 -407 1097 0
-71 -430 -62 1098 0
-182 -216 330 1099 0
37 439 -156 1100 0
223 -368 -143 1101 0
493 326 125 1102 0
162 -448 429 1103 0
222 -289 -380 1104 0
-336 163 -364 1105 0
98 -355 276 1106 0
443 282 -137 1107 0
-387 187 -399 1108 0
-153 317 -349 1109 0
31 -55 -99 1110 0
73 -129 -180 1111 0
-221 -31 4 1112 0
-173 -55 -17 1113 0
432 -99 -317 1114 0
-341 406 -495 1115 0
417 -444 -61 1116 0
-8 -245 -402 1117 0
-28 -101 184 1118 0
-345 -333 265 1119 0
405 -453 82 1120 0
305 -332 284 1121 0
-160 117 239 1122 0
403 -136 118 1123 0
-61 -422 -126 1124 0
221 407 351 1125 0
-356 84 99 1126 0
9 -204 -367 1127 0
-353 165 -261 1128 0
-199 249 -379 1129 0
-320 18 -125 1130 0
-107 417 51 1131 0
181 -323 452 1132 0
-80 43 -112 1133 0
183 -313 -16 1134 0
283 -8 194 1135 0
196 -162 295 1136 0
-208 -480 -371 1137 0
-277 -146 -412 1138 0
171 325 468 1139 0
-485 209 -326 1140 0
82 -372 64 1141 0
224 -407 443 1142 0
497 -191 -119 1143 0
247 -469 237 1144 0
-354 -205 69 1145 0
-166 -198 -27 1146 0
-342 -395 482 1147 0
-210 -337 456 1148 0
-415 -331 -219 1149 0
-214 424 -391 1150 0
252 -457 -12 1151 0
274 -474 27 1152 0
-384 -101 171 1153 0
264 115 -19 1154 0
196 244 430 1155 0
79 231 192 1156 0
111 446 -118 1157 0
54 440 179 1158 0
-125 285 -59 1159 0
410 -211 -360 1160 0
-368 -169 -443 1161 0
-195 194 -362 1162 0
486 165 -316 1163 0
288 -110 81 1164 0
205 421 223 1165 0
-154 40 -299 1166 0
437 78 -138 1167 0
103 333 -360 1168 0
400 485 -217 1169 0
-335 -325 326 1170 0
-8 -163 205 1171 0
227 -433 -135 1172 0
-145 144 -485 1173 0
347 201 215 1174 0
-94 313 -216 1175 0
20 -284 201 1176 0
-97 385 298 1177 0
334 -55 108 1178 0
322 -84 369 1179 0
-469 -326 -77 1180 0
-256 -126 74 1181 0
-328 479 -342 1182 0
44 183 -122 1183 0
-153 346 -263 1184 0
110 -115 238 1185 0
36 332 338 1186 0
-431 230 75 1187 0
-263 -318 435 1188 0
50 -276 464 1189 0
88 79 300 1190 0
127 437 -404 1191 0
500 -1 -220 1192 0
423 85 -481 1193 0
-190 -49 -91 1194 0
348 -486 106 1195 0
159 415 298 1196 0
-193 -442 239 1197 0
283 352 385 1198 0
-202 -176 -185 1199 0
-188 -144 -72 1200 0
351 335 -93 1201 0
316 70 -306 1202 0
-440 197 42 1203 0
-272 -50 331 1204 0
-496 -311 -367 1205 0
-307 481 -231 1206 0
-462 420 269 1207 0
-172 295 -496 1208 0
-85 -411 -446 1209 0
-418 -11 -244 1210 0
66 293 -344 1211 0
-209 451 303 1212 0
-286 280 64 1213 0
456 -219 323 1214 0
29 404 -137 1215 0
156 -297 277 1216 0
-442 328 -29 1217 0
-317 -190 -175 1218 0
-139 -75 -114 1219 0
-53 -64 139 1220 0
176 -437 54 1221 0
15 -448 446 1222 0
158 230 314 1223 0
243 -238 -159 1224 0
-113 -250 -218 1225 0
463 -153 -132 1226 0
351 -111 -205 1227 0
238 289 -208 1228 0
234 55 -258 1229 0
203 156 434 1230 0
155 491 -393 1231 0
344 242 -215 1232 0
-306 -260 -67 1233 0
436 428 -46 1234 0
185 -281 -57 1235 0
-206 191 426 1236 0
-374 -468 322 1237 0
-432 116 279 1238 0
-441 317 -40 1239 0
332 68 -290 1240 0
147 2 188 1241 0
-252 224 -186 1242 0
324 -165 -116 1243 0
140 24 256 1244 0
-355 -368 -74 1245 0
-392 -168 -304 1246 0
388 -410 -365 1247 0
-255 -149 478 1248 0
-49 -147 164 1249 0
-78 -55 -74 1250 0
-389 -112 -20 1251 0
-421 47 -273 1252 0
493 447 -111 1253 0
336 -180 61 1254 0
-448 122 -454 1255 0
-91 146 -466 1256 0
261 45 284 1257 0
88 -247 -5 1258 0
500 376 -441 1259 0
295 167 -391 1260 0
30 248 220 1261 0
-466 -447 260 1262 0
262 -247 356 1263 0
224 391 -31 1264 0
-240 284 104 1265 0
-446 113 -223 1266 0
466 -480 467 1267 0
-207 303 -437 1268 0
448 -224 -153 1269 0
-196 -48 137 1270 0
-482 101 363 1271 0
98 457 453 1272 0
-494 469 -468 1273 0
232 -327 -324 1274 0
15 475 -421 1275 0
-392 -105 434 1276 0
245 -236 -311 1277 0
310 -376 -189 1278 0
-222 -23 80 1279 0
291 322 -74 1280 0
225 411 440 1281 0
-120 -180 42 1282 0
-33 479 -430 1283 0
301 -136 -437 1284 0
342 -378 -365 1285 0
-388 -439 481 1286 0
159 -113 267 1287 0
272 -166 -95 1288 0
15 -283 306 1289 0
297 433 264 1290 0
337 -187 218 1291 0
74 24 -264 1292 0
368 -483 168 1293 0
-201 251 218 1294 0
-260 5 92 1295 0
306 -26 -153 1296 0
24 254 -261 1297 0
-183 373 119 1298 0
212 -192 164 1299 0
-79 -302 49 1300 0
-177 207 450 1301 0
-23 377 350 1302 0
-294 -138 -473 1303 0
-133 -485 26 1304 0
-386 314 248 1305 0
-313 -231 339 1306 0
46 487 -314 1307 0
61 187 456 1308 0
335 381 445 1309 0
157 -18 343 1310 0
78 -209 -122 1311 0
74 237 -269 1312 0
134 70 -457 1313 0
-281 82 483 1314 0
-191 325 -470 1315 0
427 -488 262 1316 0
9 10 -243 1317 0
194 462 448 1318 0
-412 -110 -238 1319 0
-398 99 -163 1320 0
253 -252 131 1321 0
-28 -320 -269 1322 0
-63 360 448 1323 0
-84 281 12 1324 0
-492 -100 462 1325 0
-442 432 55 1326 0
-14 -489 247 1327 0
455 -61 -464 1328 0
81 -274 -318 1329 0
358 -477 -309 1330 0
490 -156 278 1331 0
-256 -411 200 1332 0
359 350 -498 1333 0
214 41 -298 1334 0
269 -359 143 1335 0
304 -388 -309 1336 0
37 -94 -431 1337 0
-25 16 162 1338 0
-474 187 -77 1339 0
-296 16 76 1340 0
-476 -105 -237 1341 0
108 -64 -267 1342 0
49 418 33 1343 0
281 492 -98 1344 0
439 295 -107 1345 0
194 123 -203 1346 0
-429 -115 -398 1347 0
309 473 243 1348 0
70 47 -423 1349 0
311 -349 -72 1350 0
455 -281 397 1351 0
-122 224 -127 1352 0
217 -56 251 1353 0
93 -120 -297 1354 0
-427 460 314 1355 0
-179 -396 403 1356 0
-74 368 -94 1357 0
-330 467 494 1358 0
-8 109 -219 1359 0
154 9 224 1360 0
-434 -425 334 1361 0
-383 -19 -431 1362 0
-273 272 421 1363 0
442 231 118 1364 0
446 -107 159 1365 0
434 -390 -467 1366 0
-229 403 -149 1367 0
189 -214 -492 1368 0
-394 -163 322 1369 0
-149 455 19 1370 0
462 191 358 1371 0
367 118 -79 1372 0
-303 412 -377 1373 0
-136 -405 406 1374 0
-454 324 -403 1375 0
110 -392 -473 1376 0
-131 -367 80 1377 0
275 374 412 1378 0
483 156 339 1379 0
-404 423 272 1380 0
-143 78 216 1381 0
465 218 286 1382 0
328 -359 -247 1383 0
405 -131 -205 1384 0
307 -140 -30 1385 0
156 491 400 1386 0
-342 430 -34 1387 0
236 462 -499 1388 0
-459 156 240 1389 0
94 1 144 1390 0
-24 243 52 1391 0
-340 38 91 1392 0
38 158 -364 1393 0
-183 150 64 1394 0
-335 -326 -6 1395 0
446 -217 434 1396 0
-283 -418 72 1397 0
345 -90 -230 1398 0
245 399 -207 1399 0
-224 385 48 1400 0
-488 -326 489 1401 0
-334 -224 -38 1402 0
-420 -330 155 1403 0
110 -496 -70 1404 0
217 -330 376 1405 0
188 273 439 1406 0
-36 -304 479 1407 0
-322 -475 408 1408 0
386 -119 -142 1409 0
299 -224 464 1410 0
-432 -225 -389 1411 0
318 167 -246 1412 0
367 86 -474 1413 0
191 183 -29 1414 0
-6 -192 -105 1415 0
-37 -227 -303 1416 0
-312 -277 -113 1417 0
-160 114 -60 1418 0
-205 447 -333 1419 0
229 395 486 1420 0
-403 -66 -388 1421 0
-225 333 132 1422 0
-385 427 370 1423 0
103 -226 324 1424 0
297 345 377 1425 0
-76 -299 174 1426 0
-239 324 -434 1427 0
126 -468 -477 1428 0
-104 -264 481 1429 0
-191 -217 482 1430 0
361 4 80 1431 0
-398 -79 4 1432 0
143 31 186 1433 0
-123 36 -340 1434 0
-93 -469 -151 1435 0
-390 263 -64 1436 0
215 -355 -107 1437 0
181 119 453 1438 0
234 45 -117 1439 0
86 140 153 1440 0
246 -363 -172 1441 0
-236 -373 -414 1442 0
-180 95 -31 1443 0
289 133 -169 1444 0
-353 -435 -8 1445 0
313 -74 488 1446 0
-128 414 -213 1447 0
-278 -356 495 1448 0
-372 -309 -178 1449 0
-1 -29 19 1450 0
-178 414 -92 1451 0
-393 133 251 1452 0
-66 91 -496 1453 0
-363 -102 233 1454 0
384 -136 -406 1455 0
-306 260 284 1456 0
-347 198 -29 1457 0
275 -228 13 1458 0
-261 -6 -354 1459 0
-316 344 317 1460 0
-478 485 42 1461 0
-362 -73 -287 1462 0
-406 -431 -423 1463 0
-45 -126 -191 1464 0
-105 -259 -74 1465 0
-355 -47 322 1466 0
-157 133 -283 1467 0
399 -164 446 1468 0
-129 120 -179 1469 0
-289 -268 -433 1470 0
406 -414 391 1471 0
345 132 -219 1472 0
450 -95 -91 1473 0
-492 -338 142 1474 0
-199 321 -493 1475 0
-464 177 476 1476 0
-165 -246 94 1477 0
-128 -400 -490 1478 0
405 425 94 1479 0
37 469 194 1480 0
-53 -312 225 1481 0
201 -19 51 1482 0
-52 352 376 1483 0
481 442 471 1484 0
-350 -118 169 1485 0
-302 -289 350 1486 0
-190 -56 -310 1487 0
-347 -158 -51 1488 0
313 -351 -31 1489 0
-184 -271 -335 1490 0
-451 -30 -259 1491 0
-133 32 220 1492 0
42 327 -388 1493 0
93 444 306 1494 0
-180 -44 124 1495 0
377 -455 -153 1496 0
-318 248 -116 1497 0
-268 39 -404 1498 0
14 280 -375 1499 0
484 411 -42 1500 0
-365 -442 -454 1501 0
-462 -440 -494 1502 0
492 448 -387 1503 0
-131 -440 489 1504 0
-302 -5 360 1505 0
-285 -334 -69 1506 0
16 372 -368 1507 0
-308 -409 -324 1508 0
171 495 -378 1509 0
-445 -159 363 1510 0
86 3 177 1511 0
117 470 -459 1512 0
-405 -275 -101 1513 0
103 500 -462 1514 0
-451 36 325 1515 0
-11 -445 159 1516 0
56 260 270 1517 0
-291 -16 -425 1518 0
202 35 -391 1519 0
-393 4 -26 1520 0
229 248 452 1521 0
9 311 105 1522 0
393 -356 378 1523 0
-284 -61 -236 1524 0
36 56 68 1525 0
384 -351 316 1526 0
-178 442 200 1527 0
-484 191 -468 1528 0
83 472 -8 1529 0
276 160 -209 1530 0
-170 -457 -359 1531 0
341 -333 207 1532 0
247 -177 -168 1533 0
268 480 -336 1534 0
194 91 -453 1535 0
133 -183 252 1536 0
497 341 122 1537 0
145 343 -125 1538 0
242 438 -147 1539 0
338 296 126 1540 0
-312 241 -181 1541 0
-228 274 -399 1542 0
-198 371 -282 1543 0
100 -223 -466 1544 0
382 247 -212 1545 0
333 -232 -101 1546 0
-295 -456 277 1547 0
155 483 42 1548 0
-12 94 220 1549 0
421 40 493 1550 0
454 -95 -20 1551 0
-376 -142 17 1552 0
-427 86 -216 1553 0
34 189 -5 1554 0
-482 450 -280 1555 0
331 419 408 1556 0
494 102 368 1557 0
500 107 -413 1558 0
308 -83 144 1559 0
-299 -281 -190 1560 0
-336 -231 262 1561 0
258 -229 -184 1562 0
345 267 -90 1563 0
-121 -123 -202 1564 0
497 58 351 1565 0
430 166 -357 1566 0
-325 -260 451 1567 0
-159 273 -409 1568 0
3 -309 -138 1569 0
-424 217 -293 1570 0
161 -126 -487 1571 0
319 -375 449 1572 0
-454 427 397 1573 0
256 -341 -432 1574 0
-348 67 181 1575 0
-491 436 280 1576 0
174 -362 -371 1577 0
-108 -306 5 1578 0
-183 -289 -415 1579 0
154 -215 -194 1580 0
-424 -110 -176 1581 0
165 -278 124 1582 0
252 393 193 1583 0
151 93 -258 1584 0
-38 14 -98 1585 0
56 452 -380 1586 0
497 -462 -139 1587 0
171 390 -437 1588 0
118 110 -387 1589 0
-124 179 3 1590 0
-131 -289 97 1591 0
307 406 155 1592 0
-177 483 358 1593 0
-194 457 -240 1594 0
132 -139 -51 1595 0
427 157 -39 1596 0
-124 -50 32 1597 0
50 -460 217 1598 0
351 63 -270 1599 0
95 85 -335 1600 0
-107 -203 -212 1601 0
-415 354 -24 1602 0
32 -411 6 1603 0
227 -316 477 1604 0
364 155 117 1605 0
396 441 86 1606 0
226 167 129 1607 0
-152 -376 48 1608 0
228 -145 -115 1609 0
-476 143 45 1610 0
214 371 372 1611 0
-120 115 -77 1612 0
-47 -385 330 1613 0
-20 356 92 1614 0
-18 208 -320 1615 0
-445 174 430 1616 0
157 290 -412 1617 0
435 -176 -495 1618 0
-309 -16 -112 1619 0
223 106 -345 1620 0
371 -192 -298 1621 0
219 415 -315 1622 0
-43 -360 -286 1623 0
-453 -446 113 1624 0
72 325 -123 1625 0
-81 -41 -201 1626 0
202 -30 71 1627 0
256 -388 -500 1628 0
-341 -175 -496 1629 0
-43 -70 202 1630 0
-383 34 -213 1631 0
-237 365 399 1632 0
247 -113 -496 1633 0
-351 385 -139 1634 0
355 463 -455 1635 0
104 -381 301 1636 0
290 -184 174 1637 0
197 141 -89 1638 0
149 65 230 1639 0
71 202 42 1640 0
225 106 108 1641 0
469 -260 491 1642 0
363 148 379 1643 0
-56 -72 -458 1644 0
-483 -453 -16 1645 0
354 483 218 1646 0
-455 144 -376 1647 0
341 56 -478 1648 0
-360 -11 66 1649 0
372 -325 46 1650 0
-403 -299 -491 1651 0
402 -16 211 1652 0
6 -185 230 1653 0
33 473 -451 1654 0
59 -426 -353 1655 0
-344 -201 -161 1656 0
-103 -219 -307 1657 0
75 328 118 1658 0
-419 -454 166 1659 0
30 446 -337 1660 0
-473 129 -402 1661 0
-484 188 -311 1662 0
-116 330 -420 1663 0
289 -65 -315 1664 0
494 380 -468 1665 0
-357 90 373 1666 0
-244 96 493 1667 0
421 180 302 1668 0
-449 380 -413 1669 0
78 -380 -5 1670 0
-127 -87 -66 1671 0
208 228 -312 1672 0
-339 492 -259 1673 0
-292 -252 495 1674 0
346 -329 -23 1675 0
162 415 -400 1676 0
-342 -469 80 1677 0
105 -14 242 1678 0
-289 -321 -406 1679 0
131 -329 351 1680 0
495 -315 -216 1681 0
-118 -90 -210 1682 0
-424 -496 -321 1683 0
-218 -421 471 1684 0
-366 -70 241 1685 0
-156 40 404 1686 0
-475 -102 -149 1687 0
206 -429 343 1688 0
262 -370 35 1689 0
172 129 -115 1690 0
423 383 251 1691 0
-415 439 -257 1692 0
-389 -225 -359 1693 0
-165 133 250 1694 0
428 -128 -480 1695 0
-306 245 -164 1696 0
122 228 431 1697 0
-142 -379 213 1698 0
-450 279 -208 1699 0
-136 -115 279 1700 0
77 246 431 1701 0
114 -5 -218 1702 0
-187 283 -401 1703 0
-198 -67 331 1704 0
-442 448 -396 1705 0
-96 206 -17 1706 0
-97 338 296 1707 0
77 194 398 1708 0
2 -293 477 1709 0
385 293 -145 1710 0
405 -137 37 1711 0
213 -365 348 1712 0
-455 212 -31 1713 0
100 369 151 1714 0
-277 113 -23 1715 0
-5 479 -17 1716 0
463 204 275 1717 0
-145 -240 369 1718 0
-161 99 327 1719 0
-62 -408 -279 1720 0
85 207 -107 1721 0
468 -160 322 1722 0
-17 212 -376 1723 0
-362 -297 -354 1724 0
-418 -207 -123 1725 0
-456 258 -303 1726 0
-307 206 414 1727 0
54 -336 238 1728 0
377 -169 -348 1729 0
-76 312 1 1730 0
-174 -8 435 1731 0
-159 207 -15 1732 0
-276 -370 -383 1733 0
66 -276 -73 1734 0
129 377 316 1735 0
448 -274 -95 1736 0
212 33 478 1737 0
251 149 228 1738 0
-477 162 134 1739 0
-19 48 -307 1740 0
366 228 -162 1741 0
259 322 -67 1742 0
-152 387 -14 1743 0
-49 -465 -349 1744 0
-475 -403 82 1745 0
-175 -228 -126 1746 0
-459 3 -422 1747 0
-440 216 -313 1748 0
28 -180 -485 1749 0
500 -234 333 1750 0
-314 -175 139 1751 0
124 350 339 1752 0
83 -309 300 1753 0
-369 -95 491 1754 0
268 -278 85 1755 0
363 172 251 1756 0
280 23 454 1757 0
-53 -162 -404 1758 0
96 234 305 1759 0
363 -305 -1 1760 0
-279 -61 213 1761 0
-8 190 471 1762 0
87 -47 336 1763 0
-422 -399 -240 1764 0
461 251 -165 1765 0
302 120 241 1766 0
-427 398 453 1767 0
-335 -220 -339 1768 0
-282 210 468 1769 0
289 -174 479 1770 0
-372 492 218 1771 0
461 376 470 1772 0
-194 211 -237 1773 0
235 116 165 1774 0
-254 442 -84 1775 0
151 -323 420 1776 0
137 -286 35 1777 0
97 384 176 1778 0
128 414 -392 1779 0
148 -46 -365 1780 0
-437 -103 -404 1781 0
-341 210 65 1782 0
-168 -367 494 1783 0
373 -337 -203 1784 0
83 -377 175 1785 0
-65 212 -35 1786 0
-337 425 43 1787 0
-283 372 452 1788 0
354 -284 -497 1789 0
-280 -254 259 1790 0
-171 -118 -376 1791 0
-64 -387 -269 1792 0
-131 -324 466 1793 0
18 -8 419 1794 0
429 60 51 1795 0
69 257 -342 1796 0
-412 -114 20 1797 0
52 -23 398 1798 0
429 319 15 1799 0
217 -53 -80 1800 0
-354 -451 -483 1801 0
-306 52 -241 1802 0
-477 -291 217 1803 0
-250 -137 259 1804 0
-192 -89 112 1805 0
-107 -306 -50 1806 0
325 -335 -406 1807 0
-297 -185 -97 1808 0
-119 -439 -325 1809 0
439 386 -422 1810 0
106 -138 -418 1811 0
-20 208 182 1812 0
-6 -310 344 1813 0
-152 -186 -343 1814 0
145 -323 109 1815 0
455 -235 -345 1816 0
-159 -22 326 1817 0
-450 88 391 1818 0
290 -73 -18 1819 0
-397 35 408 1820 0
289 414 266 1821 0
-85 -376 -442 1822 0
106 -475 -80 1823 0
185 311 331 1824 0
175 47 99 1825 0
-252 -112 56 1826 0
364 245 72 1827 0
171 -369 -118 1828 0
476 -94 -84 1829 0
306 -460 436 1830 0
484 337 -251 1831 0
-75 42 -300 1832 0
-184 -237 -253 1833 0
431 309 -87 1834 0
392 -197 -128 1835 0
-281 -491 413 1836 0
186 -102 -457 1837 0
-320 38 -455 1838 0
394 403 -491 1839 0
187 -217 -350 1840 0
304 83 -294 1841 0
-220 391 73 1842 0
195 -166 210 1843 0
158 113 -111 1844 0
428 -76 -303 1845 0
89 -454 -435 1846 0
-389 -355 2 1847 0
76 209 158 1848 0
-322 -447 449 1849 0
-30 339 464 1850 0
145 -333 475 1851 0
177 422 487 1852 0
-78 185 490 1853 0
-154 -365 -10 1854 0
170 213 -116 1855 0
-317 106 -471 1856 0
158 357 -32 1857 0
-287 -106 166 1858 0
-4 148 -173 1859 0
-144 -142 -499 1860 0
-410 248 160 1861 0
-386 311 266 1862 0
81 -400 -480 1863 0
-207 401 467 1864 0
223 311 -220 1865 0
262 -334 37 1866 0
223 -199 490 1867 0
448 52 -212 1868 0
145 -240 33 1869 0
-141 133 -107 1870 0
155 97 -457 1871 0
-491 243 -298 1872 0
-444 -324 -62 1873 0
298 84 -362 1874 0
134 125 427 1875 0
-9 -244 -241 1876 0
42 -135 -136 1877 0
-100 119 420 1878 0
83 149 99 1879 0
207 -93 70 1880 0
45 81 79 1881 0
263 174 -437 1882 0
273 -312 -341 1883 0
-374 17 428 1884 0
295 357 375 1885 0
29 243 -253 1886 0
481 -266 -160 1887 0
45 199 -9 1888 0
-67 410 57 1889 0
-415 -395 -321 1890 0
-248 32 200 1891 0
-311 497 334 1892 0
-98 131 -53 1893 0
96 -167 -316 1894 0
192 350 -438 1895 0
334 339 306 1896 0
76 -368 -208 1897 0
-233 -176 316 1898 0
162 123 456 1899 0
-133 327 -306 1900 0
68 401 -489 1901 0
322 420 277 1902 0
-475 -484 48 1903 0
300 -219 -443 1904 0
480 411 -118 1905 0
244 500 -287 1906 0
-359 -399 155 1907 0
-236 112 -421 1908 0
-142 -315 62 1909 0
-341 96 -438 1910 0
-453 416 334 1911 0
437 -429 -244 1912 0
-354 -83 -436 1913 0
-330 78 416 1914 0
-285 -188 1 1915 0
406 360 -10 1916 0
14 36 -406 1917 0
464 -330 101 1918 0
31 283 -324 1919 0
8 343 353 1920 0
488 45 341 1921 0
171 -9 -69 1922 0
69 -360 303 1923 0
-307 -286 343 1924 0
-325 4 -15 1925 0
-143 186 460 1926 0
-429 76 195 1927 0
-261 474 -338 1928 0
175 427 131 1929 0
34 -374 327 1930 0
498 -207 297 1931 0
12 274 204 1932 0
-201 52 323 1933 0
348 -419 -137 1934 0
398 89 -83 1935 0
433 -323 191 1936 0
-158 -500 -265 1937 0
-360 -346 35 1938 0
-315 -59 464 1939 0
-207 215 219 1940 0
-78 -414 297 1941 0
458 -490 -325 1942 0
481 280 452 1943 0
-239 471 -350 1944 0
88 272 -308 1945 0
244 460 -368 1946 0
11 -329 447 1947 0
17 -482 415 1948 0
-437 499 -159 1949 0
-457 364 -400 1950 0
-15 173 102 1951 0
179 211 -461 1952 0
68 -244 -127 1953 0
-91 286 -50 1954 0
346 -229 121 1955 0
222 -468 -407 1956 0
82 453 157 1957 0
-334 444 -269 1958 0
219 32 176 1959 0
-6 -279 367 1960 0
-46 166 -194 1961 0
-393 410 -428 1962 0
92 -50 -422 1963 0
85 20 39 1964 0
128 -75 472 1965 0
-304 -367 -447 1966 0
344 -281 412 1967 0
-183 24 -398 1968 0
-180 238 310 1969 0
58 -373 -495 1970 0
-343 -445 214 1971 0
375 472 -311 1972 0
384 -442 -25 1973 0
232 -438 -359 1974 0
-476 -480 499 1975 0
363 234 -42 1976 0
153 -439 119 1977 0
122 -152 -271 1978 0
-285 -204 -256 1979 0
5 76 39 1980 0
125 317 213 1981 0
-239 46 -450 1982 0
138 54 58 1983 0
-12 327 362 1984 0
136 -397 -343 1985 0
-172 -65 -386 1986 0
-297 -225 465 1987 0
-462 -95 1 1988 0
187 -339 118 1989 0
-417 27 -441 1990 0
-335 -103 124 1991 0
-343 464 21 1992 0
-317 -321 4 1993 0
-255 -221 -333 1994 0
-434 -204 9 1995 0
318 472 427 1996 0
264 -73 153 1997 0
-235 91 -172 1998 0
-161 -279 47 1999 0
352 140 445 2000 0
411 -153 287 2001 0
-62 432 376 2002 0
315 90 45 2003 0
410 278 311 2004 0
-269 84 -377 2005 0
-226 396 430 2006 0
-375 -197 -497 2007 0
-455 -76 -378 2008 0
278 333 195 2009 0
-403 258 -439 2010 0
-363 428 134 2011 0
62 170 -492 2012 0
453 29 -172 2013 0
213 71 15 2014 0
413 126 -63 2015 0
-167 -239 150 2016 0
-382 -281 -433 2017 0
-30 412 156 2018 0
-136 130 498 2019 0
-396 253 -72 2020 0
-30 -239 304 2021 0
205 -403 408 2022 0
78 310 126 2023 0
-174 -108 43 2024 0
57 -430 67 2025 0
-412 -268 -205 2026 0
100 377 -25 2027 0
287 -492 -67 2028 0
-85 222 -71 2029 0
114 238 160 2030 0
282 -40 -223 2031 0
-41 -78 -358 2032 0
380 471 -154 2033 0
-331 101 406 2034 0
90 -155 160 2035 0
-465 495 241 2036 0
335 -165 -280 2037 0
482 -393 427 2038 0
-63 -22 -259 2039 0
45 -196 34 2040 0
-181 28 450 2041 0
231 -185 258 2042 0
20 54 204 2043 0
181 -245 -194 2044 0
-68 63 498 2045 0
-235 -430 184 2046 0
-477 -106 256 2047 0
483 -469 330 2048 0
385 11 -244 2049 0
-412 -384 173 2050 0
439 -173 46 2051 0
-350 -63 261 2052 0
-444 -274 222 2053 0
-388 -184 65 2054 0
-62 -226 -352 2055 0
119 346 163 2056 0
-137 446 -267 2057 0
322 472 172 2058 0
-35 422 235 2059 0
129 -301 420 2060 0
-314 -385 -449 2061 0
-371 -489 -425 2062 0
183 127 90 2063 0
122 -222 34 2064 0
47 28 -297 2065 0
-227 -97 -480 2066 0
214 -208 294 2067 0
-261 -11 -181 2068 0
420 -130 182 2069 0
497 126 -181 2070 0
351 -311 131 2071 0
-356 -357 -92 2072 0
112 248 -183 2073 0
-5 22 -89 2074 0
450 -340 -348 2075 0
-440 332 101 2076 0
308 -147 137 2077 0
-410 -106 39 2078 0
350 -222 216 2079 0
49 -183 -210 2080 0
-376 -100 469 2081 0
91 425 105 2082 0
14 -123 -385 2083 0
-374 253 -177 2084 0
-140 -408 139 2085 0
-210 215 267 2086 0
248 -459 494 2087 0
478 -358 -322 2088 0
-311 -295 1 2089 0
-81 -474 316 2090 0
-374 -331 207 2091 0
93 17 -386 2092 0
321 492 277 2093 0
-70 -230 -222 2094 0
372 -384 -321 2095 0
-205 -154 -443 2096 0
371 -168 236 2097 0
-346 -13 -279 2098 0
-94 -20 -188 2099 0
188 -299 476 2100 0
302 430 461 2101 0
-164 -224 348 2102 0
-328 -332 186 2103 0
-425 -407 -276 2104 0
-88 442 -187 2105 0
224 -355 -75 2106 0
397 -371 166 2107 0
-391 -234 -78 2108 0
163 246 79 2109 0
-70 -443 -453 2110 0
-309 -471 112 2111 0
340 -424 386 2112 0
307 399 96 2113 0
-336 328 239 2114 0
108 -442 393 2115 0
143 -91 -150 2116 0
294 90 260 2117 0
-35 150 247 2118 0
-161 -375 -426 2119 0
347 143 84 2120 0
221 -499 360 2121 0
-433 312 -7 2122 0
-232 407 -469 2123 0
-214 -72 420 2124 0
490 -278 280 2125 0
23 429 -131 2126 0
-1 269 448 2127 0
212 -264 406 2128 0
181 -404 179 2129 0
360 -312 222 2130 0
341 250 271 2131 0
262 -232 21 2132 0
-58 12 428 2133 0
25 -176 273 2134 0
-348 -207 -125 2135 0
-54 373 92 2136 0
107 336 241 2137 0
-242 32 45 2138 0
-346 230 -164 2139 0
-458 -224 76 2140 0
374 257 -286 2141 0
161 -452 220 2142 0
292 -40 438 2143 0
421 368 374 2144 0
266 428 -139 2145 0
-349 494 -166 2146 0
422 -77 17 2147 0
216 436 -446 2148 0
396 280 295 2149 0
-397 173 81 2150 0
265 -352 229 2151 0
-170 -377 114 2152 0
-240 430 16 2153 0
7 -20 -310 2154 0
-487 451 308 2155 0
141 78 -375 2156 0
255 -194 -162 2157 0
335 486 -181 2158 0
-114 -365 -334 2159 0
354 -315 -204 2160 0
-60 -46 -478 2161 0
-183 -432 -189 2162 0
-385 65 -418 2163 0
-387 55 -302 2164 0
-238 -413 -229 2165 0
-138 -202 -49 2166 0
373 -329 216 2167 0
119 214 261 2168 0
78 287 51 2169 0
495 474 -353 2170 0
-377 336 -332 2171 0
78 203 57 2172 0
94 -422 126 2173 0
144 -178 385 2174 0
-134 -422 126 2175 0
230 -373 -39 2176 0
-369 -297 -285 2177 0
-259 84 -301 2178 0
271 290 -23 2179 0
-138 177 462 2180 0
494 -169 319 2181 0
53 262 321 2182 0
446 13 -313 2183 0
268 -248 207 2184 0
-6 -113 -478 2185 0
467 469 328 2186 0
-423 493 -144 2187 0
246 -442 -340 2188 0
34 115 33 2189 0
107 345 456 2190 0
132 217 169 2191 0
-165 85 141 2192 0
245 402 442 2193 0
386 -332 63 2194 0
-177 -57 -316 2195 0
319 357 135 2196 0
259 -160 232 2197 0
188 80 -21 2198 0
254 271 -208 2199 0
-324 8 389 2200 0
-495 353 403 2201 0
-297 42 195 2202 0
-145 -497 -171 2203 0
95 -427 -102 2204 0
33 370 316 2205 0
407 -187 483 2206 0
-305 223 369 2207 0
387 -49 -181 2208 0
-192 -89 -129 2209 0
-471 281 293 2210 0
305 -411 -97 2211 0
337 382 -225 2212 0
56 226 101 2213 0
184 -363 251 2214 0
-22 193 203 2215 0
486 142 -160 2216 0
-362 -126 -482 2217 0
17 216 172 2218 0
221 -322 -79 2219 0
205 -446 278 2220 0
464 -208 -332 2221 0
280 -257 -62 2222 0
-319 -2 369 2223 0
-137 -139 -159 2224 0
-251 303 -325 2225 0
390 127 -70 2226 0
415 410 159 2227 0
-63 -179 495 2228 0
-200 -94 388 2229 0
140 -496 52 2230 0
56 -82 300 2231 0
-499 -120 195 2232 0
424 288 -405 2233 0
396 -23 -362 2234 0
137 436 -270 2235 0
379 -356 271 2236 0
-291 456 427 2237 0
-341 200 -57 2238 0
414 103 -114 2239 0
-122 123 -299 2240 0
105 255 -11 2241 0
211 201 409 2242 0
342 -289 -461 2243 0
433 -140 -80 2244 0
-183 367 -87 2245 0
-83 -233 -467 2246 0
108 -12 355 2247 0
-5 27 -277 2248 0
-168 -153 -324 2249 0
21 -22 304 2250 0
189 -53 473 2251 0
421 -473 347 2252 0
364 402 250 2253 0
-266 -180 -67 2254 0
-303 -225 462 2255 0
-191 303 -362 2256 0
87 208 -57 2257 0
-200 -86 -164 2258 0
-344 -19 -277 2259 0
32 -61 357 2260 0
-248 -90 -464 2261 0
-159 146 -204 2262 0
-432 -454 -416 2263 0
417 466 -414 2264 0
-317 -459 -454 2265 0
-7 -139 -402 2266 0
-293 -282 -481 2267 0
484 -277 159 2268 0
-141 317 -422 2269 0
-251 -187 477 2270 0
-338 89 -99 2271 0
287 396 340 2272 0
-253 308 -496 2273 0
-64 104 -142 2274 0
290 105 478 2275 0
417 -259 -445 2276 0
391 351 -115 2277 0
-297 200 -48 2278 0
437 -34 -363 2279 0
-314 498 -487 2280 0
-75 -453 -258 2281 0
-344 -121 -209 2282 0
446 493 -139 2283 0
127 -50 56 2284 0
-203 174 435 2285 0
185 216 -476 2286 0
-469 462 -411 2287 0
175 338 -467 2288 0
-263 -499 -29 2289 0
-162 -194 -56 2290 0
-205 182 289 2291 0
-271 -247 -349 2292 0
-403 315 -275 2293 0
-31 277 -204 2294 0
-165 98 297 2295 0
-408 -128 -231 2296 0
353 215 -358 2297 0
86 351 367 2298 0
-291 302 -334 2299 0
-397 83 215 2300 0
-178 -401 -459 2301 0
-50 -128 438 2302 0
97 203 479 2303 0
391 451 -176 2304 0
196 46 330 2305 0
-384 -343 493 2306 0
171 -325 -496 2307 0
-427 -323 -399 2308 0
-58 -399 -263 2309 0
166 342 418 2310 0
-454 438 296 2311 0
-10 -381 41 2312 0
125 66 -208 2313 0
271 214 -162 2314 0
-91 -85 251 2315 0
428 402 -372 2316 0
-402 362 -489 2317 0
-489 279 162 2318 0
-267 -140 97 2319 0
-144 -382 -110 2320 0
-64 -149 120 2321 0
133 365 336 2322 0
-109 -5 -497 2323 0
190 -371 -246 2324 0
-344 168 355 2325 0
189 378 -130 2326 0
-148 104 25 2327 0
-425 86 -187 2328 0
-229 45 150 2329 0
242 -275 348 2330 0
-470 480 488 2331 0
-103 -274 -298 2332 0
382 -199 134 2333 0
-309 -215 125 2334 0
-45 321 -409 2335 0
-140 201 -180 2336 0
418 -491 166 2337 0
-136 -210 -461 2338 0
-60 -401 -209 2339 0
480 -288 -47 2340 0
272 -228 268 2341 0
11 -359 -205 2342 0
-243 -396 -383 2343 0
-369 125 -175 2344 0
-105 -135 298 2345 0
-111 -125 398 2346 0
294 -238 348 2347 0
-470 -88 -363 2348 0
407 312 472 2349 0
-23 489 411 2350 0
59 171 -464 2351 0
431 -45 215 2352 0
425 -55 228 2353 0
305 -310 347 2354 0
-341 402 -74 2355 0
414 -147 -391 2356 0
-7 135 -440 2357 0
-434 -173 -472 2358 0
401 175 -145 2359 0
240 -381 -246 2360 0
-363 -287 183 2361 0
376 251 471 2362 0
426 -310 -352 2363 0
422 -54 453 2364 0
-441 284 -303 2365 0
185 -500 -192 2366 0
200 -135 -166 2367 0
239 -358 -40 2368 0
-500 151 228 2369 0
-392 -355 -10 2370 0
272 -280 175 2371 0
-11 -396 -417 2372 0
334 -286 -414 2373 0
-224 -440 51 2374 0
-459 77 249 2375 0
394 -415 465 2376 0
297 423 -234 2377 0
261 -4 -489 2378 0
-109 432 352 2379 0
392 -293 20 2380 0
96 325 -263 2381 0
-127 -132 42 2382 0
363 -437 -310 2383 0
127 -356 405 2384 0
-245 -154 -58 2385 0
68 32 186 2386 0
-193 208 329 2387 0
-489 298 208 2388 0
225 393 54 2389 0
-122 218 -186 2390 0
47 -177 62 2391 0
-336 -400 -13 2392 0
255 -149 278 2393 0
-375 -416 -245 2394 0
460 174 11 2395 0
-177 288 411 2396 0
-170 500 498 2397 0
110 -286 -76 2398 0
-480 130 273 2399 0
456 4 -152 2400 0
410 279 -312 2401 0
-174 -193 -14 2402 0
10 424 167 2403 0
-374 -73 -95 2404 0
-309 -147 -490 2405 0
-322 151 -200 2406 0
-440 -37 -82 2407 0
432 -318 348 2408 0
65 300 345 2409 0
242 44 -194 2410 0
67 364 3 2411 0
282 277 -50 2412 0
117 309 157 2413 0
-217 -394 -85 2414 0
-348 -491 -219 2415 0
447 213 -261 2416 0
50 212 -305 2417 0
-226 202 172 2418 0
-343 -404 -385 2419 0
470 326 283 2420 0
-390 469 -176 2421 0
-17 -271 -29 2422 0
419 462 4 2423 0
131 129 370 2424 0
-388 342 71 2425 0
462 61 286 2426 0
-76 -145 85 2427 0
-342 -151 28 2428 0
-244 -151 -287 2429 0
82 -332 457 2430 0
-307 380 -252 2431 0
132 -384 -443 2432 0
415 -46 -417 2433 0
255 341 -313 2434 0
116 -42 485 2435 0
-429 37 85 2436 0
-463 34 368 2437 0
-414 -250 244 2438 0
-52 -339 66 2439 0
282 200 -149 2440 0
-328 386 -249 2441 0
-113 -199 100 2442 0
9 -414 22 2443 0
441 496 -463 2444 0
-288 -349 420 2445 0
357 -426 -289 2446 0
-439 398 -258 2447 0
-473 166 403 2448 0
-115 69 23 2449 0
-301 496 -421 2450 0
106 -499 30 2451 0
408 -97 -271 2452 0
3 -477 -257 2453 0
-307 477 500 2454 0
-360 -247 49 2455 0
398 -401 137 2456 0
353 146 -395 2457 0
408 42 -279 2458 0
-292 -455 142 2459 0
297 72 304 2460 0
-147 -115 364 2461 0
-11 191 282 2462 0
-239 -283 95 2463 0
-267 367 -2 2464 0
120 76 -418 2465 0
-364 -444 178 2466 0
149 -340 486 2467 0
273 286 459 2468 0
-184 -181 361 2469 0
215 -47 -109 2470 0
-216 -57 -371 2471 0
17 187 254 2472 0
-215 222 35 2473 0
-472 187 -58 2474 0
-179 221 -23 2475 0
384 -218 -400 2476 0
156 -453 -356 2477 0
148 319 -89 2478 0
109 -67 227 2479 0
203 -226 459 2480 0
-98 187 -96 2481 0
-199 55 -259 2482 0
187 35 -356 2483 0
72 185 -29 2484 0
11 308 381 2485 0
259 59 -310 2486 0
-335 -100 14 2487 0
-78 150 246 2488 0
-204 -98 -460 2489 0
-211 -190 -199 2490 0
306 223 -488 2491 0
-94 374 287 2492 0
79 -179 470 2493 0
176 -345 -204 2494 0
180 -329 115 2495 0
101 134 -462 2496 0
352 182 -319 2497 0
279 164 -375 2498 0
-109 275 28 2499 0
-499 271 15 2500 0
38 -461 463 2501 0
305 236 -112 2502 0
188 -411 373 2503 0
-360 -356 317 2504 0
192 78 -346 2505 0
-89 -484 -324 2506 0
-119 102 293 2507 0
-35 122 17 2508 0
-82 238 -264 2509 0
-190 36 424 2510 0
-256 -213 343 2511 0
472 -98 382 2512 0
485 221 -73 2513 0
-92 -427 -189 2514 0
-9 330 -287 2515 0
337 38 -419 2516 0
210 286 -56 2517 0
66 -102 -87 2518 0
-142 204 210 2519 0
-125 -310 371 2520 0
207 -51 -494 2521 0
217 181 265 2522 0
-381 -41 -9 2523 0
-393 -462 -284 2524 0
-172 -422 455 2525 0
-492 -134 -286 2526 0
13 -49 -448 2527 0
-1 184 -478 2528 0
160 103 -489 2529 0
-165 221 187 2530 0
-383 -471 -130 2531 0
198 -193 -369 2532 0
224 -375 484 2533 0
239 -193 -334 2534 0
-271 -73 159 2535 0
-80 335 93 2536 0
83 -491 177 2537 0
-456 -375 308 2538 0
-80 131 154 2539 0
56 -349 -410 2540 0
-298 334 153 2541 0
411 453 -116 2542 0
432 -335 107 2543 0
15 -498 412 2544 0
407 434 -280 2545 0
78 -290 390 2546 0
64 239 441 2547 0
-199 -80 255 2548 0
-42 -395 229 2549 0
-449 -268 148 2550 0
399 209 104 2551 0
-298 57 363 2552 0
307 409 424 2553 0
-327 -489 280 2554 0
-51 -499 -281 2555 0
-30 -175 -71 2556 0
223 387 -471 2557 0
-316 279 -341 2558 0
389 129 156 2559 0
-291 -409 98 2560 0
264 -221 -424 2561 0
46 -394 -49 2562 0
356 -68 -45 2563 0
50 489 -330 2564 0
-356 -374 129 2565 0
73 371 257 2566 0
491 -180 -417 2567 0
495 301 -136 2568 0
-129 51 -255 2569 0
-416 -62 -287 2570 0
219 69 401 2571 0
464 -365 -386 2572 0
465 -230 -290 2573 0
-226 474 169 2574 0
-443 -239 13 2575 0
-467 -266 -317 2576 0
60 215 -161 2577 0
-383 91 -73 2578 0
-271 -320 -338 2579 0
-453 480 -449 2580 0
-257 175 -296 2581 0
-407 266 251 2582 0
172 -198 -44 2583 0
180 445 -301 2584 0
-304 -7 492 2585 0
353 -294 -115 2586 0
-478 146 453 2587 0
123 -203 86 2588 0
20 211 181 2589 0
104 -14 137 2590 0
111 57 48 2591 0
74 209 -275 2592 0
-220 -36 -474 2593 0
-4 216 -129 2594 0
116 265 117 2595 0
226 -156 -221 2596 0
377 38 -273 2597 0
143 279 -328 2598 0
176 269 337 2599 0
-28 359 -403 2600 0
348 -105 147 2601 0
90 225 -62 2602 0
-24 -417 -75 2603 0
449 136 484 2604 0
198 155 241 2605 0
-234 -248 317 2606 0
-155 412 80 2607 0
-488 350 -332 2608 0
-470 -267 -466 2609 0
86 313 344 2610 0
-416 117 60 2611 0
-431 392 251 2612 0
125 -138 467 2613 0
-419 -198 368 2614 0
203 61 77 2615 0
11 102 421 2616 0
489 -120 -170 2617 0
491 -29 87 2618 0
405 229 -216 2619 0
-124 468 192 2620 0
-107 -221 -374 2621 0
-399 -231 -366 2622 0
171 225 186 2623 0
-258 -220 -14 2624 0
489 -177 -354 2625 0
284 -253 336 2626 0
472 -73 -281 2627 0
-241 184 74 2628 0
229 69 -464 2629 0
-141 86 264 2630 0
-355 87 -348 2631 0
413 -457 -208 2632 0
493 271 392 2633 0
71 415 93 2634 0
-82 -255 233 2635 0
353 332 221 2636 0
285 320 131 2637 0
-135 193 334 2638 0
-81 -277 250 2639 0
-322 215 331 2640 0
-132 -258 -29 2641 0
-365 255 -91 2642 0
317 285 -226 2643 0
-247 -216 305 2644 0
116 129 33 2645 0
217 -34 -137 2646 0
-257 -123 373 2647 0
-186 38 34 2648 0
-413 -365 -25 2649 0
48 159 -356 2650 0
