p cnf 2650 2150
352 206 67 501 0
473 339 -439 502 0
-461 481 66 503 0
396 118 -422 504 0
113 460 348 505 0
-487 -390 341 506 0
373 -264 422 507 0
381 431 -328 508 0
493 226 -209 509 0
327 375 -331 510 0
168 54 -11 511 0
149 -242 -67 512 0
469 165 -68 513 0
-404 245 -41 514 0
-416 -184 -338 515 0
-315 -2 57 516 0
190 319 -131 517 0
-100 -292 -242 518 0
-417 499 -426 519 0
-405 298 -407 520 0
-241 -27 -312 521 0
187 46 -496 522 0
-198 -273 -224 523 0
259 -444 -13 524 0
-344 200 -462 525 0
-321 -175 -198 526 0
379 -299 -93 527 0
301 -268 -118 528 0
53 13 -93 529 0
-417 -181 352 530 0
-281 -479 106 531 0
57 -207 259 532 0
366 6 -390 533 0
360 -273 -186 534 0
155 241 -99 535 0
308 119 -451 536 0
430 -52 -16 537 0
-256 -210 -191 538 0
-498 425 167 539 0
-264 243 345 540 0
-259 -173 92 541 0
-305 66 36 542 0
408 71 -253 543 0
15 130 474 544 0
25 -334 -90 545 0
387 394 -118 546 0
457 -431 449 547 0
-357 397 463 548 0
186 324 -15 549 0
-214 -248 -104 550 0
-16 176 -360 551 0
-390 386 -23 552 0
449 -431 -387 553 0
-122 72 289 554 0
-394 230 135 555 0
141 -138 171 556 0
-382 245 259 557 0
-91 190 485 558 0
-346 -445 -151 559 0
56 -54 227 560 0
170 496 378 561 0
325 -308 -43 562 0
-234 -500 219 563 0
-373 -49 109 564 0
-84 -49 -36 565 0
-435 -257 150 566 0
-223 -377 216 567 0
-379 -407 -52 568 0
-486 469 -164 569 0
-258 -44 121 570 0
-382 -117 91 571 0
191 55 -170 572 0
-422 -129 -406 573 0
-37 15 -196 574 0
-37 118 -270 575 0
-258 -221 209 576 0
124 -29 -263 577 0
-479 -413 -189 578 0
72 59 194 579 0
-73 92 -94 580 0
-268 -127 461 581 0
-306 -311 -400 582 0
184 54 466 583 0
40 -490 25 584 0
375 -480 238 585 0
202 149 317 586 0
-126 276 -422 587 0
262 78 -280 588 0
-176 -116 339 589 0
-260 21 442 590 0
-246 -404 -97 591 0
210 394 -477 592 0
-415 138 -489 593 0
61 -128 -293 594 0
-220 230 63 595 0
-337 134 -351 596 0
242 129 482 597 0
-486 -301 323 598 0
-228 -369 -448 599 0
-59 448 245 600 0
-487 95 24 601 0
-448 48 396 602 0
83 -17 302 603 0
311 140 -130 604 0
6 -118 139 605 0
-494 410 155 606 0
6 30 -426 607 0
65 -200 -313 608 0
-147 203 -455 609 0
-184 286 -308 610 0
-83 -437 214 611 0
383 215 -19 612 0
-457 247 -46 613 0
-93 307 362 614 0
496 315 216 615 0
-484 222 268 616 0
-447 -250 -148 617 0
122 -331 293 618 0
226 489 -129 619 0
-12 398 206 620 0
3 312 -497 621 0
463 317 349 622 0
-497 -218 -339 623 0
-105 193 -8 624 0
-227 -292 -473 625 0
22 416 -65 626 0
144 -25 -53 627 0
118 86 -363 628 0
-222 -460 262 629 0
20 -54 287 630 0
-449 35 -304 631 0
-442 89 -166 632 0
-233 146 -195 633 0
-370 97 -149 634 0
-355 -246 -294 635 0
-109 -219 362 636 0
212 -68 -177 637 0
-499 327 446 638 0
-240 233 -35 639 0
216 113 -14 640 0
417 145 392 641 0
339 -141 417 642 0
-106 237 350 643 0
-9 156 -265 644 0
-234 -193 -337 645 0
34 213 393 646 0
83 -27 -3 647 0
-137 309 268 648 0
59 -243 -388 649 0
202 211 -252 650 0
411 -451 444 651 0
52 172 -118 652 0
-69 -488 -471 653 0
-234 96 -181 654 0
65 -173 -208 655 0
233 243 -85 656 0
99 -54 480 657 0
244 -352 -165 658 0
260 367 -451 659 0
10 22 -388 660 0
450 434 -65 661 0
263 266 -232 662 0
204 -213 -222 663 0
-100 248 -288 664 0
-283 490 32 665 0
415 -455 92 666 0
410 -466 270 667 0
-44 -185 37 668 0
14 27 -300 669 0
-399 302 -4 670 0
418 -354 262 671 0
-256 312 126 672 0
5 -485 380 673 0
495 -348 -157 674 0
475 96 -171 675 0
-112 -298 -432 676 0
-10 -192 213 677 0
-222 -375 -143 678 0
-284 -471 392 679 0
435 182 -493 680 0
-181 -204 51 681 0
345 -98 -398 682 0
-386 -47 -298 683 0
268 -106 300 684 0
-291 265 -123 685 0
-496 125 -396 686 0
479 -101 -148 687 0
-293 449 453 688 0
148 -49 236 689 0
-14 -40 -346 690 0
19 -91 404 691 0
174 -50 -145 692 0
-475 387 -28 693 0
-477 458 -379 694 0
334 -134 -424 695 0
342 -252 146 696 0
-269 424 252 697 0
382 216 437 698 0
211 247 -393 699 0
205 184 -485 700 0
-54 403 -217 701 0
46 114 -72 702 0
-284 26 -149 703 0
381 -273 -373 704 0
461 499 450 705 0
-43 158 -450 706 0
342 -299 414 707 0
-88 -496 -270 708 0
14 466 127 709 0
304 -208 227 710 0
-92 351 378 711 0
-81 -340 -423 712 0
-128 51 -290 713 0
180 -500 -446 714 0
186 448 -103 715 0
105 -489 -139 716 0
-205 -107 -153 717 0
-209 273 182 718 0
153 208 332 719 0
-386 181 -299 720 0
-292 -50 -257 721 0
484 214 55 722 0
271 -207 -395 723 0
-40 -259 -190 724 0
-381 494 47 725 0
-280 -395 -445 726 0
393 450 51 727 0
159 -223 -269 728 0
46 51 128 729 0
-214 -246 -331 730 0
418 4 454 731 0
-123 160 -195 732 0
-186 -311 -115 733 0
-331 466 295 734 0
-187 -130 178 735 0
466 248 467 736 0
-343 240 -392 737 0
-200 46 252 738 0
-135 -410 -430 739 0
-496 204 -211 740 0
-457 -208 -340 741 0
-230 479 -33 742 0
345 200 -52 743 0
-6 113 77 744 0
308 -413 451 745 0
-140 232 -127 746 0
72 -483 445 747 0
-196 177 -100 748 0
-463 -487 -285 749 0
-460 144 -117 750 0
119 -9 -287 751 0
125 66 328 752 0
-57 -79 278 753 0
103 -320 -123 754 0
-433 -495 391 755 0
4 -203 -140 756 0
274 -339 394 757 0
66 -407 -149 758 0
327 335 -51 759 0
-178 -430 -194 760 0
-396 131 49 761 0
324 480 443 762 0
344 237 -55 763 0
51 220 -95 764 0
-78 229 -80 765 0
-488 156 203 766 0
-85 12 281 767 0
187 146 -231 768 0
-123 -120 -395 769 0
-423 -362 265 770 0
79 10 -379 771 0
-191 314 -164 772 0
329 -199 -266 773 0
467 -183 128 774 0
-112 -156 -479 775 0
-423 270 79 776 0
-262 -400 399 777 0
-43 20 107 778 0
123 -398 -499 779 0
298 17 122 780 0
431 142 -383 781 0
-147 -469 -442 782 0
-156 -24 -411 783 0
-286 356 296 784 0
-332 -203 51 785 0
236 126 440 786 0
315 -255 435 787 0
-314 464 169 788 0
111 -110 469 789 0
-274 257 -212 790 0
176 128 -447 791 0
-82 333 382 792 0
-319 124 194 793 0
137 -453 182 794 0
444 207 -271 795 0
-365 70 -376 796 0
-360 -57 -244 797 0
-272 132 90 798 0
-289 498 57 799 0
495 -457 -421 800 0
452 -417 -89 801 0
47 -32 234 802 0
-449 -209 180 803 0
-100 271 -82 804 0
296 -120 -109 805 0
-30 -477 -226 806 0
-350 54 149 807 0
330 -353 440 808 0
-121 490 230 809 0
-446 124 400 810 0
-63 116 145 811 0
35 342 167 812 0
-484 178 -324 813 0
-113 328 15 814 0
418 -433 294 815 0
-341 328 45 816 0
402 -432 -395 817 0
224 373 238 818 0
132 485 293 819 0
454 -193 -100 820 0
380 -462 226 821 0
59 -459 416 822 0
-187 -156 421 823 0
8 -448 -72 824 0
-83 119 316 825 0
-214 -400 86 826 0
-493 147 -384 827 0
-83 -359 129 828 0
-215 107 -392 829 0
-308 -225 -285 830 0
-422 484 -336 831 0
-466 308 20 832 0
-222 -490 169 833 0
-395 343 141 834 0
-126 -456 90 835 0
64 219 406 836 0
-160 310 22 837 0
-420 -118 -125 838 0
490 31 -184 839 0
-193 297 -78 840 0
208 463 -256 841 0
-448 92 228 842 0
235 35 -282 843 0
-71 202 437 844 0
-127 -445 -323 845 0
256 48 -409 846 0
398 -125 352 847 0
-268 118 384 848 0
-2 329 -279 849 0
-31 -416 -91 850 0
-140 -240 145 851 0
141 488 201 852 0
219 -447 483 853 0
-76 333 -128 854 0
131 -17 -267 855 0
-452 155 102 856 0
87 -115 -381 857 0
379 290 34 858 0
475 -232 -346 859 0
437 200 188 860 0
245 17 -177 861 0
378 -431 -365 862 0
189 -22 -460 863 0
-120 99 338 864 0
77 324 286 865 0
-371 230 105 866 0
409 188 -18 867 0
55 -431 -361 868 0
-272 243 -47 869 0
-416 454 -177 870 0
-177 -303 57 871 0
373 372 65 872 0
354 218 -292 873 0
-42 -173 329 874 0
-443 43 -67 875 0
-423 -305 309 876 0
-345 -180 280 877 0
-12 -420 -77 878 0
-337 313 199 879 0
-356 490 -390 880 0
427 355 -220 881 0
-174 167 -93 882 0
407 199 -239 883 0
151 -235 460 884 0
220 -61 -340 885 0
445 -235 229 886 0
-377 -216 -414 887 0
-362 -123 354 888 0
-162 -150 38 889 0
-83 323 -206 890 0
62 325 -434 891 0
217 -400 -480 892 0
467 327 70 893 0
13 144 205 894 0
492 50 -116 895 0
380 -386 124 896 0
-92 156 -317 897 0
-115 360 478 898 0
-127 167 -434 899 0
327 204 -235 900 0
-39 -260 146 901 0
-286 -422 -312 902 0
-149 275 459 903 0
271 -344 -43 904 0
-215 -176 273 905 0
320 10 -327 906 0
185 -422 378 907 0
496 489 -137 908 0
-306 -65 415 909 0
-298 -91 -83 910 0
-35 -382 13 911 0
45 353 -455 912 0
-179 -348 462 913 0
-345 279 276 914 0
-160 140 -87 915 0
340 161 -327 916 0
-36 291 -464 917 0
111 -129 15 918 0
-487 -168 -420 919 0
-375 -312 -230 920 0
-318 103 -330 921 0
161 -178 395 922 0
-434 276 370 923 0
347 -187 66 924 0
-261 324 -437 925 0
-90 -326 -412 926 0
89 256 -161 927 0
182 380 -165 928 0
-18 236 -5 929 0
354 -13 377 930 0
-429 -460 -278 931 0
300 -447 455 932 0
-480 -37 -32 933 0
484 -476 341 934 0
-186 279 -437 935 0
258 -486 -149 936 0
-168 -368 138 937 0
-86 -338 500 938 0
265 102 -48 939 0
390 164 -405 940 0
38 -315 -155 941 0
-123 283 80 942 0
472 60 -39 943 0
80 -136 416 944 0
447 403 146 945 0
-332 -113 18 946 0
441 270 299 947 0
30 -480 -231 948 0
376 209 86 949 0
393 459 4 950 0
242 24 -304 951 0
-233 -368 280 952 0
31 202 128 953 0
195 -356 18 954 0
-243 -27 -111 955 0
-316 127 399 956 0
98 66 -300 957 0
-183 -373 90 958 0
244 420 40 959 0
33 15 81 960 0
196 -326 167 961 0
141 -314 -374 962 0
253 -145 353 963 0
-480 344 -473 964 0
101 -126 -190 965 0
-172 61 -67 966 0
-223 265 144 967 0
29 -1 13 968 0
111 410 406 969 0
-484 200 494 970 0
-76 117 98 971 0
-416 -493 -89 972 0
-58 115 82 973 0
286 -300 462 974 0
-441 248 -57 975 0
378 386 -433 976 0
-444 -376 50 977 0
390 -414 -120 978 0
-406 -311 -320 979 0
-39 -463 111 980 0
278 -173 -227 981 0
-201 104 209 982 0
284 -20 -382 983 0
-211 -32 287 984 0
-366 307 -341 985 0
-260 199 477 986 0
-130 12 266 987 0
-357 -249 -488 988 0
-472 444 -60 989 0
-157 -78 -66 990 0
-353 -228 -348 991 0
-287 -213 109 992 0
-461 -179 85 993 0
289 324 -265 994 0
325 -274 -58 995 0
369 455 330 996 0
-486 -313 -309 997 0
-247 447 -45 998 0
370 -252 -366 999 0
85 309 206 1000 0
-254 298 -476 1001 0
-345 285 16 1002 0
199 73 -441 1003 0
-7 326 22 1004 0
229 169 -127 1005 0
424 442 -48 1006 0
-243 -387 -310 1007 0
-208 -378 232 1008 0
478 -115 -480 1009 0
293 272 -379 1010 0
184 -172 -316 1011 0
107 -449 470 1012 0
-338 436 240 1013 0
-472 10 312 1014 0
-50 -467 193 1015 0
-77 -261 -488 1016 0
421 -377 -35 1017 0
239 -244 160 1018 0
-476 -127 -479 1019 0
198 -90 -121 1020 0
-159 -425 -209 1021 0
494 -416 -246 1022 0
324 -261 395 1023 0
-170 478 448 1024 0
-235 -283 447 1025 0
80 -224 259 1026 0
100 271 -384 1027 0
-428 -143 38 1028 0
229 235 -337 1029 0
305 -462 -307 1030 0
-156 -378 -325 1031 0
365 10 -143 1032 0
330 -433 343 1033 0
-205 -180 -132 1034 0
-281 -352 174 1035 0
-326 423 52 1036 0
-29 64 220 1037 0
-377 103 -356 1038 0
-349 260 446 1039 0
-83 208 101 1040 0
-276 -479 -466 1041 0
319 -69 -161 1042 0
48 -366 -426 1043 0
469 -163 -111 1044 0
-44 -362 -205 1045 0
-450 462 281 1046 0
-266 37 191 1047 0
-71 317 408 1048 0
-389 -193 -186 1049 0
-22 -179 451 1050 0
124 417 242 1051 0
155 -330 -434 1052 0
116 122 -298 1053 0
-269 301 -499 1054 0
-374 191 389 1055 0
-418 -328 500 1056 0
-197 272 261 1057 0
-380 -224 199 1058 0
379 330 147 1059 0
-431 -391 355 1060 0
-419 -417 367 1061 0
422 114 43 1062 0
485 41 -336 1063 0
-256 153 371 1064 0
99 -317 45 1065 0
-371 -175 -70 1066 0
-192 471 -385 1067 0
-416 364 8 1068 0
-323 181 9 1069 0
34 -226 -270 1070 0
-261 -73 156 1071 0
273 -411 -202 1072 0
49 292 244 1073 0
-285 32 -153 1074 0
-324 288 35 1075 0
-23 -151 -260 1076 0
-388 -324 150 1077 0
477 -4 150 1078 0
-391 412 -178 1079 0
453 -100 -104 1080 0
-143 -45 334 1081 0
-422 -221 -404 1082 0
161 -76 -480 1083 0
274 27 131 1084 0
264 453 -131 1085 0
176 73 -382 1086 0
-347 -345 27 1087 0
300 -85 -57 1088 0
-468 -55 272 1089 0
-191 -423 -313 1090 0
-294 27 23 1091 0
-314 -51 86 1092 0
-18 126 -483 1093 0
174 204 -416 1094 0
331 216 133 1095 0
-374 473 124 1096 0
-351 367 -141 1097 0
-425 -346 -86 1098 0
270 184 104 1099 0
144 -62 -74 1100 0
425 110 22 1101 0
-303 370 339 1102 0
324 -330 -137 1103 0
364 354 199 1104 0
110 175 -389 1105 0
-215 -443 -361 1106 0
-288 -229 -392 1107 0
-61 -226 -193 1108 0
375 229 132 1109 0
-240 406 -49 1110 0
-463 382 316 1111 0
147 -423 74 1112 0
202 14 481 1113 0
37 -414 -240 1114 0
356 -58 355 1115 0
-229 -352 -146 1116 0
112 -240 414 1117 0
-98 191 -207 1118 0
-177 83 -141 1119 0
156 165 455 1120 0
-181 -107 -332 1121 0
25 139 81 1122 0
-155 497 -455 1123 0
-451 -392 -321 1124 0
224 412 445 1125 0
-338 382 105 1126 0
225 -82 -119 1127 0
-355 -284 -434 1128 0
359 367 -57 1129 0
-126 -92 63 1130 0
196 365 416 1131 0
496 470 217 1132 0
15 90 -299 1133 0
62 -276 -265 1134 0
327 450 363 1135 0
-285 -218 -78 1136 0
-328 -286 -264 1137 0
-219 209 299 1138 0
-432 479 -92 1139 0
-320 -353 -52 1140 0
11 65 -8 1141 0
404 -239 138 1142 0
17 230 329 1143 0
115 22 -249 1144 0
253 -95 268 1145 0
-273 154 -482 1146 0
-134 298 -245 1147 0
-300 222 90 1148 0
1 156 -272 1149 0
71 -330 187 1150 0
165 178 -51 1151 0
-475 283 -405 1152 0
144 -402 496 1153 0
-214 52 -92 1154 0
-161 -332 -410 1155 0
-219 271 134 1156 0
184 13 -269 1157 0
-26 114 112 1158 0
-408 483 -348 1159 0
-274 -86 -483 1160 0
39 -217 -190 1161 0
473 319 -297 1162 0
392 479 105 1163 0
288 -184 224 1164 0
499 -498 448 1165 0
312 288 -290 1166 0
126 309 -146 1167 0
-385 407 -197 1168 0
336 -123 426 1169 0
-223 400 259 1170 0
412 153 133 1171 0
5 150 324 1172 0
-173 -146 90 1173 0
11 469 262 1174 0
256 -299 225 1175 0
299 405 135 1176 0
-25 -291 21 1177 0
366 -293 370 1178 0
320 359 -112 1179 0
-480 297 -170 1180 0
322 -266 -340 1181 0
36 432 59 1182 0
-408 -292 313 1183 0
-298 -383 177 1184 0
147 13 210 1185 0
323 100 -470 1186 0
401 331 -346 1187 0
348 -378 -174 1188 0
-356 -200 44 1189 0
-73 425 -171 1190 0
-171 -144 -455 1191 0
420 415 143 1192 0
87 218 172 1193 0
78 -73 -303 1194 0
403 48 443 1195 0
-86 -221 -378 1196 0
-34 -375 321 1197 0
21 345 379 1198 0
-328 -101 -48 1199 0
156 36 -187 1200 0
392 135 448 1201 0
-23 437 -426 1202 0
285 304 47 1203 0
83 448 129 1204 0
130 209 253 1205 0
-429 -388 258 1206 0
-492 61 191 1207 0
-440 -258 -397 1208 0
-268 -329 52 1209 0
55 -353 -140 1210 0
-431 -244 246 1211 0
-78 -271 -200 1212 0
-155 -416 -428 1213 0
-498 190 77 1214 0
-380 -30 407 1215 0
-146 257 115 1216 0
-414 376 343 1217 0
441 436 -215 1218 0
-37 455 173 1219 0
439 34 434 1220 0
85 -409 250 1221 0
-211 -345 -93 1222 0
-273 353 -427 1223 0
31 -1 60 1224 0
478 208 -498 1225 0
-359 -207 338 1226 0
387 406 -375 1227 0
-439 -430 -424 1228 0
406 80 -100 1229 0
30 -240 -17 1230 0
-256 246 88 1231 0
-63 -384 -321 1232 0
115 -403 470 1233 0
-351 285 -209 1234 0
-59 -195 -402 1235 0
140 -146 -412 1236 0
144 -326 267 1237 0
53 -328 -89 1238 0
403 -138 -351 1239 0
-161 181 426 1240 0
-361 336 21 1241 0
-197 40 -128 1242 0
-22 327 -288 1243 0
-224 -215 160 1244 0
-448 465 49 1245 0
-395 255 493 1246 0
-147 -484 385 1247 0
236 142 -140 1248 0
193 -260 335 1249 0
-302 38 -159 1250 0
303 -25 -36 1251 0
-358 303 -171 1252 0
-324 248 61 1253 0
98 204 203 1254 0
-11 52 105 1255 0
259 -95 -335 1256 0
-24 -335 -397 1257 0
-42 314 184 1258 0
-174 326 -433 1259 0
-476 320 330 1260 0
435 -363 -141 1261 0
-364 -255 -400 1262 0
-68 223 -116 1263 0
-249 -259 -446 1264 0
55 217 -188 1265 0
-27 -119 -257 1266 0
298 -186 67 1267 0
209 -415 304 1268 0
160 -255 -270 1269 0
248 454 -470 1270 0
-235 -67 164 1271 0
-363 -69 -71 1272 0
-172 -383 350 1273 0
-210 -40 2 1274 0
-108 -174 106 1275 0
337 -268 -445 1276 0
-490 421 -384 1277 0
-473 214 -252 1278 0
-353 83 -434 1279 0
-177 441 -197 1280 0
129 367 338 1281 0
485 -470 174 1282 0
-500 377 -52 1283 0
-119 -5 36 1284 0
-326 -491 64 1285 0
429 31 -348 1286 0
287 351 -323 1287 0
414 152 -193 1288 0
457 -175 -445 1289 0
159 -439 259 1290 0
-42 -375 156 1291 0
14 451 391 1292 0
-472 -252 150 1293 0
183 175 457 1294 0
141 -9 155 1295 0
-459 -373 -277 1296 0
389 51 -443 1297 0
-339 394 -179 1298 0
-245 332 197 1299 0
-489 -126 -304 1300 0
-397 231 -117 1301 0
342 -441 -413 1302 0
-379 -50 185 1303 0
220 -83 -483 1304 0
-311 301 331 1305 0
-46 241 -255 1306 0
87 -428 -9 1307 0
-239 356 334 1308 0
198 457 -183 1309 0
-46 -47 -389 1310 0
-323 -158 30 1311 0
-35 462 318 1312 0
410 470 74 1313 0
-499 -32 254 1314 0
-439 87 461 1315 0
435 -135 270 1316 0
186 -219 -159 1317 0
261 -83 -221 1318 0
170 -94 -339 1319 0
-185 78 -237 1320 0
87 230 -373 1321 0
-459 -432 -341 1322 0
-170 227 408 1323 0
412 -195 310 1324 0
465 144 95 1325 0
93 -140 498 1326 0
441 3 355 1327 0
-271 -76 380 1328 0
-309 457 -370 1329 0
394 113 451 1330 0
165 -30 -368 1331 0
-399 323 237 1332 0
-416 422 241 1333 0
104 -386 -429 1334 0
152 103 205 1335 0
437 285 -66 1336 0
382 -113 -356 1337 0
-54 -147 -7 1338 0
491 39 -138 1339 0
-163 372 125 1340 0
-498 45 120 1341 0
254 204 388 1342 0
-217 -386 90 1343 0
53 171 448 1344 0
-254 -181 416 1345 0
350 -483 363 1346 0
135 -432 -166 1347 0
-143 -104 -29 1348 0
177 84 500 1349 0
-373 384 315 1350 0
-392 -383 -398 1351 0
363 -201 -477 1352 0
-151 167 -61 1353 0
-205 134 116 1354 0
-312 -367 -64 1355 0
223 -316 87 1356 0
-209 -37 293 1357 0
-346 288 -249 1358 0
331 -208 -81 1359 0
-29 -103 487 1360 0
-199 115 -264 1361 0
68 -449 -245 1362 0
-251 -249 2 1363 0
-274 -317 486 1364 0
357 252 -480 1365 0
392 407 -304 1366 0
336 337 412 1367 0
-162 -426 -293 1368 0
62 351 -345 1369 0
-99 202 83 1370 0
136 -215 -113 1371 0
-279 -333 -324 1372 0
-432 426 -409 1373 0
-346 -269 -282 1374 0
-244 -4 250 1375 0
293 -10 -310 1376 0
-393 215 135 1377 0
79 39 41 1378 0
416 -433 -44 1379 0
401 173 -287 1380 0
431 85 -169 1381 0
308 111 224 1382 0
-142 -238 -137 1383 0
-275 -146 482 1384 0
15 472 -141 1385 0
-301 466 380 1386 0
-285 44 32 1387 0
-246 -317 -285 1388 0
112 -59 -76 1389 0
-5 482 -270 1390 0
149 365 106 1391 0
237 -357 -18 1392 0
81 471 387 1393 0
-251 238 -499 1394 0
-64 17 -321 1395 0
423 -29 -379 1396 0
-90 20 185 1397 0
129 152 141 1398 0
-140 -301 258 1399 0
-292 36 -248 1400 0
345 475 463 1401 0
-212 156 75 1402 0
201 235 75 1403 0
35 122 -431 1404 0
-151 -260 -402 1405 0
146 122 -348 1406 0
-433 137 292 1407 0
-378 -495 368 1408 0
1 462 317 1409 0
-25 -468 492 1410 0
22 -61 485 1411 0
-197 -263 257 1412 0
-397 -331 27 1413 0
57 -170 -253 1414 0
-207 -459 -241 1415 0
-374 359 -251 1416 0
-222 -465 80 1417 0
-463 394 42 1418 0
240 -84 -217 1419 0
-383 440 319 1420 0
-390 -350 -77 1421 0
-176 -351 86 1422 0
402 265 -119 1423 0
298 57 -481 1424 0
-390 -218 461 1425 0
147 247 -141 1426 0
-288 445 301 1427 0
112 162 -73 1428 0
457 -25 106 1429 0
477 -351 382 1430 0
-375 -118 232 1431 0
-65 117 -37 1432 0
73 9 -49 1433 0
178 62 280 1434 0
66 -268 224 1435 0
-217 80 -288 1436 0
-211 348 -447 1437 0
141 -483 -247 1438 0
348 137 495 1439 0
362 -307 -151 1440 0
156 93 -117 1441 0
314 -121 317 1442 0
-210 -126 247 1443 0
-394 464 483 1444 0
-268 -496 -104 1445 0
458 -426 -350 1446 0
136 412 -201 1447 0
-468 -11 -109 1448 0
-385 475 102 1449 0
388 125 -479 1450 0
-1 211 -429 1451 0
111 338 384 1452 0
393 -127 -151 1453 0
359 255 299 1454 0
-437 -157 -131 1455 0
-497 133 87 1456 0
-213 -174 46 1457 0
414 -206 -137 1458 0
280 416 66 1459 0
148 427 -405 1460 0
-267 -31 311 1461 0
-339 28 -413 1462 0
82 379 60 1463 0
448 23 51 1464 0
27 133 -410 1465 0
252 458 375 1466 0
295 123 -387 1467 0
-118 262 -292 1468 0
71 -280 -356 1469 0
280 62 -291 1470 0
-419 5 412 1471 0
50 400 -188 1472 0
166 -26 -446 1473 0
-321 -37 146 1474 0
-499 34 113 1475 0
176 500 -110 1476 0
311 9 -365 1477 0
358 -463 -429 1478 0
-407 175 -15 1479 0
182 -423 318 1480 0
-21 -241 396 1481 0
-301 -422 221 1482 0
-247 -99 489 1483 0
488 -213 236 1484 0
-337 -150 492 1485 0
290 -183 278 1486 0
-229 -263 -438 1487 0
-177 -202 62 1488 0
-478 -500 -357 1489 0
164 154 -183 1490 0
95 128 -14 1491 0
-448 -21 -423 1492 0
-199 -172 500 1493 0
34 147 -416 1494 0
-149 116 107 1495 0
-306 -58 6 1496 0
345 -19 -445 1497 0
-342 470 115 1498 0
37 352 13 1499 0
57 -234 103 1500 0
-183 210 -135 1501 0
-305 375 -85 1502 0
33 -288 285 1503 0
84 369 71 1504 0
-34 319 200 1505 0
-19 -237 448 1506 0
51 -229 398 1507 0
-380 -216 -375 1508 0
29 107 55 1509 0
-469 166 -178 1510 0
-151 -449 234 1511 0
-73 18 -487 1512 0
-313 -359 -469 1513 0
-49 417 -330 1514 0
-162 182 -336 1515 0
-213 199 381 1516 0
-30 -397 -454 1517 0
287 -11 387 1518 0
-54 451 37 1519 0
230 -419 175 1520 0
282 -116 137 1521 0
376 -496 333 1522 0
-361 -98 -41 1523 0
-20 -216 -309 1524 0
-176 -9 93 1525 0
-64 -43 -141 1526 0
249 187 222 1527 0
-225 353 482 1528 0
-415 22 -314 1529 0
-53 73 -9 1530 0
-309 248 -325 1531 0
438 222 377 1532 0
181 165 -246 1533 0
453 223 203 1534 0
146 -437 421 1535 0
-414 -127 443 1536 0
-155 -158 -414 1537 0
-449 85 402 1538 0
-93 -234 71 1539 0
295 330 -208 1540 0
-60 238 266 1541 0
-216 463 453 1542 0
-173 -392 -495 1543 0
392 108 204 1544 0
-299 176 241 1545 0
497 -461 -456 1546 0
-170 -75 -107 1547 0
45 43 -52 1548 0
335 -278 -215 1549 0
248 -18 335 1550 0
55 382 -465 1551 0
206 306 -393 1552 0
306 -327 -32 1553 0
-381 317 376 1554 0
-116 129 -92 1555 0
-98 -131 -189 1556 0
226 -415 -210 1557 0
109 -37 180 1558 0
-54 -136 409 1559 0
-299 229 222 1560 0
-497 269 -240 1561 0
-12 239 -279 1562 0
66 53 155 1563 0
-43 35 26 1564 0
-354 280 122 1565 0
382 257 -117 1566 0
382 384 414 1567 0
-140 201 -466 1568 0
-388 221 -358 1569 0
-480 215 -304 1570 0
-333 191 168 1571 0
237 399 299 1572 0
-142 -497 224 1573 0
276 417 -313 1574 0
128 -136 -121 1575 0
91 -90 -243 1576 0
279 127 147 1577 0
285 169 -201 1578 0
31 -151 -472 1579 0
-445 52 231 1580 0
-500 -98 375 1581 0
224 -493 238 1582 0
-280 159 -452 1583 0
228 -470 209 1584 0
164 -59 38 1585 0
-283 -155 -227 1586 0
-269 -128 -145 1587 0
484 -354 -177 1588 0
450 104 -61 1589 0
391 -292 376 1590 0
166 -165 110 1591 0
-224 -108 62 1592 0
-17 213 -257 1593 0
16 188 238 1594 0
70 -201 -311 1595 0
-249 174 112 1596 0
-163 -295 -5 1597 0
437 -171 -159 1598 0
130 295 446 1599 0
-241 -181 87 1600 0
-258 14 91 1601 0
-472 50 259 1602 0
440 247 -172 1603 0
-455 -272 492 1604 0
-390 -278 132 1605 0
-97 393 136 1606 0
76 -86 140 1607 0
98 -340 198 1608 0
-471 -304 446 1609 0
466 -294 -359 1610 0
-342 -414 84 1611 0
-173 -453 -134 1612 0
-468 461 -148 1613 0
355 -337 462 1614 0
-135 -406 450 1615 0
-341 117 -412 1616 0
-80 218 -287 1617 0
75 -351 -306 1618 0
-484 225 77 1619 0
-373 -393 354 1620 0
124 -21 3 1621 0
445 111 -444 1622 0
296 469 380 1623 0
-306 -288 -372 1624 0
103 212 352 1625 0
-61 28 -172 1626 0
-280 407 153 1627 0
343 -462 -281 1628 0
11 188 304 1629 0
-231 -227 387 1630 0
278 -51 497 1631 0
331 -53 404 1632 0
491 -66 -134 1633 0
-406 -187 51 1634 0
-368 -343 -485 1635 0
-52 -11 155 1636 0
415 -271 153 1637 0
-368 364 409 1638 0
-134 -139 379 1639 0
-439 -444 88 1640 0
420 87 -353 1641 0
-145 142 -325 1642 0
-390 319 -16 1643 0
-161 305 -77 1644 0
136 114 -403 1645 0
279 -94 -350 1646 0
124 121 -211 1647 0
-122 498 -101 1648 0
-303 -91 -432 1649 0
-263 -485 -357 1650 0
30 -10 216 1651 0
155 -110 -294 1652 0
-427 279 -134 1653 0
-455 -166 -480 1654 0
445 365 56 1655 0
-144 -483 -88 1656 0
-133 -447 108 1657 0
-426 -400 -35 1658 0
218 -470 151 1659 0
-495 186 -249 1660 0
395 214 -154 1661 0
285 415 447 1662 0
416 408 452 1663 0
-452 17 371 1664 0
415 -126 -292 1665 0
-79 187 -393 1666 0
172 248 -272 1667 0
378 39 -27 1668 0
382 -19 -304 1669 0
489 -349 389 1670 0
-257 -196 146 1671 0
269 -28 -30 1672 0
468 -423 427 1673 0
-280 234 83 1674 0
98 59 147 1675 0
-188 -273 91 1676 0
135 182 -306 1677 0
-180 205 7 1678 0
-496 65 -6 1679 0
262 241 276 1680 0
24 322 -159 1681 0
-15 44 65 1682 0
-404 101 -300 1683 0
496 197 435 1684 0
383 78 -268 1685 0
116 261 357 1686 0
96 -376 275 1687 0
265 7 -465 1688 0
-169 -72 -489 1689 0
-106 -74 -449 1690 0
51 105 -124 1691 0
323 500 -119 1692 0
-289 -407 -67 1693 0
109 118 413 1694 0
-64 452 166 1695 0
-237 27 422 1696 0
-176 129 359 1697 0
293 452 -59 1698 0
48 163 316 1699 0
257 169 311 1700 0
-201 399 351 1701 0
104 -327 93 1702 0
-422 252 -50 1703 0
-146 442 317 1704 0
-395 454 -494 1705 0
-107 -65 -317 1706 0
337 408 -470 1707 0
370 404 -275 1708 0
284 259 157 1709 0
-400 455 35 1710 0
284 107 49 1711 0
162 402 223 1712 0
-319 58 -205 1713 0
425 9 115 1714 0
395 462 -328 1715 0
483 -484 320 1716 0
404 34 335 1717 0
-20 -3 445 1718 0
-79 -3 -171 1719 0
-143 -288 -475 1720 0
366 -47 -98 1721 0
-215 -327 442 1722 0
-142 282 -367 1723 0
220 -182 379 1724 0
15 -191 -472 1725 0
-302 -270 32 1726 0
215 27 -300 1727 0
355 14 -119 1728 0
-350 -493 137 1729 0
229 -386 306 1730 0
-50 12 -21 1731 0
-399 350 -90 1732 0
-305 70 93 1733 0
485 -458 470 1734 0
135 427 -353 1735 0
162 -275 170 1736 0
-140 -213 215 1737 0
426 314 461 1738 0
468 -292 393 1739 0
340 369 442 1740 0
-20 -193 170 1741 0
-251 62 26 1742 0
-3 190 363 1743 0
-129 109 -414 1744 0
287 371 -206 1745 0
-99 -467 213 1746 0
-448 339 -325 1747 0
-146 -224 210 1748 0
-379 89 -384 1749 0
80 285 392 1750 0
-321 -232 276 1751 0
-197 -466 472 1752 0
67 142 -365 1753 0
159 -94 -334 1754 0
410 -119 -186 1755 0
-346 -207 214 1756 0
93 -192 -50 1757 0
-396 -365 263 1758 0
85 -84 -427 1759 0
155 121 300 1760 0
-458 -309 -168 1761 0
-452 -174 294 1762 0
-267 291 -95 1763 0
311 -247 -319 1764 0
366 -486 -238 1765 0
-92 487 -37 1766 0
258 374 -271 1767 0
-289 472 475 1768 0
-462 -258 142 1769 0
313 -115 -416 1770 0
454 414 -279 1771 0
-242 -481 -67 1772 0
-334 243 -429 1773 0
-96 -382 45 1774 0
398 -137 274 1775 0
396 433 294 1776 0
218 -490 -9 1777 0
-213 -437 312 1778 0
167 -411 -159 1779 0
-25 13 -180 1780 0
323 -1 -321 1781 0
19 -330 -224 1782 0
143 483 -257 1783 0
-438 123 -37 1784 0
81 -277 -416 1785 0
322 130 -33 1786 0
-333 311 209 1787 0
-439 204 -4 1788 0
-281 -252 -75 1789 0
35 471 -153 1790 0
-205 486 468 1791 0
-453 124 -115 1792 0
-228 287 -457 1793 0
-4 341 121 1794 0
127 -23 -258 1795 0
-149 402 274 1796 0
316 50 -91 1797 0
10 136 -216 1798 0
-190 -274 -163 1799 0
-309 -111 381 1800 0
309 -486 -489 1801 0
-484 -487 251 1802 0
32 126 228 1803 0
104 373 -10 1804 0
-223 86 95 1805 0
192 120 63 1806 0
-186 -29 -259 1807 0
-252 -204 -78 1808 0
162 383 -478 1809 0
144 -81 434 1810 0
-245 -381 122 1811 0
6 -137 -165 1812 0
412 -158 252 1813 0
-72 262 279 1814 0
-204 -470 -82 1815 0
-278 392 227 1816 0
363 131 436 1817 0
-383 -229 -324 1818 0
175 -268 -36 1819 0
281 301 352 1820 0
-134 -447 476 1821 0
229 -178 -282 1822 0
36 471 -279 1823 0
-4 -398 -204 1824 0
55 -21 -133 1825 0
-273 195 -278 1826 0
419 -120 103 1827 0
-143 306 -266 1828 0
454 76 -98 1829 0
337 22 393 1830 0
112 -433 408 1831 0
-141 107 -13 1832 0
120 334 391 1833 0
-45 264 341 1834 0
-373 -216 -351 1835 0
353 -316 46 1836 0
-448 -420 453 1837 0
465 113 -54 1838 0
-93 384 -421 1839 0
-262 252 -40 1840 0
205 95 120 1841 0
-308 -453 321 1842 0
480 451 460 1843 0
206 -426 -430 1844 0
-385 -282 116 1845 0
-336 -333 -254 1846 0
-241 316 434 1847 0
-345 459 69 1848 0
165 -25 -291 1849 0
-240 462 98 1850 0
-125 -153 83 1851 0
231 352 407 1852 0
-199 -231 -3 1853 0
-30 -429 101 1854 0
185 55 -82 1855 0
-492 -477 -341 1856 0
45 -182 -180 1857 0
-84 269 221 1858 0
438 3 159 1859 0
150 -294 181 1860 0
-264 -133 -453 1861 0
136 1 -432 1862 0
454 131 308 1863 0
470 -225 280 1864 0
54 434 376 1865 0
-78 154 -266 1866 0
262 324 14 1867 0
469 299 409 1868 0
283 423 227 1869 0
-310 40 -227 1870 0
154 -250 225 1871 0
-467 132 -248 1872 0
-308 -90 -372 1873 0
85 16 -475 1874 0
442 423 132 1875 0
-382 -384 -190 1876 0
-485 116 115 1877 0
-110 493 -442 1878 0
372 242 -499 1879 0
-21 -88 168 1880 0
373 417 -293 1881 0
206 5 -184 1882 0
-133 414 198 1883 0
455 -369 255 1884 0
166 398 496 1885 0
-279 -312 -300 1886 0
155 386 -253 1887 0
-431 395 -467 1888 0
7 -47 136 1889 0
-312 222 236 1890 0
-27 206 -34 1891 0
-54 -280 478 1892 0
278 -99 430 1893 0
163 471 -56 1894 0
184 -433 328 1895 0
-207 275 -404 1896 0
308 -183 403 1897 0
-66 -123 374 1898 0
482 -454 -71 1899 0
-296 -87 462 1900 0
106 69 -168 1901 0
2 -230 262 1902 0
-65 -103 269 1903 0
355 105 -366 1904 0
-329 70 -199 1905 0
-442 450 174 1906 0
108 -62 267 1907 0
107 -87 474 1908 0
-101 459 110 1909 0
377 30 -323 1910 0
-245 174 -247 1911 0
47 -339 -416 1912 0
465 -416 -285 1913 0
-3 -300 -326 1914 0
237 496 107 1915 0
-311 486 344 1916 0
164 -236 218 1917 0
-464 -435 -477 1918 0
71 -483 112 1919 0
-96 -357 -309 1920 0
451 -465 -167 1921 0
88 -161 307 1922 0
201 -228 195 1923 0
420 -334 82 1924 0
-338 -259 -361 1925 0
401 126 -137 1926 0
-320 45 125 1927 0
-429 388 -76 1928 0
-85 -278 -184 1929 0
397 131 460 1930 0
-179 -219 -425 1931 0
346 451 -387 1932 0
-203 -393 -19 1933 0
438 -84 -252 1934 0
163 -176 -14 1935 0
-133 -57 -111 1936 0
-454 334 -424 1937 0
356 -74 62 1938 0
-334 183 17 1939 0
-55 81 -150 1940 0
-374 -200 376 1941 0
496 -150 261 1942 0
-19 127 -398 1943 0
-362 241 -305 1944 0
-197 16 -348 1945 0
373 500 139 1946 0
-366 486 -379 1947 0
337 317 -127 1948 0
-220 157 -228 1949 0
-65 -107 372 1950 0
-8 -257 283 1951 0
-451 -85 27 1952 0
314 362 -343 1953 0
151 161 430 1954 0
258 -238 -110 1955 0
-330 -473 -308 1956 0
457 -80 69 1957 0
-478 -321 -209 1958 0
-344 -447 11 1959 0
-357 -422 389 1960 0
237 -159 -478 1961 0
-245 -235 251 1962 0
56 355 400 1963 0
319 -473 426 1964 0
100 332 311 1965 0
-365 -414 53 1966 0
347 117 331 1967 0
-470 -235 412 1968 0
293 -3 -211 1969 0
404 -223 67 1970 0
-115 -318 142 1971 0
171 317 122 1972 0
329 -34 -154 1973 0
444 95 88 1974 0
-321 -300 -89 1975 0
-36 334 -177 1976 0
199 -487 -137 1977 0
70 -33 -359 1978 0
-91 -346 181 1979 0
107 172 86 1980 0
236 -499 459 1981 0
346 452 30 1982 0
-471 -102 480 1983 0
-134 88 -176 1984 0
218 227 -279 1985 0
444 347 -433 1986 0
127 145 123 1987 0
-106 -200 -399 1988 0
298 151 -398 1989 0
433 -417 -219 1990 0
220 -58 402 1991 0
121 -236 210 1992 0
-297 157 -263 1993 0
187 -111 412 1994 0
493 58 42 1995 0
65 341 270 1996 0
216 451 -373 1997 0
71 -210 232 1998 0
126 106 -60 1999 0
239 -405 -196 2000 0
162 -94 337 2001 0
-452 380 413 2002 0
-24 -302 3 2003 0
455 356 373 2004 0
-201 36 262 2005 0
136 393 -63 2006 0
-17 -449 -410 2007 0
-466 174 275 2008 0
434 -303 469 2009 0
478 92 -450 2010 0
219 -437 345 2011 0
313 -412 25 2012 0
-113 233 -37 2013 0
-324 292 -297 2014 0
473 -390 -262 2015 0
-421 286 179 2016 0
231 452 365 2017 0
-488 173 -323 2018 0
420 -65 304 2019 0
10 91 -107 2020 0
387 389 -42 2021 0
457 154 250 2022 0
-350 75 -196 2023 0
-460 119 436 2024 0
321 303 147 2025 0
-172 -264 468 2026 0
-467 180 -406 2027 0
-367 466 500 2028 0
-145 -150 -117 2029 0
-242 26 -150 2030 0
32 451 -395 2031 0
247 -215 31 2032 0
-91 -215 179 2033 0
-198 -48 -124 2034 0
-286 139 198 2035 0
309 -384 -498 2036 0
132 30 425 2037 0
292 -500 -240 2038 0
484 168 408 2039 0
-444 457 -53 2040 0
237 -67 -166 2041 0
75 -186 473 2042 0
103 316 133 2043 0
-252 324 -303 2044 0
388 323 124 2045 0
69 -482 3 2046 0
-287 -121 55 2047 0
481 -309 308 2048 0
-165 -359 -173 2049 0
-259 276 -417 2050 0
75 213 -219 2051 0
397 -48 166 2052 0
-471 9 -147 2053 0
-81 -259 214 2054 0
231 164 -313 2055 0
-254 76 273 2056 0
351 -29 -269 2057 0
197 201 -421 2058 0
-210 -31 53 2059 0
-381 -236 318 2060 0
104 -153 -276 2061 0
52 304 -148 2062 0
127 209 31 2063 0
-280 422 -29 2064 0
-257 -9 -255 2065 0
-307 -241 -248 2066 0
341 -70 -440 2067 0
336 -234 228 2068 0
58 174 -155 2069 0
-25 470 -427 2070 0
114 35 -272 2071 0
102 121 175 2072 0
-434 -84 135 2073 0
-395 -93 429 2074 0
-92 214 497 2075 0
-339 -123 -219 2076 0
-199 54 29 2077 0
-61 328 15 2078 0
-164 -464 -440 2079 0
-480 267 -475 2080 0
485 398 -464 2081 0
-426 24 80 2082 0
134 123 -373 2083 0
206 326 -213 2084 0
-382 -422 -76 2085 0
106 -78 -443 2086 0
-220 -345 95 2087 0
13 -315 44 2088 0
-454 -323 -200 2089 0
-421 -428 317 2090 0
320 68 -333 2091 0
280 -113 -147 2092 0
286 -491 -316 2093 0
471 90 -334 2094 0
-144 456 188 2095 0
120 226 -387 2096 0
-141 -56 -268 2097 0
67 -352 276 2098 0
-123 -224 -460 2099 0
-249 184 -152 2100 0
-195 360 369 2101 0
229 48 -181 2102 0
148 -483 169 2103 0
-289 -134 -325 2104 0
227 -245 128 2105 0
440 -485 174 2106 0
230 -412 455 2107 0
-130 220 -375 2108 0
-55 -200 -371 2109 0
277 -436 407 2110 0
-71 33 -113 2111 0
-329 -142 493 2112 0
-478 -401 499 2113 0
224 478 218 2114 0
-318 168 -81 2115 0
-370 332 97 2116 0
370 167 55 2117 0
157 223 130 2118 0
-67 -58 153 2119 0
413 -297 -308 2120 0
-461 481 211 2121 0
375 298 -187 2122 0
150 144 -364 2123 0
467 297 344 2124 0
231 -255 -64 2125 0
-498 -476 -218 2126 0
23 -5 -242 2127 0
-402 375 -35 2128 0
178 -20 -140 2129 0
-473 217 -361 2130 0
429 231 -386 2131 0
-243 34 403 2132 0
-277 -293 495 2133 0
20 -295 -479 2134 0
-489 -53 -410 2135 0
151 -32 243 2136 0
133 -208 -351 2137 0
-422 220 -201 2138 0
-129 -34 -97 2139 0
124 46 472 2140 0
465 330 -163 2141 0
-6 142 292 2142 0
20 -379 -277 2143 0
-463 -288 27 2144 0
299 -357 -192 2145 0
-105 -431 -176 2146 0
347 254 -89 2147 0
41 191 -422 2148 0
-418 493 -346 2149 0
-486 -55 436 2150 0
-494 -144 -162 2151 0
258 -405 473 2152 0
-16 -275 77 2153 0
-190 72 143 2154 0
-313 -198 -69 2155 0
-380 156 -417 2156 0
344 -452 306 2157 0
-306 86 -472 2158 0
-254 410 181 2159 0
305 401 -66 2160 0
253 -187 -477 2161 0
38 -377 321 2162 0
-34 -363 -325 2163 0
-360 -314 -467 2164 0
-391 -18 -130 2165 0
-193 -167 403 2166 0
-29 366 278 2167 0
473 -239 -207 2168 0
156 -117 198 2169 0
-434 231 -119 2170 0
35 -244 -453 2171 0
288 86 80 2172 0
1 43 163 2173 0
270 403 382 2174 0
-148 -302 93 2175 0
-39 10 -159 2176 0
-197 -420 190 2177 0
436 -53 228 2178 0
-350 -458 -136 2179 0
-29 207 -18 2180 0
-259 31 69 2181 0
-35 119 -301 2182 0
384 -275 229 2183 0
-78 127 214 2184 0
-346 -302 304 2185 0
131 211 -231 2186 0
-355 -468 489 2187 0
302 452 443 2188 0
53 -285 63 2189 0
-227 -204 16 2190 0
270 450 405 2191 0
498 133 -381 2192 0
12 -339 408 2193 0
-164 396 165 2194 0
-188 -207 -111 2195 0
50 320 196 2196 0
395 -328 104 2197 0
215 498 404 2198 0
-366 388 -267 2199 0
215 192 193 2200 0
-310 -338 -485 2201 0
112 -241 298 2202 0
-477 -373 -297 2203 0
389 -47 315 2204 0
-327 337 211 2205 0
-130 -375 -280 2206 0
64 -25 -21 2207 0
-349 394 -236 2208 0
-32 -487 -96 2209 0
118 400 -494 2210 0
171 173 66 2211 0
11 232 359 2212 0
1 87 -132 2213 0
-132 60 -307 2214 0
330 -381 137 2215 0
74 -203 -81 2216 0
-34 33 -482 2217 0
29 120 -249 2218 0
-272 294 276 2219 0
94 -216 227 2220 0
328 96 -318 2221 0
229 294 460 2222 0
-261 106 284 2223 0
-175 463 -43 2224 0
-227 -384 -217 2225 0
104 52 284 2226 0
-491 -337 -287 2227 0
-226 475 -395 2228 0
-283 -43 210 2229 0
-370 -142 -475 2230 0
211 422 413 2231 0
94 300 -89 2232 0
-399 -357 109 2233 0
-464 289 -328 2234 0
-446 -217 335 2235 0
-172 -306 166 2236 0
-74 407 -440 2237 0
-331 461 367 2238 0
251 -207 -129 2239 0
-99 -318 -210 2240 0
-449 -330 -26 2241 0
114 204 -223 2242 0
-5 226 -178 2243 0
-17 22 -79 2244 0
34 -128 420 2245 0
183 -194 9 2246 0
305 -74 -369 2247 0
370 -300 -85 2248 0
-447 -223 -156 2249 0
-213 155 373 2250 0
248 482 312 2251 0
8 147 300 2252 0
-233 -47 -35 2253 0
111 -307 378 2254 0
367 -359 -426 2255 0
112 363 -418 2256 0
485 -458 -134 2257 0
250 -148 449 2258 0
356 -494 -56 2259 0
205 -2 -26 2260 0
185 -375 261 2261 0
139 -210 269 2262 0
-355 -149 -222 2263 0
-18 161 167 2264 0
-9 183 280 2265 0
-290 -379 190 2266 0
-185 167 17 2267 0
-266 -280 -52 2268 0
318 115 493 2269 0
-141 386 248 2270 0
398 357 -370 2271 0
92 339 -75 2272 0
479 282 -98 2273 0
227 283 -177 2274 0
-202 84 150 2275 0
-495 45 -328 2276 0
-251 -117 436 2277 0
-249 -337 -412 2278 0
303 249 321 2279 0
178 24 73 2280 0
-405 -1 -303 2281 0
298 -490 -28 2282 0
-494 -404 440 2283 0
-369 -271 97 2284 0
-332 -5 -447 2285 0
-294 42 -231 2286 0
64 -145 422 2287 0
318 451 311 2288 0
-77 247 -276 2289 0
180 -139 357 2290 0
-467 -271 -340 2291 0
139 -287 -223 2292 0
314 238 142 2293 0
383 -432 -277 2294 0
270 347 -318 2295 0
-230 -353 -463 2296 0
404 -481 -442 2297 0
111 -283 -205 2298 0
-140 -256 196 2299 0
321 -150 -62 2300 0
85 -124 -363 2301 0
-35 410 -247 2302 0
197 -219 -250 2303 0
58 207 13 2304 0
-325 359 -307 2305 0
-466 41 -345 2306 0
-190 -227 257 2307 0
-56 296 -184 2308 0
-275 142 13 2309 0
-65 -55 -262 2310 0
-242 -135 298 2311 0
72 308 -384 2312 0
-413 5 449 2313 0
191 -146 -198 2314 0
-286 6 -92 2315 0
413 195 384 2316 0
87 102 -199 2317 0
31 -112 -60 2318 0
-57 383 163 2319 0
413 -457 -465 2320 0
-341 371 -342 2321 0
215 -300 233 2322 0
-148 -124 185 2323 0
-257 -126 169 2324 0
341 -269 49 2325 0
-17 -50 -196 2326 0
120 162 272 2327 0
-29 101 -378 2328 0
-229 203 242 2329 0
284 -467 299 2330 0
-269 -470 -348 2331 0
-464 12 310 2332 0
-360 299 57 2333 0
53 -314 -167 2334 0
190 -138 213 2335 0
162 264 335 2336 0
-352 139 -357 2337 0
-382 351 -223 2338 0
237 165 412 2339 0
-483 98 -17 2340 0
-165 309 11 2341 0
-99 -123 -85 2342 0
181 278 466 2343 0
305 153 -306 2344 0
450 310 290 2345 0
376 -92 -388 2346 0
275 -64 413 2347 0
-470 213 491 2348 0
17 -115 388 2349 0
-312 -298 -45 2350 0
-125 214 -187 2351 0
434 -363 9 2352 0
297 -452 223 2353 0
313 -67 -291 2354 0
-367 -16 -396 2355 0
305 314 -267 2356 0
257 222 -480 2357 0
20 249 160 2358 0
420 -352 494 2359 0
430 -100 -29 2360 0
-41 269 261 2361 0
-322 -207 129 2362 0
127 481 -261 2363 0
-498 142 -443 2364 0
-129 476 493 2365 0
-340 180 59 2366 0
-228 -3 -431 2367 0
-221 -34 324 2368 0
-270 -195 197 2369 0
475 -166 -435 2370 0
-76 -273 -460 2371 0
206 478 -442 2372 0
261 183 -337 2373 0
162 -182 132 2374 0
374 298 125 2375 0
454 -20 462 2376 0
153 64 -409 2377 0
-92 -436 94 2378 0
-159 -124 49 2379 0
476 388 -160 2380 0
-493 403 -127 2381 0
-139 98 145 2382 0
137 -357 214 2383 0
-393 -208 -227 2384 0
-96 84 113 2385 0
89 154 -349 2386 0
-477 260 205 2387 0
350 -163 107 2388 0
174 378 122 2389 0
-169 188 348 2390 0
496 -342 440 2391 0
-207 -163 195 2392 0
-72 168 372 2393 0
356 280 -338 2394 0
274 -300 -279 2395 0
352 -279 476 2396 0
-391 463 286 2397 0
-238 -368 -5 2398 0
-168 332 -370 2399 0
-65 105 -175 2400 0
468 250 407 2401 0
-217 283 133 2402 0
79 -245 486 2403 0
289 205 -100 2404 0
340 -264 -429 2405 0
-3 -300 -221 2406 0
3 -17 41 2407 0
-215 -167 -90 2408 0
332 329 250 2409 0
-440 -260 217 2410 0
384 315 27 2411 0
212 367 -232 2412 0
-168 79 286 2413 0
-147 -302 201 2414 0
-384 42 -229 2415 0
-72 -79 13 2416 0
204 -92 57 2417 0
433 -3 29 2418 0
297 -207 276 2419 0
-40 -497 140 2420 0
22 -147 257 2421 0
8 296 -203 2422 0
94 17 86 2423 0
122 -207 127 2424 0
291 -12 163 2425 0
-345 -14 280 2426 0
173 394 -77 2427 0
316 -43 -94 2428 0
-36 472 153 2429 0
257 439 333 2430 0
187 -282 -1 2431 0
443 333 297 2432 0
131 421 -83 2433 0
130 -476 331 2434 0
-28 236 -136 2435 0
315 44 -38 2436 0
-14 -238 -74 2437 0
-336 -173 367 2438 0
-76 -444 481 2439 0
-17 428 33 2440 0
-496 -366 -135 2441 0
-375 280 149 2442 0
-287 321 -168 2443 0
-45 -240 -292 2444 0
-14 -209 412 2445 0
-394 -456 107 2446 0
-163 203 -246 2447 0
459 128 -224 2448 0
85 -137 500 2449 0
-429 415 319 2450 0
250 -398 -88 2451 0
-216 153 264 2452 0
234 121 464 2453 0
161 243 487 2454 0
-497 -484 455 2455 0
455 234 78 2456 0
156 -399 109 2457 0
106 -3 -264 2458 0
-338 164 -213 2459 0
-292 -172 -133 2460 0
-202 207 -189 2461 0
106 -125 -445 2462 0
-479 -447 163 2463 0
-101 428 -358 2464 0
-409 -69 223 2465 0
88 461 26 2466 0
344 -147 450 2467 0
-331 -319 -65 2468 0
235 -104 -222 2469 0
319 -25 -136 2470 0
477 -361 -16 2471 0
256 -164 -127 2472 0
-369 -93 387 2473 0
-7 426 208 2474 0
-162 -114 354 2475 0
468 397 20 2476 0
220 90 -422 2477 0
-253 -229 -431 2478 0
-249 -188 366 2479 0
-29 -198 -260 2480 0
-56 -170 -415 2481 0
203 -212 431 2482 0
416 -29 -496 2483 0
386 91 315 2484 0
-365 -349 19 2485 0
-256 415 123 2486 0
29 -319 -370 2487 0
296 439 -357 2488 0
-190 216 -287 2489 0
-326 271 -451 2490 0
409 258 -235 2491 0
66 12 152 2492 0
266 -208 460 2493 0
-482 356 92 2494 0
139 -180 115 2495 0
463 -392 -436 2496 0
261 486 -8 2497 0
403 -110 350 2498 0
-209 355 494 2499 0
72 106 -270 2500 0
384 -110 -19 2501 0
418 221 188 2502 0
353 -375 442 2503 0
-249 -160 -264 2504 0
-369 350 -8 2505 0
340 384 188 2506 0
-306 449 249 2507 0
366 -410 477 2508 0
417 -330 -39 2509 0
-377 449 313 2510 0
169 382 273 2511 0
-264 305 204 2512 0
-48 384 -337 2513 0
-440 -205 -403 2514 0
-296 -476 -270 2515 0
16 -26 463 2516 0
-420 189 93 2517 0
-45 -481 -282 2518 0
461 -192 -482 2519 0
270 -73 163 2520 0
-171 255 -97 2521 0
-486 90 -243 2522 0
241 160 -60 2523 0
-354 -51 -102 2524 0
-482 369 179 2525 0
-11 -303 -174 2526 0
327 -395 -499 2527 0
-408 -339 285 2528 0
-407 -104 -389 2529 0
-87 -165 294 2530 0
72 58 -332 2531 0
-277 394 420 2532 0
293 -484 -496 2533 0
223 88 278 2534 0
-424 194 -142 2535 0
-202 49 412 2536 0
-323 -351 254 2537 0
497 118 -249 2538 0
329 -7 138 2539 0
-349 231 -314 2540 0
-321 -311 494 2541 0
141 270 -404 2542 0
-246 363 -267 2543 0
51 470 -152 2544 0
-447 106 12 2545 0
204 54 -169 2546 0
-66 455 -311 2547 0
420 109 -181 2548 0
-366 351 -205 2549 0
-467 -372 105 2550 0
466 208 -265 2551 0
309 33 -429 2552 0
-99 -101 152 2553 0
408 474 415 2554 0
-53 -11 245 2555 0
-293 -158 33 2556 0
62 136 -204 2557 0
-430 473 -312 2558 0
-324 -354 -496 2559 0
260 -197 356 2560 0
107 378 -373 2561 0
14 228 -335 2562 0
472 -181 -341 2563 0
-208 401 -389 2564 0
-6 -338 -390 2565 0
-359 -118 451 2566 0
-50 -81 -88 2567 0
157 -183 -433 2568 0
-90 -419 -405 2569 0
142 -104 361 2570 0
-151 -316 438 2571 0
-481 -236 190 2572 0
404 -229 27 2573 0
-416 92 90 2574 0
-380 -227 317 2575 0
289 -3 -40 2576 0
-127 -490 -23 2577 0
79 -86 -85 2578 0
305 493 196 2579 0
466 328 261 2580 0
-284 314 -406 2581 0
-400 -313 -455 2582 0
348 236 -262 2583 0
-271 302 413 2584 0
-242 -24 -251 2585 0
425 -76 480 2586 0
398 189 456 2587 0
126 -322 -416 2588 0
-312 -53 -139 2589 0
-322 -34 1 2590 0
348 394 -235 2591 0
331 446 -144 2592 0
-137 38 147 2593 0
-198 -489 -483 2594 0
-92 401 254 2595 0
-172 -248 -460 2596 0
-361 396 -388 2597 0
-454 -348 441 2598 0
-347 -158 325 2599 0
437 -197 476 2600 0
-424 -396 471 2601 0
-123 -189 -489 2602 0
-129 -59 -94 2603 0
393 -438 -231 2604 0
241 -430 -495 2605 0
-201 271 -127 2606 0
-66 426 -463 2607 0
-445 -453 -323 2608 0
-32 -314 -220 2609 0
10 -330 -275 2610 0
33 -173 -24 2611 0
380 342 -347 2612 0
-267 -395 -438 2613 0
100 -282 339 2614 0
-221 -56 485 2615 0
-247 270 -167 2616 0
-398 10 -159 2617 0
354 -415 71 2618 0
99 395 438 2619 0
-81 -107 236 2620 0
-169 -150 -123 2621 0
-265 101 178 2622 0
131 47 452 2623 0
-397 408 -168 2624 0
-1 -412 377 2625 0
-256 -449 316 2626 0
-449 -315 -308 2627 0
51 2 -369 2628 0
93 273 -266 2629 0
377 -250 -190 2630 0
-393 -235 106 2631 0
281 -355 -425 2632 0
1 -406 210 2633 0
-8 400 -142 2634 0
-434 -455 367 2635 0
138 -193 -152 2636 0
-94 23 -365 2637 0
-336 194 407 2638 0
85 -254 251 2639 0
33 321 168 2640 0
136 -143 26 2641 0
419 435 450 2642 0
-420 -432 92 2643 0
-281 421 -6 2644 0
273 288 325 2645 0
236 -145 -40 2646 0
463 489 351 2647 0
169 -126 -90 2648 0
-339 231 1 2649 0
374 461 -295 2650 0
