p cnf 2650 2150
-303 180 -495 501 0
-47 -357 382 502 0
-476 241 -10 503 0
201 -158 -452 504 0
-14 28 303 505 0
363 -34 472 506 0
-324 478 417 507 0
-178 292 332 508 0
363 -105 297 509 0
363 -456 -494 510 0
-85 19 418 511 0
-345 460 144 512 0
172 -250 190 513 0
-201 -302 456 514 0
403 289 245 515 0
-289 -337 294 516 0
-195 -189 -145 517 0
-140 -248 -238 518 0
-376 359 -269 519 0
421 -311 -460 520 0
68 -366 52 521 0
-157 -201 -122 522 0
-332 -472 -317 523 0
304 -12 -184 524 0
-252 -420 -378 525 0
160 257 88 526 0
376 346 231 527 0
-209 8 433 528 0
-163 368 -94 529 0
57 -2 -100 530 0
-394 346 -374 531 0
180 -218 -242 532 0
-383 205 273 533 0
262 479 328 534 0
-186 -337 -287 535 0
402 -83 230 536 0
468 -88 -456 537 0
-41 -3 -249 538 0
398 261 41 539 0
-112 364 -130 540 0
419 -120 429 541 0
-133 263 -405 542 0
100 -36 -87 543 0
26 293 469 544 0
397 408 -308 545 0
147 186 9 546 0
-478 -209 391 547 0
-99 240 -243 548 0
433 -345 271 549 0
342 248 -398 550 0
352 -174 90 551 0
124 365 453 552 0
-242 -38 -345 553 0
-15 -338 -297 554 0
-360 78 127 555 0
-197 343 -196 556 0
354 268 -196 557 0
388 330 -8 558 0
-25 -89 381 559 0
329 403 324 560 0
-68 -21 213 561 0
-298 -214 276 562 0
-234 -427 365 563 0
182 -363 -358 564 0
-299 -254 98 565 0
-198 123 403 566 0
-447 -290 -369 567 0
-54 387 32 568 0
-480 13 -477 569 0
-160 233 158 570 0
-433 485 27 571 0
248 400 -227 572 0
297 462 -95 573 0
-248 143 94 574 0
-293 331 279 575 0
101 372 -5 576 0
-104 234 -92 577 0
153 276 -247 578 0
-68 -137 215 579 0
-447 -445 -233 580 0
-52 -347 -23 581 0
-285 -403 -346 582 0
226 -470 -383 583 0
30 -101 -167 584 0
-330 321 222 585 0
287 221 -324 586 0
-448 -494 -377 587 0
-436 -465 387 588 0
222 -350 381 589 0
303 127 -423 590 0
40 -195 -347 591 0
-497 410 435 592 0
237 -282 492 593 0
-99 400 29 594 0
104 432 -376 595 0
-136 -357 238 596 0
-64 -314 -162 597 0
268 -165 420 598 0
-436 -351 -68 599 0
431 465 -447 600 0
171 352 -448 601 0
15 388 -351 602 0
-467 52 -289 603 0
451 468 351 604 0
-252 -133 336 605 0
-381 10 -73 606 0
315 413 85 607 0
28 -41 -442 608 0
-314 115 369 609 0
-349 -350 211 610 0
-199 -174 379 611 0
-133 354 287 612 0
-452 -44 -495 613 0
-329 214 374 614 0
-264 -54 426 615 0
112 314 295 616 0
-25 109 176 617 0
-170 310 183 618 0
-80 211 30 619 0
47 354 278 620 0
397 -336 -493 621 0
-365 134 256 622 0
388 -466 -428 623 0
172 -479 -29 624 0
145 -111 142 625 0
-415 43 379 626 0
-40 41 284 627 0
-208 250 409 628 0
83 -235 -416 629 0
-417 221 195 630 0
417 387 319 631 0
129 188 -206 632 0
148 22 -158 633 0
200 -278 -237 634 0
499 -84 316 635 0
-98 -177 -29 636 0
129 -153 -77 637 0
-147 333 -280 638 0
10 -63 -92 639 0
-228 168 -255 640 0
-437 -411 174 641 0
-462 56 -372 642 0
204 85 -315 643 0
-213 130 -286 644 0
-215 236 364 645 0
-454 493 -219 646 0
21 149 185 647 0
-246 -113 65 648 0
174 131 -368 649 0
64 207 -246 650 0
284 129 -48 651 0
91 -66 175 652 0
316 -204 73 653 0
-357 -31 368 654 0
-468 199 -466 655 0
-442 11 -470 656 0
456 -204 411 657 0
198 280 -120 658 0
-115 294 -278 659 0
-491 388 -25 660 0
224 -369 -340 661 0
373 236 -349 662 0
314 247 -279 663 0
-496 443 221 664 0
496 289 309 665 0
-57 -251 441 666 0
68 347 -160 667 0
-359 276 32 668 0
-108 -188 -250 669 0
-174 -313 -205 670 0
-238 -164 24 671 0
-121 -315 -275 672 0
-428 478 -13 673 0
-290 410 245 674 0
-500 -405 -344 675 0
-384 -205 351 676 0
92 -12 88 677 0
280 -444 -457 678 0
469 234 -367 679 0
197 -61 -402 680 0
230 -341 -206 681 0
394 -135 372 682 0
-472 -354 118 683 0
-123 489 -459 684 0
202 -43 15 685 0
-12 361 -39 686 0
482 445 447 687 0
-171 18 185 688 0
-224 -288 -141 689 0
-175 -174 -474 690 0
216 426 -468 691 0
-433 -225 145 692 0
325 176 154 693 0
-304 342 -440 694 0
-63 -475 398 695 0
-305 -347 -135 696 0
93 219 -209 697 0
-321 -314 -458 698 0
-183 -185 267 699 0
-330 120 -182 700 0
-493 -289 -184 701 0
-178 -11 -33 702 0
-105 -19 -427 703 0
351 -234 -36 704 0
-180 -276 -178 705 0
-220 80 -445 706 0
-373 413 -425 707 0
406 9 34 708 0
494 32 124 709 0
498 -313 -209 710 0
-157 160 -135 711 0
-135 -163 -33 712 0
-498 -123 338 713 0
-480 -371 -333 714 0
-179 -271 -78 715 0
248 -41 -60 716 0
-490 -309 479 717 0
183 -427 -188 718 0
352 205 118 719 0
-122 405 149 720 0
-322 -219 -65 721 0
-9 -7 -425 722 0
-63 -477 367 723 0
225 -142 -445 724 0
-424 114 -446 725 0
-482 285 97 726 0
276 -125 -439 727 0
185 363 351 728 0
237 281 363 729 0
-36 -282 172 730 0
121 422 -94 731 0
118 -490 206 732 0
-374 -412 -220 733 0
-133 -441 174 734 0
248 272 -426 735 0
6 179 -54 736 0
-34 -108 244 737 0
314 298 -215 738 0
-149 -29 27 739 0
86 479 169 740 0
426 294 -170 741 0
-80 -353 -226 742 0
21 361 268 743 0
-2 -477 -483 744 0
129 -159 219 745 0
-370 286 -446 746 0
-129 139 16 747 0
-267 111 9 748 0
455 -487 155 749 0
-380 189 263 750 0
199 369 300 751 0
433 59 268 752 0
170 382 268 753 0
-34 211 -219 754 0
-149 -318 -97 755 0
-479 326 -245 756 0
-300 -341 221 757 0
-70 46 -87 758 0
462 151 -195 759 0
160 292 334 760 0
-331 422 -54 761 0
488 -229 313 762 0
-40 460 -427 763 0
3 -149 -202 764 0
166 -14 -15 765 0
149 -421 -278 766 0
-61 -93 298 767 0
-310 255 391 768 0
-453 334 376 769 0
460 -24 208 770 0
120 -498 125 771 0
-498 112 -145 772 0
85 148 -359 773 0
71 68 -408 774 0
318 -186 446 775 0
-332 116 360 776 0
329 433 -166 777 0
-239 53 -228 778 0
-36 483 -430 779 0
331 418 312 780 0
178 323 195 781 0
-159 229 -134 782 0
-14 -257 67 783 0
-126 129 337 784 0
-425 415 -440 785 0
328 340 58 786 0
96 -61 -189 787 0
46 -247 15 788 0
-100 252 188 789 0
311 53 -134 790 0
193 238 450 791 0
-471 460 -146 792 0
-107 -403 -482 793 0
-16 388 -397 794 0
366 -27 -447 795 0
-317 -408 -396 796 0
308 426 -336 797 0
83 -370 481 798 0
-273 -449 122 799 0
-246 -37 17 800 0
-194 -442 -267 801 0
158 45 390 802 0
-345 -169 89 803 0
-304 -108 168 804 0
385 167 452 805 0
-179 215 247 806 0
317 155 -314 807 0
472 492 -16 808 0
-409 47 -360 809 0
132 -107 -375 810 0
348 472 58 811 0
-49 442 -113 812 0
-86 -29 -474 813 0
-270 11 -289 814 0
-467 236 -149 815 0
-66 -181 38 816 0
21 -202 361 817 0
486 29 -64 818 0
46 175 -100 819 0
-97 364 -231 820 0
-288 -423 -305 821 0
-116 475 356 822 0
242 -115 -336 823 0
342 -126 133 824 0
95 317 170 825 0
-124 146 -251 826 0
-40 -388 -301 827 0
-60 -116 310 828 0
-139 489 145 829 0
-289 175 46 830 0
-55 -37 -20 831 0
122 115 153 832 0
304 -439 163 833 0
-6 -133 5 834 0
-32 -491 472 835 0
-81 488 389 836 0
-19 426 -38 837 0
-30 -138 -190 838 0
363 349 -354 839 0
148 -439 120 840 0
49 17 460 841 0
-184 -469 46 842 0
204 -340 11 843 0
405 159 -500 844 0
-177 -265 -84 845 0
45 -446 -262 846 0
-309 220 69 847 0
276 -89 -258 848 0
322 -295 334 849 0
445 135 -53 850 0
-434 -1 340 851 0
2 -89 -217 852 0
-344 195 23 853 0
-486 328 386 854 0
-352 -70 -218 855 0
16 -179 214 856 0
72 -464 121 857 0
433 -376 394 858 0
-93 214 332 859 0
-421 490 97 860 0
-280 247 370 861 0
208 -221 1 862 0
-50 -252 -208 863 0
63 458 131 864 0
374 -70 -76 865 0
245 -126 -38 866 0
14 453 -149 867 0
488 405 -88 868 0
295 494 423 869 0
-323 438 -70 870 0
-450 -95 -240 871 0
199 -473 -38 872 0
375 285 -77 873 0
182 478 -52 874 0
-7 -248 282 875 0
344 -470 87 876 0
-202 -188 489 877 0
-272 -302 122 878 0
-356 -395 -439 879 0
353 -352 -150 880 0
114 -235 105 881 0
220 -237 329 882 0
-103 191 88 883 0
342 28 357 884 0
385 42 379 885 0
-478 -402 -28 886 0
103 -162 460 887 0
-383 -316 -79 888 0
63 -208 309 889 0
-214 349 -438 890 0
335 489 126 891 0
-243 -414 465 892 0
309 489 25 893 0
77 -318 235 894 0
-293 -407 -395 895 0
64 102 -448 896 0
-183 -97 -409 897 0
-108 -338 -244 898 0
-292 -463 -135 899 0
264 -169 260 900 0
-414 -350 -444 901 0
121 -68 7 902 0
242 262 282 903 0
380 -99 -106 904 0
378 454 355 905 0
363 209 485 906 0
407 101 176 907 0
310 137 -423 908 0
90 -29 64 909 0
181 434 -131 910 0
-157 361 -362 911 0
-351 -43 -431 912 0
-391 365 322 913 0
475 -26 65 914 0
-333 274 -58 915 0
180 192 -72 916 0
-440 146 341 917 0
115 -149 91 918 0
-392 305 378 919 0
426 336 114 920 0
309 232 312 921 0
-120 -356 446 922 0
156 304 -139 923 0
298 151 -312 924 0
-217 133 -134 925 0
-125 24 -95 926 0
-240 217 307 927 0
217 -160 -233 928 0
-58 -169 156 929 0
-393 456 447 930 0
-460 -234 167 931 0
288 232 401 932 0
442 19 -90 933 0
291 -240 -406 934 0
-64 -367 492 935 0
226 -44 92 936 0
225 -246 294 937 0
294 331 236 938 0
218 482 89 939 0
-473 -61 -442 940 0
346 400 -282 941 0
-316 251 100 942 0
-247 -223 416 943 0
-396 -431 29 944 0
445 -350 -374 945 0
-355 -322 -23 946 0
492 -485 -468 947 0
-356 -418 -405 948 0
402 -220 -441 949 0
323 -406 -445 950 0
-453 433 -357 951 0
-304 -445 -459 952 0
-301 -475 -492 953 0
153 126 -280 954 0
279 -80 176 955 0
-242 -87 274 956 0
-258 127 177 957 0
466 -422 446 958 0
-283 76 -427 959 0
-297 371 -46 960 0
493 343 189 961 0
-459 -472 -307 962 0
-385 141 -462 963 0
-272 -55 450 964 0
483 186 42 965 0
-393 -302 -364 966 0
-341 -447 22 967 0
24 244 -355 968 0
-400 -199 -117 969 0
-201 -46 329 970 0
233 273 -88 971 0
372 273 -114 972 0
-71 141 257 973 0
-145 144 55 974 0
461 -440 -495 975 0
-163 347 118 976 0
10 -424 6 977 0
378 -385 184 978 0
-25 -154 245 979 0
-69 469 272 980 0
132 -403 18 981 0
-246 245 -135 982 0
238 297 57 983 0
321 474 450 984 0
-205 33 -41 985 0
-40 495 110 986 0
142 -473 -67 987 0
229 491 409 988 0
-233 -9 253 989 0
369 -461 -236 990 0
462 -268 386 991 0
125 -129 316 992 0
407 -280 152 993 0
206 480 358 994 0
-427 496 454 995 0
-69 155 -156 996 0
-172 -57 -203 997 0
317 58 268 998 0
-350 -474 -321 999 0
-168 220 284 1000 0
105 173 -222 1001 0
-144 319 -369 1002 0
-357 -234 202 1003 0
-359 -295 -298 1004 0
-205 -69 -200 1005 0
-495 -418 -476 1006 0
-290 -288 63 1007 0
449 51 -317 1008 0
-202 -379 424 1009 0
-90 -135 231 1010 0
-30 200 -237 1011 0
-411 -287 119 1012 0
-267 -200 -112 1013 0
-31 30 -167 1014 0
-442 -111 269 1015 0
-179 51 -318 1016 0
-132 -118 -202 1017 0
187 303 27 1018 0
224 142 478 1019 0
48 98 -405 1020 0
48 219 355 1021 0
260 140 29 1022 0
-453 90 -482 1023 0
422 330 -226 1024 0
296 -403 180 1025 0
-418 -1 -318 1026 0
321 -4 -322 1027 0
42 -113 372 1028 0
101 -147 425 1029 0
-104 2 -271 1030 0
-419 374 39 1031 0
-169 208 -416 1032 0
-432 321 112 1033 0
313 74 -400 1034 0
329 433 111 1035 0
-132 -1 317 1036 0
491 -322 -333 1037 0
461 261 -47 1038 0
-13 -43 197 1039 0
-339 281 45 1040 0
1 -357 -191 1041 0
-471 287 496 1042 0
149 374 442 1043 0
-366 209 149 1044 0
495 195 -244 1045 0
-154 -7 500 1046 0
197 -265 218 1047 0
359 -255 318 1048 0
183 -129 398 1049 0
119 -404 332 1050 0
374 104 345 1051 0
180 -132 -430 1052 0
-323 -40 -64 1053 0
-134 -242 -166 1054 0
132 454 219 1055 0
-45 105 -37 1056 0
265 231 -274 1057 0
-419 -25 -473 1058 0
-103 458 383 1059 0
-437 497 -275 1060 0
87 273 62 1061 0
374 -32 114 1062 0
209 -488 424 1063 0
-155 -237 -97 1064 0
-498 215 -9 1065 0
191 303 -398 1066 0
-130 -487 -14 1067 0
-432 375 -296 1068 0
-474 -311 -231 1069 0
-219 385 -232 1070 0
488 -349 -178 1071 0
-30 450 -490 1072 0
273 430 -291 1073 0
-182 65 135 1074 0
-249 183 -206 1075 0
-167 191 492 1076 0
238 -146 366 1077 0
380 -485 19 1078 0
21 -339 225 1079 0
-83 -210 76 1080 0
237 -202 -58 1081 0
-298 79 -64 1082 0
455 -177 202 1083 0
143 311 -237 1084 0
117 -110 387 1085 0
-497 389 31 1086 0
-281 439 497 1087 0
-364 193 2 1088 0
366 398 460 1089 0
-492 -421 221 1090 0
357 215 285 1091 0
-345 -77 -113 1092 0
141 -321 86 1093 0
-399 218 -282 1094 0
-298 -252 -475 1095 0
-197 -98 -287 1096 0
-59 -318 -183 1097 0
-96 -3 325 1098 0
464 475 141 1099 0
469 453 -110 1100 0
-19 -365 -162 1101 0
346 -468 119 1102 0
-327 194 240 1103 0
464 466 253 1104 0
357 482 -441 1105 0
463 -40 -168 1106 0
24 155 285 1107 0
358 54 -134 1108 0
5 -443 150 1109 0
308 -369 186 1110 0
-466 47 182 1111 0
-460 199 295 1112 0
50 124 -227 1113 0
-365 -23 -244 1114 0
90 26 115 1115 0
-273 48 -175 1116 0
47 300 -452 1117 0
-268 202 323 1118 0
404 79 -95 1119 0
-85 -157 108 1120 0
37 -360 22 1121 0
370 -24 -285 1122 0
393 82 -104 1123 0
490 385 356 1124 0
376 343 -326 1125 0
-292 58 -178 1126 0
86 31 -160 1127 0
-278 -272 56 1128 0
-153 393 -316 1129 0
87 276 433 1130 0
-310 -225 89 1131 0
-39 171 -409 1132 0
88 285 -256 1133 0
-380 70 -467 1134 0
-137 490 280 1135 0
294 -278 268 1136 0
44 185 -86 1137 0
180 -186 161 1138 0
-104 -133 -253 1139 0
-316 -433 -188 1140 0
441 -391 -194 1141 0
224 94 3 1142 0
-164 -250 159 1143 0
479 -486 -248 1144 0
-406 314 -209 1145 0
-347 -221 326 1146 0
-74 -240 -105 1147 0
160 379 158 1148 0
44 468 69 1149 0
-275 358 62 1150 0
361 -442 -427 1151 0
97 13 -81 1152 0
448 258 484 1153 0
303 -160 -447 1154 0
93 -301 -400 1155 0
35 164 -70 1156 0
397 -225 385 1157 0
47 -360 48 1158 0
339 217 -492 1159 0
89 -287 267 1160 0
-413 293 -382 1161 0
-491 -168 283 1162 0
-75 -341 285 1163 0
-10 -356 -196 1164 0
226 26 -297 1165 0
-105 303 -428 1166 0
6 -343 -251 1167 0
89 -130 388 1168 0
-498 45 52 1169 0
261 351 424 1170 0
-260 -494 407 1171 0
8 252 55 1172 0
-497 -466 -444 1173 0
102 -58 100 1174 0
-389 -72 -52 1175 0
-391 -92 419 1176 0
286 -231 44 1177 0
200 -140 135 1178 0
451 -497 178 1179 0
-243 81 -398 1180 0
-372 -14 124 1181 0
-321 227 -293 1182 0
-398 300 1 1183 0
-117 -300 -251 1184 0
-318 -413 -203 1185 0
363 499 -112 1186 0
-287 147 42 1187 0
-224 281 -19 1188 0
407 -424 -471 1189 0
3 303 65 1190 0
-417 -187 -474 1191 0
-192 -60 -410 1192 0
229 280 -93 1193 0
-133 45 169 1194 0
224 232 338 1195 0
58 -146 318 1196 0
-338 -152 -436 1197 0
-465 256 -414 1198 0
400 272 398 1199 0
436 16 -210 1200 0
458 -203 496 1201 0
210 224 28 1202 0
-297 220 249 1203 0
309 301 -38 1204 0
369 333 78 1205 0
-297 -456 -275 1206 0
-90 472 -19 1207 0
484 314 67 1208 0
-277 -340 -436 1209 0
69 -223 290 1210 0
-338 -475 -225 1211 0
-429 32 22 1212 0
431 -283 -440 1213 0
-240 62 1 1214 0
203 -493 480 1215 0
-256 75 -441 1216 0
-324 480 -466 1217 0
271 -38 -79 1218 0
-480 -27 -6 1219 0
287 282 458 1220 0
56 204 210 1221 0
-306 206 -213 1222 0
269 -432 -232 1223 0
226 -110 227 1224 0
-254 -260 -30 1225 0
-320 -398 415 1226 0
213 -51 -121 1227 0
-410 -356 -141 1228 0
-410 -405 331 1229 0
-42 -209 231 1230 0
-401 104 47 1231 0
-60 -244 161 1232 0
10 179 381 1233 0
103 144 382 1234 0
162 -235 -451 1235 0
-315 201 118 1236 0
-488 -153 148 1237 0
-67 -245 79 1238 0
232 414 -411 1239 0
407 -286 155 1240 0
25 -295 24 1241 0
198 -142 -406 1242 0
408 -498 227 1243 0
485 -59 127 1244 0
-384 240 307 1245 0
404 -94 -361 1246 0
292 253 225 1247 0
390 248 -227 1248 0
-371 491 -29 1249 0
-75 33 441 1250 0
218 476 -254 1251 0
483 -37 -253 1252 0
-372 -355 427 1253 0
-178 -266 484 1254 0
329 -379 -294 1255 0
266 90 -34 1256 0
-295 -362 386 1257 0
221 247 -354 1258 0
-44 212 -145 1259 0
129 147 237 1260 0
-361 39 72 1261 0
-140 -375 -246 1262 0
-79 -133 239 1263 0
-325 418 347 1264 0
-329 223 140 1265 0
-232 420 -271 1266 0
-59 -134 51 1267 0
-435 -440 348 1268 0
14 -459 322 1269 0
123 439 102 1270 0
-463 310 41 1271 0
-9 173 334 1272 0
204 93 208 1273 0
21 -119 276 1274 0
373 -278 -419 1275 0
-355 61 383 1276 0
-266 440 218 1277 0
-255 73 -393 1278 0
172 -355 445 1279 0
406 -358 -150 1280 0
412 -51 -180 1281 0
-397 -477 -266 1282 0
-265 205 355 1283 0
-465 252 9 1284 0
-139 -135 -275 1285 0
-154 -333 55 1286 0
269 187 494 1287 0
-191 251 241 1288 0
-87 153 1 1289 0
-299 494 151 1290 0
446 -484 -386 1291 0
-340 311 -369 1292 0
-402 367 373 1293 0
193 161 433 1294 0
-247 -143 -262 1295 0
275 -338 165 1296 0
144 428 -209 1297 0
-112 297 422 1298 0
365 -139 38 1299 0
-474 -130 -200 1300 0
-106 -343 315 1301 0
-320 99 -248 1302 0
-24 403 484 1303 0
-441 -58 -382 1304 0
69 -393 -171 1305 0
-122 -354 203 1306 0
168 -495 -453 1307 0
-282 36 204 1308 0
-432 275 180 1309 0
288 -481 -443 1310 0
-436 218 -497 1311 0
407 13 216 1312 0
-327 393 -437 1313 0
-124 -447 -338 1314 0
387 253 134 1315 0
442 474 443 1316 0
491 183 5 1317 0
-463 242 140 1318 0
-256 334 18 1319 0
284 -337 -120 1320 0
8 -113 124 1321 0
296 489 333 1322 0
-252 -11 -84 1323 0
338 -416 62 1324 0
210 -339 312 1325 0
178 126 483 1326 0
405 473 -149 1327 0
140 -297 -94 1328 0
-285 165 332 1329 0
263 -372 -391 1330 0
-336 135 -429 1331 0
-133 -365 83 1332 0
422 -378 -155 1333 0
-453 -85 -5 1334 0
-418 -434 40 1335 0
-409 -34 221 1336 0
463 54 -443 1337 0
151 62 -447 1338 0
-288 440 492 1339 0
-89 477 41 1340 0
-263 398 268 1341 0
98 443 -357 1342 0
-56 237 -129 1343 0
-132 319 436 1344 0
-98 -292 458 1345 0
213 111 -283 1346 0
-104 279 432 1347 0
-126 96 -64 1348 0
-457 -493 236 1349 0
45 -153 329 1350 0
33 -192 -47 1351 0
153 -27 -44 1352 0
-29 335 213 1353 0
-210 -307 373 1354 0
-374 -262 -497 1355 0
-227 -135 48 1356 0
385 -46 186 1357 0
-183 -330 459 1358 0
73 -112 344 1359 0
306 -261 301 1360 0
439 336 320 1361 0
-434 150 -370 1362 0
495 -384 286 1363 0
218 -403 -272 1364 0
-334 337 326 1365 0
248 367 496 1366 0
444 -310 -53 1367 0
386 -436 79 1368 0
277 -477 -258 1369 0
-136 -434 -413 1370 0
73 196 474 1371 0
-59 -491 452 1372 0
104 -443 40 1373 0
361 -303 358 1374 0
203 262 134 1375 0
-40 134 375 1376 0
-123 -250 485 1377 0
-110 -50 -113 1378 0
-391 -340 302 1379 0
43 318 -323 1380 0
-420 1 153 1381 0
-200 -101 -299 1382 0
59 -460 -5 1383 0
-500 357 -437 1384 0
-407 -325 -455 1385 0
-127 -451 -273 1386 0
373 438 -346 1387 0
-106 253 149 1388 0
73 10 379 1389 0
-388 -225 223 1390 0
415 257 -406 1391 0
172 -461 428 1392 0
-486 -415 -379 1393 0
493 89 319 1394 0
-13 141 -79 1395 0
-24 -363 -70 1396 0
303 -5 -255 1397 0
178 281 23 1398 0
83 -227 -376 1399 0
344 -190 -31 1400 0
286 448 1 1401 0
-99 306 -233 1402 0
-344 -439 155 1403 0
40 -52 -339 1404 0
322 35 430 1405 0
144 -375 -397 1406 0
-390 290 -309 1407 0
-292 -229 56 1408 0
-199 408 -309 1409 0
97 -207 -419 1410 0
-388 426 396 1411 0
169 42 -15 1412 0
-414 104 -129 1413 0
-328 -229 -462 1414 0
-283 169 129 1415 0
468 469 -192 1416 0
421 177 227 1417 0
-109 257 392 1418 0
-15 -495 422 1419 0
177 -410 1 1420 0
-488 57 446 1421 0
410 4 415 1422 0
462 260 189 1423 0
282 -310 -249 1424 0
128 152 -469 1425 0
-302 -28 448 1426 0
-374 -372 -320 1427 0
-402 -403 185 1428 0
-166 330 341 1429 0
-404 441 442 1430 0
-217 171 -83 1431 0
-47 -181 385 1432 0
-146 -409 313 1433 0
418 71 -82 1434 0
-472 491 16 1435 0
-116 298 187 1436 0
-290 -301 458 1437 0
-107 201 402 1438 0
-147 -83 97 1439 0
281 167 -367 1440 0
-349 -281 429 1441 0
-161 228 325 1442 0
-440 226 100 1443 0
-280 -262 174 1444 0
-12 -490 -420 1445 0
-17 83 291 1446 0
-189 -27 398 1447 0
-76 -150 -122 1448 0
-223 -486 199 1449 0
255 403 -337 1450 0
-177 -311 -260 1451 0
-405 480 57 1452 0
-380 17 35 1453 0
432 -324 -217 1454 0
-402 -236 -475 1455 0
340 -491 81 1456 0
-127 -212 84 1457 0
357 45 268 1458 0
416 -111 -335 1459 0
345 278 -322 1460 0
-231 -410 -392 1461 0
-340 175 -266 1462 0
498 -431 138 1463 0
132 245 328 1464 0
-243 -286 496 1465 0
444 269 -415 1466 0
266 77 53 1467 0
89 -276 -428 1468 0
-209 -274 102 1469 0
56 -243 -177 1470 0
47 -134 -351 1471 0
-439 -149 7 1472 0
185 -263 -101 1473 0
-351 420 202 1474 0
477 430 211 1475 0
-205 286 1 1476 0
489 -372 45 1477 0
142 290 61 1478 0
-10 266 -335 1479 0
238 202 -165 1480 0
229 -142 -42 1481 0
471 220 500 1482 0
386 491 -232 1483 0
119 -494 -375 1484 0
94 34 -341 1485 0
264 241 -40 1486 0
-125 456 -362 1487 0
-165 -355 304 1488 0
-137 -436 29 1489 0
183 373 185 1490 0
-499 -179 196 1491 0
-203 339 -262 1492 0
-97 -241 -13 1493 0
441 467 119 1494 0
-500 189 -310 1495 0
-155 231 219 1496 0
256 -299 239 1497 0
-293 254 17 1498 0
14 267 -175 1499 0
-467 111 -253 1500 0
391 -457 -366 1501 0
369 -294 -360 1502 0
-143 -210 101 1503 0
-213 -170 281 1504 0
-24 19 -143 1505 0
-142 435 179 1506 0
-316 -257 -278 1507 0
41 -283 307 1508 0
478 255 -395 1509 0
-70 -67 -58 1510 0
-320 -226 102 1511 0
484 39 338 1512 0
-63 173 -216 1513 0
72 -270 -483 1514 0
67 189 -495 1515 0
212 68 -208 1516 0
-204 338 -318 1517 0
-469 310 -148 1518 0
-285 74 -226 1519 0
-180 -220 -314 1520 0
177 429 474 1521 0
-452 -379 -71 1522 0
-217 108 104 1523 0
-271 -22 -114 1524 0
-54 173 302 1525 0
-451 474 127 1526 0
183 288 -461 1527 0
421 -194 -49 1528 0
-392 -152 -472 1529 0
241 -28 129 1530 0
15 441 434 1531 0
-240 -227 289 1532 0
-10 -165 445 1533 0
-369 385 65 1534 0
-321 120 332 1535 0
64 227 320 1536 0
-209 -440 399 1537 0
-198 31 -446 1538 0
-467 75 209 1539 0
190 -436 270 1540 0
-246 -106 -63 1541 0
358 -447 -59 1542 0
-73 461 -60 1543 0
-283 411 -476 1544 0
89 -487 -420 1545 0
62 -318 -26 1546 0
-16 -142 341 1547 0
375 -86 290 1548 0
293 94 -123 1549 0
-215 -336 68 1550 0
-244 -299 277 1551 0
37 168 395 1552 0
-332 395 -441 1553 0
323 -378 42 1554 0
-357 -471 29 1555 0
-480 -14 -355 1556 0
138 -235 -307 1557 0
92 -491 441 1558 0
-367 349 -112 1559 0
165 -359 351 1560 0
43 -397 -454 1561 0
329 -219 -427 1562 0
38 -1 -382 1563 0
129 31 325 1564 0
-350 320 -7 1565 0
86 264 -428 1566 0
-229 311 153 1567 0
67 66 -206 1568 0
29 128 357 1569 0
-455 -446 104 1570 0
-407 75 -249 1571 0
461 333 -451 1572 0
445 351 -47 1573 0
-190 -257 -93 1574 0
-498 375 -185 1575 0
-37 171 45 1576 0
318 301 419 1577 0
-71 312 383 1578 0
-408 205 248 1579 0
-121 38 117 1580 0
320 -280 -92 1581 0
-495 -33 81 1582 0
-304 374 218 1583 0
-287 -291 147 1584 0
204 352 -66 1585 0
-16 270 362 1586 0
-240 -143 374 1587 0
37 108 5 1588 0
-67 -144 -139 1589 0
248 45 -429 1590 0
125 -386 203 1591 0
-158 378 -159 1592 0
-390 -346 370 1593 0
310 -234 43 1594 0
117 484 -409 1595 0
-235 -473 304 1596 0
121 -189 -390 1597 0
489 -151 -392 1598 0
128 -264 -409 1599 0
-342 -111 82 1600 0
-160 -490 -192 1601 0
146 100 -91 1602 0
286 -219 -283 1603 0
-194 442 35 1604 0
453 -24 -368 1605 0
-320 117 293 1606 0
257 232 -339 1607 0
290 -250 15 1608 0
387 -16 149 1609 0
-41 424 -200 1610 0
-374 -257 486 1611 0
364 224 420 1612 0
-120 -373 210 1613 0
-75 -21 -91 1614 0
219 -229 435 1615 0
110 -41 -214 1616 0
387 -421 -213 1617 0
375 238 370 1618 0
-4 284 134 1619 0
-323 -106 -251 1620 0
-179 -427 78 1621 0
470 185 -54 1622 0
115 251 -180 1623 0
-474 -338 371 1624 0
-308 43 -55 1625 0
-225 -37 -17 1626 0
406 -320 -177 1627 0
245 -338 -6 1628 0
-50 290 361 1629 0
-224 373 99 1630 0
-166 -125 -413 1631 0
-395 480 489 1632 0
-140 -380 368 1633 0
61 467 -295 1634 0
286 -373 -213 1635 0
-390 253 392 1636 0
429 297 479 1637 0
402 -3 -395 1638 0
141 -279 -277 1639 0
112 326 -269 1640 0
-364 -413 101 1641 0
257 240 310 1642 0
109 -314 101 1643 0
-27 81 -343 1644 0
354 -318 -96 1645 0
139 -298 -272 1646 0
424 -269 351 1647 0
-394 -209 280 1648 0
336 -278 227 1649 0
-377 103 496 1650 0
-410 245 -130 1651 0
232 199 302 1652 0
-310 325 488 1653 0
-331 429 378 1654 0
40 131 99 1655 0
-386 -276 -479 1656 0
-184 157 397 1657 0
-358 -427 494 1658 0
-459 156 -189 1659 0
261 299 415 1660 0
-216 -189 -422 1661 0
363 153 179 1662 0
325 -96 51 1663 0
93 -195 -267 1664 0
162 -394 483 1665 0
-131 240 -88 1666 0
410 -139 75 1667 0
215 222 -369 1668 0
192 167 -398 1669 0
-6 -118 15 1670 0
-78 -279 360 1671 0
410 -156 78 1672 0
256 -261 -177 1673 0
-146 -383 -108 1674 0
152 -31 -117 1675 0
403 24 -440 1676 0
-330 -407 -490 1677 0
351 -358 188 1678 0
-228 445 12 1679 0
-316 173 -451 1680 0
-230 -82 498 1681 0
-102 -471 499 1682 0
-409 -135 397 1683 0
210 -392 -461 1684 0
283 -471 295 1685 0
-385 -485 -120 1686 0
-2 -60 26 1687 0
-398 284 16 1688 0
-37 -286 256 1689 0
96 491 123 1690 0
-340 108 -151 1691 0
53 -347 -227 1692 0
24 -13 -279 1693 0
-244 110 -52 1694 0
294 -10 228 1695 0
-87 -69 -353 1696 0
407 452 89 1697 0
-437 446 -301 1698 0
-348 8 168 1699 0
-237 -52 470 1700 0
163 -399 -331 1701 0
-335 213 258 1702 0
-203 271 -64 1703 0
13 338 -41 1704 0
-290 -105 -249 1705 0
218 100 -231 1706 0
-27 -350 -96 1707 0
143 -122 10 1708 0
216 489 338 1709 0
-117 -129 411 1710 0
306 305 -165 1711 0
276 467 -473 1712 0
-172 -227 255 1713 0
230 -141 -78 1714 0
366 -210 171 1715 0
498 -366 -131 1716 0
153 176 -211 1717 0
75 20 -360 1718 0
319 -214 -474 1719 0
-293 188 -370 1720 0
-84 341 155 1721 0
-390 -449 41 1722 0
-141 68 -10 1723 0
-64 -373 -388 1724 0
266 204 263 1725 0
173 191 -384 1726 0
317 163 -496 1727 0
338 -384 341 1728 0
421 405 -487 1729 0
170 54 -190 1730 0
475 -449 -180 1731 0
359 -312 224 1732 0
-461 -255 -279 1733 0
-161 471 183 1734 0
92 -465 -78 1735 0
-137 132 -108 1736 0
-195 168 429 1737 0
325 73 255 1738 0
-318 328 28 1739 0
255 -91 -432 1740 0
-98 161 -107 1741 0
-98 470 466 1742 0
235 472 238 1743 0
403 -463 281 1744 0
-52 269 56 1745 0
137 -270 -253 1746 0
-360 -190 312 1747 0
-29 -424 337 1748 0
180 -456 -312 1749 0
-355 -15 -227 1750 0
222 -144 126 1751 0
-77 309 451 1752 0
202 -147 380 1753 0
390 -238 212 1754 0
64 107 21 1755 0
283 -341 -435 1756 0
477 -444 -414 1757 0
-68 172 219 1758 0
485 -67 181 1759 0
292 54 122 1760 0
360 473 240 1761 0
-113 -462 -68 1762 0
-138 172 356 1763 0
-278 -497 370 1764 0
-297 -493 -391 1765 0
52 -25 451 1766 0
-351 64 -371 1767 0
5 284 -354 1768 0
-38 -104 98 1769 0
-364 46 -252 1770 0
-9 1 -203 1771 0
-158 -289 226 1772 0
-314 -470 -157 1773 0
137 -304 416 1774 0
-208 171 -223 1775 0
285 208 -185 1776 0
-327 354 363 1777 0
-477 346 -51 1778 0
248 -10 -176 1779 0
-8 -77 -210 1780 0
261 232 -131 1781 0
463 34 4 1782 0
-382 -59 -219 1783 0
35 137 356 1784 0
214 121 485 1785 0
403 -249 17 1786 0
-164 447 142 1787 0
187 126 -316 1788 0
157 -286 226 1789 0
496 -393 181 1790 0
-269 155 245 1791 0
241 477 -87 1792 0
234 212 376 1793 0
150 184 -460 1794 0
486 337 363 1795 0
-100 -307 228 1796 0
-211 187 -416 1797 0
32 498 439 1798 0
136 196 -107 1799 0
485 -389 293 1800 0
-246 138 412 1801 0
-98 118 -403 1802 0
5 -305 -141 1803 0
344 -264 -216 1804 0
-491 -88 176 1805 0
51 499 96 1806 0
-269 -449 229 1807 0
265 399 320 1808 0
-5 -365 -197 1809 0
366 -122 -376 1810 0
-193 -166 -323 1811 0
-283 -77 156 1812 0
418 -475 -274 1813 0
-91 -407 -475 1814 0
-22 -221 126 1815 0
119 -488 -493 1816 0
-188 459 408 1817 0
-298 386 474 1818 0
118 -436 -486 1819 0
-475 434 283 1820 0
-437 373 -294 1821 0
148 -343 -93 1822 0
-98 129 -161 1823 0
-320 -132 404 1824 0
-479 -391 294 1825 0
128 320 -374 1826 0
-64 -244 195 1827 0
-268 -160 18 1828 0
137 -124 -130 1829 0
285 -142 88 1830 0
234 -384 290 1831 0
64 -280 192 1832 0
-473 -285 -422 1833 0
159 -246 253 1834 0
83 121 415 1835 0
392 -134 102 1836 0
-219 373 -135 1837 0
-447 98 -180 1838 0
117 -451 442 1839 0
-467 -198 85 1840 0
-68 -7 106 1841 0
115 -3 -35 1842 0
-317 128 -50 1843 0
-40 242 -394 1844 0
-81 -335 -349 1845 0
81 459 170 1846 0
446 440 419 1847 0
306 -378 -412 1848 0
-62 402 -483 1849 0
-409 -159 498 1850 0
405 -261 166 1851 0
-115 -366 299 1852 0
238 98 19 1853 0
-49 232 302 1854 0
-22 369 -267 1855 0
136 -483 -38 1856 0
-51 -78 369 1857 0
119 221 237 1858 0
-76 -22 68 1859 0
287 138 -171 1860 0
342 -469 -123 1861 0
-210 -258 -271 1862 0
-52 80 -106 1863 0
-337 -269 -324 1864 0
329 361 -220 1865 0
-379 -65 188 1866 0
442 -358 -304 1867 0
318 52 -120 1868 0
-50 430 190 1869 0
-491 469 -20 1870 0
-349 -20 445 1871 0
343 -219 -491 1872 0
-64 66 -339 1873 0
363 -499 -157 1874 0
-429 321 386 1875 0
-79 311 -19 1876 0
-271 341 477 1877 0
463 -256 -479 1878 0
356 -417 -69 1879 0
-53 33 493 1880 0
-150 -198 -173 1881 0
11 -204 176 1882 0
-438 337 -225 1883 0
84 -224 375 1884 0
334 131 153 1885 0
-294 -319 -201 1886 0
301 -124 -226 1887 0
135 -205 -397 1888 0
-98 -397 179 1889 0
-497 78 181 1890 0
-130 50 -457 1891 0
-420 122 355 1892 0
-47 -29 -317 1893 0
-150 28 -82 1894 0
-33 290 396 1895 0
185 -260 -25 1896 0
-48 -377 -80 1897 0
263 -358 -248 1898 0
33 -149 -317 1899 0
244 444 191 1900 0
356 -284 -100 1901 0
-156 -384 275 1902 0
262 287 -23 1903 0
402 100 -338 1904 0
87 -235 189 1905 0
67 -481 317 1906 0
390 91 -393 1907 0
164 -280 307 1908 0
3 -436 -210 1909 0
369 -209 -469 1910 0
59 -255 -163 1911 0
-247 -302 -321 1912 0
189 122 -354 1913 0
340 -413 452 1914 0
-216 -347 89 1915 0
-191 -148 -222 1916 0
-73 237 -335 1917 0
-418 382 -213 1918 0
348 205 264 1919 0
-231 -344 -191 1920 0
-388 204 -3 1921 0
424 -395 95 1922 0
-235 474 429 1923 0
402 369 -59 1924 0
354 250 -436 1925 0
444 301 -20 1926 0
-212 -110 85 1927 0
-337 477 433 1928 0
-247 -486 155 1929 0
-249 -217 390 1930 0
500 -257 201 1931 0
288 -125 325 1932 0
-447 164 396 1933 0
-347 -201 -249 1934 0
-97 275 132 1935 0
-361 -60 242 1936 0
-207 -497 -418 1937 0
-26 -436 -223 1938 0
387 -422 381 1939 0
464 -30 -358 1940 0
285 28 -62 1941 0
-223 10 275 1942 0
-429 97 -330 1943 0
-137 206 494 1944 0
277 390 -332 1945 0
6 476 34 1946 0
-320 407 152 1947 0
424 241 250 1948 0
-104 -92 477 1949 0
-168 -414 41 1950 0
-352 -287 -339 1951 0
370 -279 473 1952 0
495 39 -446 1953 0
-201 387 -388 1954 0
-145 -362 239 1955 0
365 -254 -426 1956 0
155 -430 313 1957 0
198 228 -482 1958 0
38 52 -242 1959 0
321 214 3 1960 0
-485 -499 114 1961 0
312 151 -98 1962 0
268 -333 -462 1963 0
-120 -36 35 1964 0
470 324 10 1965 0
323 435 62 1966 0
189 -191 -79 1967 0
136 -301 -91 1968 0
-401 210 117 1969 0
-348 478 -144 1970 0
172 328 67 1971 0
239 441 -483 1972 0
-135 -286 -131 1973 0
329 -157 -13 1974 0
320 -149 368 1975 0
-110 -192 328 1976 0
407 418 3 1977 0
209 -93 270 1978 0
-185 134 -73 1979 0
314 -365 -31 1980 0
485 89 363 1981 0
115 15 333 1982 0
134 170 -161 1983 0
49 -71 -483 1984 0
-180 -330 54 1985 0
-378 -391 -36 1986 0
159 378 -172 1987 0
-271 -326 59 1988 0
-263 -196 -441 1989 0
2 -170 -3 1990 0
-238 -53 -490 1991 0
-196 -276 364 1992 0
11 -171 -499 1993 0
255 -138 -351 1994 0
371 482 152 1995 0
-42 369 -498 1996 0
131 417 427 1997 0
22 -418 -472 1998 0
-470 -307 -484 1999 0
337 131 89 2000 0
353 -8 -309 2001 0
-350 77 2 2002 0
-173 366 -462 2003 0
156 56 401 2004 0
138 259 -362 2005 0
444 140 -413 2006 0
465 7 -2 2007 0
-429 454 212 2008 0
-250 132 -472 2009 0
-430 473 356 2010 0
-433 168 267 2011 0
-202 107 -434 2012 0
-429 454 349 2013 0
361 -217 -143 2014 0
-353 -214 309 2015 0
415 -440 300 2016 0
419 -213 225 2017 0
-487 43 -442 2018 0
97 -24 162 2019 0
322 -149 28 2020 0
270 141 -189 2021 0
-266 129 -186 2022 0
-282 487 38 2023 0
106 198 77 2024 0
220 186 -169 2025 0
-9 -449 289 2026 0
-416 104 107 2027 0
417 -366 132 2028 0
378 47 200 2029 0
-97 254 121 2030 0
-340 -296 369 2031 0
-234 293 -80 2032 0
159 346 -317 2033 0
391 -291 485 2034 0
-115 72 -282 2035 0
11 -336 -466 2036 0
-98 307 -438 2037 0
339 353 137 2038 0
52 -115 -214 2039 0
178 224 375 2040 0
-268 391 -270 2041 0
408 450 -261 2042 0
-152 247 493 2043 0
-37 248 463 2044 0
422 -195 -451 2045 0
179 154 -84 2046 0
377 -122 -173 2047 0
77 -437 -133 2048 0
94 -327 170 2049 0
-40 90 -460 2050 0
199 118 -487 2051 0
378 -473 -371 2052 0
389 -341 -139 2053 0
-90 -361 148 2054 0
-419 107 -256 2055 0
16 -178 -191 2056 0
-167 -421 -263 2057 0
-344 399 195 2058 0
158 -460 497 2059 0
416 -78 -226 2060 0
-439 392 152 2061 0
436 -427 -54 2062 0
-19 -375 -494 2063 0
449 492 451 2064 0
-489 -449 285 2065 0
-344 -409 -36 2066 0
-426 -480 -118 2067 0
403 176 287 2068 0
297 295 134 2069 0
330 -469 -164 2070 0
216 -450 354 2071 0
135 388 -399 2072 0
360 175 -9 2073 0
-101 264 293 2074 0
-121 185 -256 2075 0
436 -66 -56 2076 0
32 25 -40 2077 0
33 -45 453 2078 0
386 421 479 2079 0
-199 389 -362 2080 0
34 -153 -58 2081 0
-194 306 473 2082 0
5 -30 290 2083 0
-198 306 -37 2084 0
-123 -181 48 2085 0
457 369 23 2086 0
457 -62 86 2087 0
-151 -319 -249 2088 0
-31 65 443 2089 0
32 -277 -484 2090 0
-109 137 -176 2091 0
35 12 38 2092 0
42 233 82 2093 0
-83 240 133 2094 0
-94 3 48 2095 0
-494 55 -30 2096 0
-455 -370 -410 2097 0
-462 77 -12 2098 0
378 190 -213 2099 0
-260 -376 -319 2100 0
122 411 43 2101 0
221 69 106 2102 0
-99 58 -476 2103 0
121 340 -172 2104 0
-146 156 4 2105 0
-464 310 -160 2106 0
-499 377 -239 2107 0
-133 243 -223 2108 0
-95 414 -317 2109 0
-140 216 -95 2110 0
377 -364 238 2111 0
417 -160 360 2112 0
-204 -272 -130 2113 0
77 99 127 2114 0
354 -266 463 2115 0
195 -441 268 2116 0
-216 -129 442 2117 0
65 -55 248 2118 0
53 409 314 2119 0
479 -280 246 2120 0
-39 99 497 2121 0
-372 48 -176 2122 0
-452 46 252 2123 0
35 459 359 2124 0
-285 448 458 2125 0
-409 -195 -304 2126 0
7 -133 -267 2127 0
-448 156 271 2128 0
378 -425 277 2129 0
287 -228 -265 2130 0
198 -94 380 2131 0
-410 -134 -441 2132 0
207 -168 91 2133 0
210 488 486 2134 0
-79 -97 -437 2135 0
-216 165 -370 2136 0
398 -153 -216 2137 0
6 -235 16 2138 0
326 349 340 2139 0
250 81 97 2140 0
369 120 -71 2141 0
211 447 104 2142 0
250 87 -63 2143 0
-101 318 -96 2144 0
-479 -473 476 2145 0
-105 5 -411 2146 0
-15 422 -14 2147 0
143 104 -298 2148 0
313 -366 -256 2149 0
434 -130 485 2150 0
472 259 314 2151 0
106 -22 -87 2152 0
-50 -365 -152 2153 0
290 -210 177 2154 0
2 -117 472 2155 0
-233 -208 -44 2156 0
438 -285 -189 2157 0
-105 325 235 2158 0
293 -471 266 2159 0
-322 -473 -239 2160 0
-266 -488 -236 2161 0
-488 -32 -219 2162 0
-422 -444 -80 2163 0
-430 -478 -144 2164 0
-206 -492 368 2165 0
42 102 -395 2166 0
-89 -195 85 2167 0
180 -436 322 2168 0
359 -130 -151 2169 0
-360 430 163 2170 0
258 242 -372 2171 0
305 -282 -85 2172 0
30 -390 436 2173 0
-66 90 -160 2174 0
-451 -296 65 2175 0
304 284 429 2176 0
231 -418 57 2177 0
-220 429 294 2178 0
320 415 296 2179 0
-174 -304 212 2180 0
-178 -218 -436 2181 0
-139 326 -347 2182 0
271 338 97 2183 0
356 -325 -413 2184 0
179 406 -85 2185 0
386 465 180 2186 0
-98 -299 -420 2187 0
341 -439 -375 2188 0
-407 -96 494 2189 0
87 156 -413 2190 0
-401 -364 467 2191 0
-228 344 28 2192 0
303 117 -345 2193 0
-223 305 -369 2194 0
-483 -499 -53 2195 0
305 -252 274 2196 0
294 -172 120 2197 0
-352 -324 -47 2198 0
403 419 -25 2199 0
-226 249 -81 2200 0
-164 114 399 2201 0
389 420 231 2202 0
-247 132 -356 2203 0
288 -463 114 2204 0
-214 -359 58 2205 0
-375 212 -343 2206 0
-297 97 -197 2207 0
233 35 29 2208 0
-375 39 -111 2209 0
398 -252 -303 2210 0
-160 -294 -261 2211 0
-120 -294 194 2212 0
98 498 154 2213 0
-81 258 -442 2214 0
139 89 155 2215 0
-397 -243 -402 2216 0
-419 -470 42 2217 0
-181 37 -91 2218 0
116 296 -401 2219 0
-338 316 -354 2220 0
417 482 34 2221 0
-445 -302 -270 2222 0
-437 -244 -405 2223 0
344 126 247 2224 0
254 -325 422 2225 0
24 -290 137 2226 0
228 -227 167 2227 0
278 -143 -132 2228 0
-493 163 -347 2229 0
166 419 423 2230 0
312 445 -277 2231 0
154 -114 226 2232 0
-240 -286 154 2233 0
325 65 -2 2234 0
29 30 -106 2235 0
339 -454 -330 2236 0
-411 -174 298 2237 0
-157 -389 159 2238 0
164 -213 -145 2239 0
-304 -277 242 2240 0
-357 -347 -371 2241 0
-483 116 392 2242 0
-305 98 -320 2243 0
185 -373 -83 2244 0
130 -33 15 2245 0
-249 -374 441 2246 0
-446 167 -154 2247 0
24 234 -375 2248 0
-16 86 -160 2249 0
-18 -57 -457 2250 0
467 12 -459 2251 0
45 329 -60 2252 0
-201 -48 322 2253 0
-407 -470 37 2254 0
-384 259 -210 2255 0
40 244 463 2256 0
336 -35 -130 2257 0
-244 216 -163 2258 0
-163 -365 -67 2259 0
-360 211 453 2260 0
174 493 149 2261 0
408 139 -292 2262 0
316 -497 -105 2263 0
263 10 274 2264 0
397 -77 -107 2265 0
213 -456 -143 2266 0
486 -405 313 2267 0
268 -64 -445 2268 0
-415 -461 -365 2269 0
397 -453 264 2270 0
-103 105 -195 2271 0
-304 -122 -299 2272 0
12 138 -318 2273 0
70 -259 -316 2274 0
276 319 97 2275 0
454 -30 430 2276 0
123 91 152 2277 0
450 -276 41 2278 0
239 -157 -253 2279 0
233 471 -319 2280 0
-293 -483 254 2281 0
-389 -51 302 2282 0
-360 100 283 2283 0
379 -135 -289 2284 0
203 -351 -236 2285 0
473 -323 177 2286 0
-245 -344 -15 2287 0
340 125 -367 2288 0
238 273 305 2289 0
344 -31 -232 2290 0
464 -451 497 2291 0
-139 160 -171 2292 0
-35 -148 -299 2293 0
-111 -406 238 2294 0
439 392 9 2295 0
438 66 174 2296 0
307 -283 -165 2297 0
237 -20 -303 2298 0
30 -107 195 2299 0
120 -172 -63 2300 0
463 76 289 2301 0
483 139 -364 2302 0
208 322 464 2303 0
330 -134 -348 2304 0
325 -93 -223 2305 0
89 269 500 2306 0
-251 1 -210 2307 0
120 -323 -472 2308 0
-90 282 -115 2309 0
169 -282 -434 2310 0
-237 -384 -195 2311 0
-158 330 151 2312 0
319 -352 -308 2313 0
256 -232 445 2314 0
-414 191 473 2315 0
-353 -238 461 2316 0
-195 -477 212 2317 0
157 -17 -494 2318 0
13 -437 -318 2319 0
-2 -129 -369 2320 0
369 -49 5 2321 0
43 407 -232 2322 0
47 -63 28 2323 0
-4 -39 293 2324 0
162 -475 -174 2325 0
14 375 -419 2326 0
38 432 -29 2327 0
-37 -318 493 2328 0
114 -39 147 2329 0
111 153 -83 2330 0
-37 -198 -489 2331 0
153 231 65 2332 0
294 238 349 2333 0
129 -104 282 2334 0
-373 -322 -244 2335 0
182 258 493 2336 0
-500 72 40 2337 0
-37 -253 -474 2338 0
-243 -301 11 2339 0
122 93 -485 2340 0
51 109 -151 2341 0
242 435 -254 2342 0
-401 -149 -487 2343 0
-483 451 -243 2344 0
308 261 449 2345 0
370 250 -374 2346 0
-194 298 500 2347 0
-105 351 176 2348 0
80 210 467 2349 0
-397 -466 -184 2350 0
-114 4 -113 2351 0
-177 392 -443 2352 0
-451 -122 342 2353 0
3 -308 147 2354 0
-298 407 -455 2355 0
464 284 437 2356 0
455 346 -65 2357 0
-358 222 -306 2358 0
-176 -67 -449 2359 0
-265 395 -101 2360 0
484 350 -475 2361 0
-271 140 284 2362 0
323 -76 -268 2363 0
53 -239 -142 2364 0
173 -435 -25 2365 0
135 -136 393 2366 0
-5 -13 142 2367 0
250 -441 376 2368 0
29 -386 473 2369 0
-230 -449 -141 2370 0
-229 -207 -195 2371 0
-29 -234 -351 2372 0
207 -34 -15 2373 0
63 247 363 2374 0
326 424 -270 2375 0
374 207 496 2376 0
-152 -336 -203 2377 0
326 -192 275 2378 0
-251 460 490 2379 0
-153 422 -213 2380 0
201 -458 -179 2381 0
309 -399 369 2382 0
-13 -396 -33 2383 0
-408 -155 422 2384 0
8 -52 -422 2385 0
396 280 -384 2386 0
414 -284 331 2387 0
-371 161 -401 2388 0
-91 355 -136 2389 0
-171 460 -59 2390 0
216 489 58 2391 0
-232 -245 50 2392 0
45 -9 -383 2393 0
143 44 -369 2394 0
-495 -182 46 2395 0
-151 -14 4 2396 0
-491 166 -367 2397 0
-382 -339 214 2398 0
483 100 367 2399 0
180 235 474 2400 0
-425 -198 -301 2401 0
196 128 -474 2402 0
-155 398 175 2403 0
337 -333 118 2404 0
-281 354 395 2405 0
-370 -400 -289 2406 0
-245 -417 299 2407 0
222 325 -320 2408 0
101 387 77 2409 0
-103 -430 -200 2410 0
-397 396 43 2411 0
-215 408 476 2412 0
198 -410 -335 2413 0
-128 -402 411 2414 0
456 492 -317 2415 0
-303 299 -2 2416 0
488 -85 -323 2417 0
-219 289 385 2418 0
-194 -455 21 2419 0
-136 -135 -190 2420 0
-196 -95 420 2421 0
-326 -317 -251 2422 0
368 141 232 2423 0
-413 125 -325 2424 0
84 -237 53 2425 0
-192 56 121 2426 0
-101 -15 285 2427 0
424 -480 -381 2428 0
131 372 -145 2429 0
-93 285 -334 2430 0
-403 -395 -127 2431 0
448 -149 -151 2432 0
-234 -313 -472 2433 0
260 183 -223 2434 0
490 259 -293 2435 0
-210 -23 -176 2436 0
-22 154 57 2437 0
-496 -436 218 2438 0
-194 389 -263 2439 0
-171 194 -254 2440 0
254 -20 -500 2441 0
-252 472 -177 2442 0
432 -390 -182 2443 0
-214 256 -191 2444 0
48 -331 95 2445 0
316 -418 -401 2446 0
-215 235 325 2447 0
-349 -68 353 2448 0
227 -375 369 2449 0
415 -84 -494 2450 0
31 -155 -452 2451 0
424 36 -417 2452 0
-100 -33 -195 2453 0
-124 -171 396 2454 0
33 -285 251 2455 0
-472 -376 407 2456 0
-54 76 -319 2457 0
435 433 38 2458 0
314 -20 -1 2459 0
58 131 -304 2460 0
422 271 474 2461 0
452 415 -484 2462 0
-423 -413 471 2463 0
-265 -197 -149 2464 0
311 179 125 2465 0
-305 -121 300 2466 0
30 353 293 2467 0
-208 247 414 2468 0
-332 -381 357 2469 0
472 241 -327 2470 0
184 -291 400 2471 0
-41 156 137 2472 0
368 -395 337 2473 0
-141 -232 36 2474 0
239 -470 183 2475 0
250 -455 100 2476 0
-105 -81 -487 2477 0
-26 43 309 2478 0
126 -298 176 2479 0
421 494 436 2480 0
190 -245 -377 2481 0
-85 -419 -407 2482 0
-149 -131 343 2483 0
-285 224 -477 2484 0
-57 -205 331 2485 0
-85 421 288 2486 0
457 -274 -40 2487 0
-250 17 -422 2488 0
-334 279 30 2489 0
321 263 -436 2490 0
324 351 -412 2491 0
-109 124 479 2492 0
-179 43 -148 2493 0
-166 -371 -392 2494 0
-26 104 -385 2495 0
-399 409 -262 2496 0
-78 -117 310 2497 0
16 100 471 2498 0
-498 458 -24 2499 0
-486 250 448 2500 0
370 -315 200 2501 0
182 123 -454 2502 0
93 441 133 2503 0
402 -464 -30 2504 0
34 363 499 2505 0
241 -31 -181 2506 0
177 368 318 2507 0
-411 -199 201 2508 0
-433 -174 -243 2509 0
-15 -213 -419 2510 0
-81 -263 -178 2511 0
101 122 200 2512 0
-137 -301 -100 2513 0
-426 272 430 2514 0
-444 -468 440 2515 0
-142 -321 246 2516 0
433 -282 380 2517 0
-52 -134 321 2518 0
-238 280 -474 2519 0
-275 347 339 2520 0
215 230 132 2521 0
107 72 384 2522 0
-205 -500 -390 2523 0
83 -336 358 2524 0
-125 -484 359 2525 0
-15 457 139 2526 0
-483 16 120 2527 0
44 308 -409 2528 0
-350 240 225 2529 0
471 -385 461 2530 0
300 -185 -222 2531 0
498 -101 262 2532 0
258 -146 173 2533 0
-54 -42 135 2534 0
68 128 -341 2535 0
-135 452 -381 2536 0
-266 112 -345 2537 0
-376 -324 320 2538 0
-38 378 -5 2539 0
350 -21 -81 2540 0
275 482 -118 2541 0
-322 -41 -158 2542 0
-45 -310 433 2543 0
-11 -223 -130 2544 0
43 142 34 2545 0
422 28 239 2546 0
451 34 -183 2547 0
-247 455 1 2548 0
43 497 -354 2549 0
171 442 -304 2550 0
-403 457 207 2551 0
-314 -253 -388 2552 0
-38 128 -36 2553 0
245 -117 278 2554 0
88 -218 184 2555 0
172 399 -319 2556 0
439 -402 -470 2557 0
-165 -468 -64 2558 0
367 -244 257 2559 0
188 -400 131 2560 0
-458 -475 -262 2561 0
-117 -416 483 2562 0
-365 434 406 2563 0
-14 -469 -139 2564 0
215 213 151 2565 0
-419 -190 30 2566 0
-397 -219 431 2567 0
499 -357 419 2568 0
-367 -365 -326 2569 0
3 -232 491 2570 0
121 -156 -169 2571 0
366 351 161 2572 0
42 -304 -391 2573 0
418 181 372 2574 0
244 -441 133 2575 0
287 -298 255 2576 0
-449 -211 463 2577 0
256 -413 -317 2578 0
253 -384 192 2579 0
456 -372 -323 2580 0
106 -308 175 2581 0
370 375 467 2582 0
-15 -415 312 2583 0
49 -32 -407 2584 0
157 -219 229 2585 0
-299 198 271 2586 0
422 225 4 2587 0
187 -264 28 2588 0
481 1 442 2589 0
-339 -172 56 2590 0
128 -113 -232 2591 0
-233 -387 95 2592 0
-253 -255 432 2593 0
-175 330 -148 2594 0
474 -69 -123 2595 0
-161 -324 -267 2596 0
-376 -424 -4 2597 0
-89 -35 -247 2598 0
233 58 203 2599 0
334 87 483 2600 0
-304 138 -455 2601 0
-151 -334 -443 2602 0
-495 -147 493 2603 0
360 426 -150 2604 0
-244 -11 -297 2605 0
11 -89 -365 2606 0
179 -417 -486 2607 0
305 -490 63 2608 0
163 5 480 2609 0
257 249 -459 2610 0
-468 360 -304 2611 0
430 -496 114 2612 0
237 262 367 2613 0
96 336 218 2614 0
-231 58 -99 2615 0
184 266 -236 2616 0
-235 111 -206 2617 0
-384 -255 -377 2618 0
-327 169 335 2619 0
294 -107 489 2620 0
336 417 -152 2621 0
462 -47 -452 2622 0
-356 -138 -324 2623 0
-203 -20 292 2624 0
281 -173 -156 2625 0
-242 125 475 2626 0
408 -280 -458 2627 0
-207 -341 106 2628 0
-479 434 261 2629 0
417 281 -272 2630 0
-316 134 -310 2631 0
-375 301 44 2632 0
-10 -160 -102 2633 0
496 467 360 2634 0
-221 -445 199 2635 0
-199 191 131 2636 0
-454 -283 -221 2637 0
-166 -421 -125 2638 0
-172 -170 -327 2639 0
-286 -427 418 2640 0
-424 -458 -293 2641 0
-132 -104 88 2642 0
258 276 300 2643 0
-187 -180 -328 2644 0
-239 155 -82 2645 0
-385 -125 -52 2646 0
479 130 -337 2647 0
369 -10 -50 2648 0
-140 120 -155 2649 0
166 401 -163 2650 0
