p cnf 2650 2150
475 489 -75 501 0
-330 -347 236 502 0
-404 138 -287 503 0
-26 176 347 504 0
244 426 102 505 0
-116 -205 154 506 0
-278 468 211 507 0
207 -410 419 508 0
-439 -292 -167 509 0
-472 -118 201 510 0
-323 -232 -172 511 0
-470 389 -121 512 0
86 276 -215 513 0
-385 -425 -352 514 0
-443 -254 348 515 0
214 -194 -404 516 0
-253 -466 248 517 0
364 -372 -366 518 0
498 -450 28 519 0
-163 293 465 520 0
292 118 282 521 0
-254 277 62 522 0
-178 377 36 523 0
93 441 -156 524 0
23 28 15 525 0
375 403 -401 526 0
318 -450 221 527 0
325 358 -456 528 0
-289 -431 456 529 0
-135 398 -110 530 0
167 -285 -273 531 0
481 -171 238 532 0
-494 223 -364 533 0
-283 107 62 534 0
-431 250 -249 535 0
265 -423 -483 536 0
-91 -468 198 537 0
-37 52 266 538 0
-403 -124 -286 539 0
-131 386 200 540 0
-327 54 62 541 0
-59 337 80 542 0
-104 91 -126 543 0
-230 331 87 544 0
293 495 -315 545 0
-184 -214 133 546 0
140 426 24 547 0
404 -288 -314 548 0
235 -359 -482 549 0
-125 -342 232 550 0
-232 472 -196 551 0
370 -7 484 552 0
155 183 371 553 0
300 -205 -9 554 0
158 -490 -164 555 0
68 443 100 556 0
-200 -316 -243 557 0
-35 -27 383 558 0
473 -490 235 559 0
291 271 -124 560 0
-188 -482 106 561 0
-386 -173 34 562 0
398 389 -292 563 0
-109 -310 -114 564 0
-366 -48 132 565 0
-323 8 59 566 0
-479 80 -128 567 0
-491 -36 -375 568 0
-91 86 -330 569 0
7 44 -397 570 0
-300 78 -167 571 0
-49 37 -160 572 0
-51 -452 400 573 0
369 -66 -315 574 0
-359 18 -372 575 0
-286 -189 -238 576 0
455 -300 -18 577 0
128 -476 423 578 0
75 -5 268 579 0
-141 463 21 580 0
180 -129 -497 581 0
-491 -293 -107 582 0
48 112 469 583 0
59 -164 271 584 0
219 395 -365 585 0
300 -407 179 586 0
-323 355 480 587 0
13 -368 479 588 0
392 -29 161 589 0
400 -351 -157 590 0
-421 447 -96 591 0
11 -254 -402 592 0
-358 -6 167 593 0
439 14 -180 594 0
329 -266 -59 595 0
-290 -305 103 596 0
176 -199 -77 597 0
97 -197 -141 598 0
189 383 288 599 0
397 -256 113 600 0
225 206 229 601 0
-187 -398 -99 602 0
173 370 137 603 0
-90 263 -355 604 0
-36 105 72 605 0
23 -266 460 606 0
365 246 -361 607 0
-380 197 -147 608 0
-102 -220 -443 609 0
-262 269 -458 610 0
8 264 -218 611 0
148 228 -455 612 0
-37 -416 -9 613 0
-13 -54 106 614 0
-461 374 187 615 0
-401 286 482 616 0
-481 -453 -332 617 0
-321 -41 35 618 0
486 59 219 619 0
123 356 -37 620 0
-446 361 33 621 0
286 -106 27 622 0
122 446 -393 623 0
-386 419 82 624 0
269 222 498 625 0
268 441 -401 626 0
21 360 175 627 0
-104 32 438 628 0
-280 309 372 629 0
290 -410 147 630 0
-206 -229 -479 631 0
54 252 256 632 0
277 -236 396 633 0
232 -477 -83 634 0
-220 45 196 635 0
-388 -439 393 636 0
-122 297 381 637 0
-246 -455 -124 638 0
339 253 -361 639 0
-438 465 140 640 0
105 -23 156 641 0
287 -50 -229 642 0
-144 120 375 643 0
217 406 -299 644 0
473 -483 467 645 0
-142 -24 87 646 0
-487 390 308 647 0
-369 249 -121 648 0
262 -7 153 649 0
-14 486 86 650 0
-428 199 93 651 0
-276 -172 156 652 0
-143 475 423 653 0
280 483 239 654 0
395 -299 -191 655 0
-475 3 85 656 0
410 268 356 657 0
457 93 -123 658 0
-259 414 189 659 0
-119 -281 267 660 0
170 81 248 661 0
330 89 365 662 0
-243 -168 413 663 0
13 -148 -336 664 0
408 232 426 665 0
178 457 498 666 0
327 201 -35 667 0
292 -44 -130 668 0
107 -465 -325 669 0
-190 -375 -282 670 0
386 239 204 671 0
124 296 492 672 0
-237 -165 127 673 0
109 -188 -13 674 0
-325 450 72 675 0
52 302 319 676 0
-118 265 -488 677 0
110 -478 54 678 0
-411 -306 -363 679 0
-87 -253 -433 680 0
-353 14 276 681 0
-456 466 -375 682 0
-41 387 -450 683 0
-38 -177 -161 684 0
-276 -358 -248 685 0
-335 333 203 686 0
413 102 176 687 0
-166 -273 21 688 0
249 -339 -277 689 0
165 198 187 690 0
-464 398 -89 691 0
270 -425 250 692 0
481 -143 -195 693 0
337 491 -331 694 0
45 128 -154 695 0
-232 -48 50 696 0
177 -249 246 697 0
-373 -280 406 698 0
5 -437 -351 699 0
53 179 -356 700 0
364 154 -321 701 0
-36 -223 213 702 0
158 2 272 703 0
-472 -231 -293 704 0
441 210 -65 705 0
-236 -98 481 706 0
-201 -19 -130 707 0
30 -230 -215 708 0
252 -201 27 709 0
-383 -382 -461 710 0
-322 -183 -377 711 0
-174 -203 -1 712 0
-228 37 -453 713 0
-408 475 -180 714 0
105 480 -89 715 0
327 -47 376 716 0
122 124 128 717 0
240 470 -292 718 0
-348 -325 478 719 0
-414 -26 -160 720 0
316 179 -86 721 0
93 45 260 722 0
239 -191 -322 723 0
94 225 -244 724 0
262 470 -405 725 0
417 -294 43 726 0
-456 267 -492 727 0
32 -444 492 728 0
-380 234 263 729 0
-380 72 -263 730 0
60 290 -300 731 0
-117 403 -51 732 0
-286 -211 -266 733 0
-183 92 356 734 0
-422 53 3 735 0
-43 -393 108 736 0
-208 198 -333 737 0
-280 -233 -441 738 0
349 -67 119 739 0
-303 416 132 740 0
-50 -84 481 741 0
-497 254 -123 742 0
-210 -390 -160 743 0
-54 47 -146 744 0
-334 -330 158 745 0
-254 -217 -414 746 0
-201 80 -446 747 0
65 -371 -118 748 0
-436 152 -387 749 0
-360 236 305 750 0
138 332 -353 751 0
251 404 284 752 0
-105 166 -407 753 0
-317 -255 306 754 0
-421 247 -460 755 0
-172 483 -465 756 0
103 257 189 757 0
-170 -476 -356 758 0
-275 87 -216 759 0
277 242 -15 760 0
499 212 315 761 0
-458 -383 417 762 0
-22 -383 -86 763 0
-190 141 -117 764 0
113 -102 -467 765 0
414 -117 199 766 0
-332 -137 -213 767 0
109 -493 290 768 0
130 452 470 769 0
432 374 466 770 0
52 -376 468 771 0
-59 -133 30 772 0
-477 -395 -197 773 0
407 389 -139 774 0
-329 -361 -318 775 0
-350 474 -403 776 0
94 474 -494 777 0
132 -378 198 778 0
-179 -67 -320 779 0
-158 -346 201 780 0
103 261 -257 781 0
-320 423 375 782 0
319 -167 -335 783 0
-45 391 -12 784 0
256 90 270 785 0
227 192 155 786 0
6 261 -36 787 0
455 484 -444 788 0
34 40 112 789 0
-406 -53 -385 790 0
273 -195 -194 791 0
-160 -183 81 792 0
270 -387 -245 793 0
333 -149 -300 794 0
455 -420 199 795 0
447 -297 -433 796 0
-361 -346 354 797 0
-154 110 -34 798 0
415 316 91 799 0
-387 68 23 800 0
-407 -396 -453 801 0
58 -386 -415 802 0
401 459 467 803 0
-134 207 145 804 0
-115 258 -279 805 0
262 -296 -57 806 0
54 -412 -22 807 0
221 -378 -261 808 0
-59 46 402 809 0
-30 101 433 810 0
-143 -250 -30 811 0
-407 -317 -446 812 0
264 -71 296 813 0
109 -394 -339 814 0
-473 -331 -348 815 0
305 -390 443 816 0
211 20 -338 817 0
-30 498 -454 818 0
-8 -445 384 819 0
-169 -377 -465 820 0
-231 151 472 821 0
86 168 59 822 0
334 -271 172 823 0
-177 -348 294 824 0
-199 -116 -233 825 0
349 -184 424 826 0
-261 231 488 827 0
209 337 293 828 0
346 -315 93 829 0
147 24 -478 830 0
-110 105 160 831 0
-392 339 471 832 0
492 -381 -246 833 0
484 101 366 834 0
489 -277 228 835 0
-213 -247 -153 836 0
-113 -356 -287 837 0
12 117 40 838 0
292 267 -122 839 0
-336 348 314 840 0
218 -334 187 841 0
-349 151 -458 842 0
81 -201 -183 843 0
-179 390 341 844 0
224 37 466 845 0
-128 -454 -163 846 0
32 94 400 847 0
-183 -261 -15 848 0
253 -299 -104 849 0
-78 -394 -158 850 0
-232 55 436 851 0
209 -191 369 852 0
-443 -382 477 853 0
190 341 266 854 0
-265 -29 -196 855 0
-457 499 476 856 0
-186 463 -69 857 0
-245 -73 -370 858 0
-66 134 -135 859 0
41 91 -302 860 0
51 -172 -305 861 0
-113 -471 303 862 0
-134 374 23 863 0
177 -432 -471 864 0
-203 359 -23 865 0
-410 -369 234 866 0
-315 108 41 867 0
284 -322 -121 868 0
308 -36 158 869 0
136 174 -24 870 0
-277 -114 88 871 0
-226 24 -69 872 0
-469 268 94 873 0
294 -71 -104 874 0
432 -318 147 875 0
-434 -152 -29 876 0
-115 -313 -340 877 0
78 240 -310 878 0
399 54 366 879 0
439 266 162 880 0
72 123 -219 881 0
-117 -161 132 882 0
-321 472 -205 883 0
275 174 -241 884 0
362 315 162 885 0
242 224 208 886 0
-215 473 -424 887 0
5 -130 28 888 0
-494 -388 399 889 0
266 -161 -363 890 0
-435 203 62 891 0
-297 141 -368 892 0
-494 144 -487 893 0
490 -489 344 894 0
256 407 408 895 0
387 -276 -346 896 0
418 -275 156 897 0
169 -61 -423 898 0
363 236 -469 899 0
210 -37 -484 900 0
318 -426 362 901 0
479 266 99 902 0
-489 -131 381 903 0
-288 -472 216 904 0
-278 -498 -393 905 0
-396 -442 -149 906 0
-172 147 295 907 0
-431 318 485 908 0
238 -397 6 909 0
-418 -78 -131 910 0
-315 -139 -187 911 0
279 198 468 912 0
-206 489 -92 913 0
-409 290 -127 914 0
497 127 398 915 0
217 -139 479 916 0
-311 129 -98 917 0
-239 222 468 918 0
-460 266 -336 919 0
409 -228 -387 920 0
-384 109 183 921 0
-34 -467 6 922 0
432 447 -284 923 0
459 233 -64 924 0
-78 41 -388 925 0
-340 108 -255 926 0
-159 256 496 927 0
-301 -28 -127 928 0
-30 482 74 929 0
-115 9 -51 930 0
-409 175 -195 931 0
47 -343 -145 932 0
-260 -310 315 933 0
358 31 -104 934 0
8 -256 -436 935 0
275 -442 -423 936 0
124 165 100 937 0
-414 -76 -209 938 0
-326 -453 480 939 0
355 56 -264 940 0
419 -291 -287 941 0
425 45 -363 942 0
421 120 -26 943 0
-250 -347 -125 944 0
-56 218 32 945 0
382 -369 -354 946 0
134 58 -333 947 0
82 -448 -188 948 0
-383 -407 -97 949 0
258 316 -261 950 0
-82 492 -41 951 0
-415 355 176 952 0
81 261 -265 953 0
-313 96 488 954 0
238 402 240 955 0
-285 202 -98 956 0
52 175 119 957 0
175 199 -324 958 0
-434 79 116 959 0
-322 73 -187 960 0
-414 -171 226 961 0
253 -135 446 962 0
-436 -15 -290 963 0
60 110 98 964 0
-318 -306 -331 965 0
295 162 47 966 0
389 433 193 967 0
-101 185 333 968 0
-58 384 199 969 0
-162 -18 -369 970 0
-430 154 456 971 0
-197 79 -419 972 0
-223 311 -382 973 0
-156 430 -347 974 0
-337 -437 461 975 0
388 157 -19 976 0
213 378 -300 977 0
118 406 -375 978 0
-352 214 4 979 0
275 85 376 980 0
473 -416 366 981 0
-195 191 -415 982 0
-346 445 -334 983 0
-458 100 -360 984 0
-14 -62 -242 985 0
-227 -435 -24 986 0
-58 17 -197 987 0
69 252 231 988 0
-195 98 238 989 0
-201 -96 263 990 0
405 54 207 991 0
-14 33 256 992 0
118 -253 230 993 0
61 -215 -370 994 0
-82 486 88 995 0
447 436 -390 996 0
-272 -262 203 997 0
-136 252 -463 998 0
275 -33 291 999 0
386 -318 -280 1000 0
82 385 -243 1001 0
487 348 323 1002 0
-111 482 116 1003 0
-57 91 253 1004 0
-226 -221 -414 1005 0
-135 -369 -43 1006 0
-7 451 374 1007 0
35 -90 359 1008 0
-413 -378 -95 1009 0
-462 -98 212 1010 0
467 -68 128 1011 0
-174 314 -478 1012 0
-53 27 -23 1013 0
-374 -137 -335 1014 0
260 324 -408 1015 0
8 301 -358 1016 0
-335 -256 -170 1017 0
13 -64 -51 1018 0
-298 -13 83 1019 0
-451 -292 -10 1020 0
-69 -135 -493 1021 0
395 141 -336 1022 0
111 -486 -245 1023 0
336 -473 414 1024 0
-15 -157 -109 1025 0
-167 418 -345 1026 0
-282 71 -453 1027 0
130 -338 -282 1028 0
-491 -3 350 1029 0
35 -166 191 1030 0
84 -96 -290 1031 0
-148 215 -195 1032 0
324 -382 -143 1033 0
-207 21 -10 1034 0
169 112 141 1035 0
487 317 69 1036 0
-360 -314 103 1037 0
-307 -488 -359 1038 0
137 372 -163 1039 0
469 -252 -456 1040 0
-60 -209 -480 1041 0
478 -482 301 1042 0
-317 -130 -306 1043 0
-465 432 235 1044 0
221 -355 -489 1045 0
-406 -135 273 1046 0
-43 -237 -176 1047 0
-344 50 438 1048 0
-119 -120 53 1049 0
-10 -31 183 1050 0
-491 -126 -324 1051 0
-428 18 119 1052 0
-39 -333 2 1053 0
-201 -168 35 1054 0
-200 478 -94 1055 0
-131 384 205 1056 0
-80 304 -468 1057 0
-268 113 -81 1058 0
455 251 426 1059 0
117 184 -460 1060 0
218 305 435 1061 0
338 232 -271 1062 0
466 -331 103 1063 0
185 -224 -158 1064 0
226 -495 -209 1065 0
218 15 -185 1066 0
-396 -280 -246 1067 0
-271 -42 -9 1068 0
-357 -188 426 1069 0
-225 -153 375 1070 0
451 -124 172 1071 0
-204 -325 -321 1072 0
308 -28 -147 1073 0
-405 170 -10 1074 0
7 -158 390 1075 0
-175 -183 425 1076 0
-80 -475 -285 1077 0
162 -304 497 1078 0
-207 -342 399 1079 0
4 53 142 1080 0
-308 -251 -375 1081 0
-456 308 -58 1082 0
493 -243 -113 1083 0
-421 -160 468 1084 0
-175 -324 -59 1085 0
358 338 39 1086 0
-81 -397 161 1087 0
-439 329 -32 1088 0
-361 -101 -200 1089 0
427 132 338 1090 0
-476 -479 -436 1091 0
-262 -466 -111 1092 0
-166 213 413 1093 0
360 -146 -413 1094 0
-428 -487 -431 1095 0
-138 492 257 1096 0
95 481 19 1097 0
-119 -395 289 1098 0
401 240 236 1099 0
497 406 235 1100 0
-42 -78 279 1101 0
-449 257 3 1102 0
-445 -369 -212 1103 0
-24 450 -144 1104 0
298 -258 -50 1105 0
-7 41 -49 1106 0
13 126 75 1107 0
-136 -256 -210 1108 0
204 -358 -284 1109 0
-309 129 -34 1110 0
-272 268 -99 1111 0
267 253 398 1112 0
366 147 195 1113 0
469 366 -364 1114 0
115 114 -9 1115 0
-233 433 56 1116 0
148 276 -259 1117 0
475 -262 -224 1118 0
-386 429 -51 1119 0
-294 235 -263 1120 0
-186 308 148 1121 0
-83 -75 -292 1122 0
-304 -174 453 1123 0
347 -217 -489 1124 0
-468 -243 84 1125 0
-345 155 435 1126 0
225 -337 157 1127 0
174 205 359 1128 0
96 46 122 1129 0
88 107 312 1130 0
218 379 149 1131 0
214 343 -208 1132 0
-453 -192 195 1133 0
366 94 -412 1134 0
-213 -404 326 1135 0
369 451 500 1136 0
418 458 -190 1137 0
-453 383 7 1138 0
22 151 -271 1139 0
-308 197 188 1140 0
194 -81 314 1141 0
-53 -107 493 1142 0
275 52 -192 1143 0
178 -1 -255 1144 0
346 158 -388 1145 0
-278 -173 202 1146 0
71 -415 313 1147 0
-125 -360 204 1148 0
331 228 61 1149 0
-137 425 -285 1150 0
299 -335 -449 1151 0
-126 -334 412 1152 0
-17 -54 -430 1153 0
-406 -252 -483 1154 0
-480 199 155 1155 0
-254 -166 -182 1156 0
460 110 -486 1157 0
298 442 265 1158 0
175 -189 294 1159 0
213 -247 276 1160 0
-179 -27 -458 1161 0
-272 56 422 1162 0
499 228 388 1163 0
18 250 -285 1164 0
-269 -489 343 1165 0
-220 -458 367 1166 0
448 -82 249 1167 0
226 -42 -362 1168 0
-108 103 277 1169 0
-479 -85 211 1170 0
181 -198 398 1171 0
279 -297 208 1172 0
-426 44 336 1173 0
372 -351 363 1174 0
456 -272 -472 1175 0
-268 39 -217 1176 0
-76 -30 -152 1177 0
251 425 152 1178 0
309 170 360 1179 0
-485 -444 -151 1180 0
286 254 493 1181 0
235 -317 -272 1182 0
461 -487 -387 1183 0
-55 15 -354 1184 0
-238 -102 -9 1185 0
310 473 -443 1186 0
-190 494 -381 1187 0
461 -163 -459 1188 0
61 -236 229 1189 0
-216 461 162 1190 0
-400 -222 -332 1191 0
-125 238 -450 1192 0
297 -305 -240 1193 0
469 -269 336 1194 0
172 -89 322 1195 0
-146 -6 -70 1196 0
-204 251 -80 1197 0
289 395 28 1198 0
91 83 -302 1199 0
-27 56 185 1200 0
-428 -158 274 1201 0
-445 -55 392 1202 0
7 -6 -72 1203 0
-104 -351 89 1204 0
426 -139 53 1205 0
410 -111 12 1206 0
360 -133 -51 1207 0
-257 -75 -460 1208 0
-384 -348 -387 1209 0
75 -284 441 1210 0
-216 122 -473 1211 0
204 294 -344 1212 0
463 484 139 1213 0
-465 494 -105 1214 0
351 307 -61 1215 0
-472 -4 142 1216 0
-328 343 283 1217 0
263 485 -405 1218 0
-393 77 -229 1219 0
-83 23 41 1220 0
253 324 175 1221 0
69 85 -174 1222 0
95 -240 129 1223 0
98 -380 -186 1224 0
-126 88 -48 1225 0
-366 -246 -419 1226 0
-279 -251 85 1227 0
-387 -15 -271 1228 0
271 413 -162 1229 0
-390 -155 -112 1230 0
490 58 -29 1231 0
-87 416 442 1232 0
482 -263 143 1233 0
128 86 -338 1234 0
-467 199 203 1235 0
-195 395 -321 1236 0
335 416 -421 1237 0
-424 178 394 1238 0
-451 -121 -147 1239 0
149 -116 -375 1240 0
-81 -487 9 1241 0
-154 490 -181 1242 0
42 460 -396 1243 0
269 413 -191 1244 0
-294 -221 -410 1245 0
-392 -191 -489 1246 0
-245 -299 127 1247 0
393 375 431 1248 0
469 -319 -479 1249 0
-231 -83 85 1250 0
-362 459 -257 1251 0
-306 -464 481 1252 0
-119 -165 -152 1253 0
200 282 289 1254 0
-116 -97 -420 1255 0
101 -411 174 1256 0
-156 376 -110 1257 0
252 463 -19 1258 0
-299 -144 392 1259 0
289 -79 373 1260 0
-432 -170 -344 1261 0
-473 433 281 1262 0
-223 361 -368 1263 0
203 331 -62 1264 0
-454 -321 77 1265 0
122 -243 72 1266 0
-283 480 412 1267 0
-169 -134 175 1268 0
422 -458 -178 1269 0
439 -204 -402 1270 0
-33 63 495 1271 0
-234 394 -204 1272 0
-156 -394 -354 1273 0
190 -389 95 1274 0
150 -149 215 1275 0
209 192 -229 1276 0
35 -329 173 1277 0
-399 118 153 1278 0
175 -376 58 1279 0
-13 437 393 1280 0
-237 -6 -299 1281 0
-470 146 -452 1282 0
117 465 -360 1283 0
-326 -159 -79 1284 0
-326 -136 -22 1285 0
142 148 -392 1286 0
-96 121 246 1287 0
-295 342 -199 1288 0
72 23 155 1289 0
155 -473 -476 1290 0
-114 -162 -436 1291 0
403 -473 103 1292 0
-451 -449 151 1293 0
159 14 -375 1294 0
-288 -83 -241 1295 0
178 81 -139 1296 0
-209 -128 497 1297 0
21 410 247 1298 0
-185 -243 450 1299 0
-471 51 338 1300 0
-178 -107 -252 1301 0
-8 119 -161 1302 0
-364 -302 326 1303 0
-126 -185 103 1304 0
45 437 -27 1305 0
275 -138 -207 1306 0
-22 -138 204 1307 0
-271 254 404 1308 0
-353 435 -481 1309 0
41 -68 -19 1310 0
56 -130 161 1311 0
-176 72 441 1312 0
106 -93 323 1313 0
-188 -24 66 1314 0
-294 131 -226 1315 0
-371 -299 -136 1316 0
298 -219 241 1317 0
-116 335 341 1318 0
-411 -324 403 1319 0
323 -495 -318 1320 0
-374 192 -15 1321 0
69 -417 347 1322 0
39 128 -331 1323 0
367 167 -423 1324 0
-457 231 -364 1325 0
-51 -455 -393 1326 0
142 -409 429 1327 0
305 153 -362 1328 0
327 -344 -424 1329 0
-192 -84 214 1330 0
-323 360 -148 1331 0
481 -31 324 1332 0
315 -302 -116 1333 0
242 -138 -121 1334 0
371 -311 -488 1335 0
-37 310 -238 1336 0
459 -318 -247 1337 0
485 448 92 1338 0
-443 -418 256 1339 0
354 -446 291 1340 0
227 235 -314 1341 0
42 36 -235 1342 0
353 72 -29 1343 0
-115 -452 -422 1344 0
169 -148 262 1345 0
29 268 -403 1346 0
-371 481 247 1347 0
-122 355 197 1348 0
291 20 288 1349 0
481 -315 224 1350 0
156 -122 -399 1351 0
424 -59 326 1352 0
-117 -68 -442 1353 0
412 -367 -279 1354 0
145 -128 -140 1355 0
78 278 -341 1356 0
170 477 215 1357 0
-437 -382 -371 1358 0
-38 -470 -118 1359 0
59 -481 381 1360 0
-204 -412 -7 1361 0
-162 -284 136 1362 0
-145 97 -15 1363 0
203 106 -451 1364 0
-378 -40 201 1365 0
262 -13 417 1366 0
-395 17 100 1367 0
246 -407 347 1368 0
-110 393 232 1369 0
380 82 465 1370 0
-162 -80 -243 1371 0
268 -271 465 1372 0
-78 -127 57 1373 0
-410 -207 -70 1374 0
-415 -197 448 1375 0
258 -204 -269 1376 0
-274 -193 271 1377 0
-178 399 380 1378 0
-214 394 -127 1379 0
378 433 -33 1380 0
400 213 -484 1381 0
466 -358 -24 1382 0
-270 -237 -5 1383 0
416 -172 428 1384 0
65 288 77 1385 0
154 158 6 1386 0
-377 100 331 1387 0
393 -125 291 1388 0
-466 -51 13 1389 0
131 -349 -477 1390 0
-225 -375 33 1391 0
-355 54 500 1392 0
195 -146 55 1393 0
-307 336 -476 1394 0
-366 437 -395 1395 0
-128 96 -103 1396 0
-406 -203 -416 1397 0
-237 -65 115 1398 0
200 244 398 1399 0
424 144 176 1400 0
109 -248 330 1401 0
189 -13 422 1402 0
-198 -331 -31 1403 0
-21 -371 -408 1404 0
-295 318 276 1405 0
2 354 112 1406 0
141 403 59 1407 0
-49 396 158 1408 0
-271 261 42 1409 0
283 288 492 1410 0
-415 225 56 1411 0
188 319 114 1412 0
51 345 129 1413 0
195 433 208 1414 0
-230 -457 76 1415 0
-401 488 334 1416 0
-395 400 -357 1417 0
-195 159 246 1418 0
162 23 -16 1419 0
86 23 366 1420 0
135 88 34 1421 0
-307 -4 -3 1422 0
-280 -253 -219 1423 0
490 -478 -324 1424 0
-380 151 206 1425 0
-40 -169 -71 1426 0
-139 95 239 1427 0
-441 -248 -122 1428 0
103 245 286 1429 0
349 -55 -392 1430 0
132 89 -182 1431 0
227 93 -34 1432 0
468 -226 192 1433 0
-497 -358 445 1434 0
269 132 43 1435 0
354 482 -453 1436 0
361 -444 -121 1437 0
-147 323 261 1438 0
-56 123 -433 1439 0
382 -463 157 1440 0
406 68 32 1441 0
151 -249 204 1442 0
-318 149 123 1443 0
9 415 46 1444 0
130 331 335 1445 0
204 37 -168 1446 0
-429 -422 421 1447 0
113 -398 -60 1448 0
131 -415 -42 1449 0
4 247 176 1450 0
485 65 -420 1451 0
-36 169 -81 1452 0
-105 -390 -293 1453 0
430 331 -148 1454 0
-247 -125 45 1455 0
364 274 77 1456 0
390 284 339 1457 0
-66 344 443 1458 0
-154 21 302 1459 0
-279 -368 180 1460 0
-280 -321 -177 1461 0
465 153 -435 1462 0
462 403 -204 1463 0
180 433 -331 1464 0
350 -207 -483 1465 0
175 188 -249 1466 0
125 -288 407 1467 0
-24 -21 50 1468 0
407 -46 243 1469 0
90 32 246 1470 0
-267 -98 -242 1471 0
-439 279 -18 1472 0
175 189 6 1473 0
-465 114 -172 1474 0
491 371 -232 1475 0
-5 -200 -456 1476 0
207 -181 -245 1477 0
36 127 39 1478 0
364 -148 -9 1479 0
-93 326 -175 1480 0
325 427 -169 1481 0
412 99 -222 1482 0
-170 240 -165 1483 0
-223 -441 -264 1484 0
22 -268 -169 1485 0
417 328 -225 1486 0
-141 -476 -430 1487 0
-357 -379 -350 1488 0
393 -81 -168 1489 0
357 -95 130 1490 0
317 266 -190 1491 0
153 -334 233 1492 0
27 -90 115 1493 0
405 21 56 1494 0
179 -168 195 1495 0
-318 138 -93 1496 0
172 167 -351 1497 0
-138 -246 -244 1498 0
202 -329 -330 1499 0
265 149 -168 1500 0
-35 -476 -451 1501 0
242 16 500 1502 0
-366 298 321 1503 0
227 -329 65 1504 0
284 -437 -220 1505 0
-386 -97 -198 1506 0
270 340 301 1507 0
365 -240 31 1508 0
-229 439 30 1509 0
-264 85 467 1510 0
-246 358 109 1511 0
177 -116 -142 1512 0
-313 -116 500 1513 0
443 -224 -49 1514 0
-478 -104 -107 1515 0
-194 242 158 1516 0
-417 94 150 1517 0
215 -341 -169 1518 0
-160 204 393 1519 0
-94 255 -259 1520 0
-285 98 453 1521 0
33 85 297 1522 0
-216 -279 384 1523 0
203 -164 248 1524 0
-499 -437 -457 1525 0
73 436 -293 1526 0
265 78 -188 1527 0
155 179 444 1528 0
124 -85 145 1529 0
310 -433 317 1530 0
167 407 -128 1531 0
468 -206 -13 1532 0
-446 389 450 1533 0
491 117 51 1534 0
-40 -194 4 1535 0
114 -460 -238 1536 0
238 -70 -150 1537 0
424 -207 63 1538 0
-339 487 250 1539 0
377 24 100 1540 0
303 317 495 1541 0
-263 -87 115 1542 0
-326 56 464 1543 0
-63 -474 -211 1544 0
481 -168 106 1545 0
-102 -301 -488 1546 0
260 456 301 1547 0
-294 238 395 1548 0
-39 410 -72 1549 0
-334 3 -235 1550 0
-309 -384 -324 1551 0
-82 -143 -86 1552 0
-268 129 217 1553 0
-468 45 153 1554 0
294 -197 139 1555 0
473 -476 135 1556 0
-449 4 -340 1557 0
480 105 199 1558 0
477 -151 -443 1559 0
-140 28 405 1560 0
-188 301 180 1561 0
-17 198 185 1562 0
165 470 -177 1563 0
-228 220 191 1564 0
387 246 -347 1565 0
-142 77 -328 1566 0
233 -247 -285 1567 0
-103 62 460 1568 0
-82 -47 376 1569 0
-151 237 240 1570 0
-104 -454 -373 1571 0
118 83 -52 1572 0
-320 256 -470 1573 0
290 402 -480 1574 0
-144 207 351 1575 0
-73 -141 115 1576 0
-426 403 -201 1577 0
133 166 -420 1578 0
184 -210 -121 1579 0
226 240 -23 1580 0
95 -300 71 1581 0
56 -438 -308 1582 0
-338 -458 210 1583 0
-32 -338 243 1584 0
102 -145 -4 1585 0
269 -56 -375 1586 0
-494 276 -413 1587 0
-74 112 -480 1588 0
-57 -189 -217 1589 0
-478 90 351 1590 0
243 274 -437 1591 0
-436 309 -452 1592 0
-65 370 -458 1593 0
-207 -345 52 1594 0
-149 -208 287 1595 0
-345 -133 357 1596 0
-17 62 427 1597 0
-235 -105 -89 1598 0
489 -359 -311 1599 0
37 -401 -166 1600 0
162 464 -216 1601 0
160 -96 427 1602 0
-231 -346 76 1603 0
162 298 -404 1604 0
-466 310 390 1605 0
100 269 -240 1606 0
-483 -405 -98 1607 0
-198 -183 422 1608 0
270 287 -60 1609 0
155 434 23 1610 0
-87 194 -211 1611 0
101 210 -32 1612 0
-402 -48 -107 1613 0
397 453 -358 1614 0
-84 19 263 1615 0
144 -463 -489 1616 0
-492 -368 495 1617 0
467 -208 -252 1618 0
381 -435 90 1619 0
-159 -367 75 1620 0
115 -343 -206 1621 0
154 -270 -143 1622 0
276 111 -90 1623 0
-240 79 341 1624 0
417 330 -218 1625 0
75 497 -156 1626 0
-367 -417 -11 1627 0
45 395 211 1628 0
238 -52 387 1629 0
497 -1 -100 1630 0
378 43 -404 1631 0
165 -300 51 1632 0
-157 -161 -360 1633 0
323 139 92 1634 0
-480 -200 -441 1635 0
40 -211 -277 1636 0
-51 266 -189 1637 0
468 -92 349 1638 0
191 35 433 1639 0
-62 -464 -384 1640 0
-260 -289 172 1641 0
-223 -219 232 1642 0
-372 318 -141 1643 0
344 -83 -123 1644 0
341 250 -467 1645 0
-382 -341 -420 1646 0
403 -240 367 1647 0
-159 389 -441 1648 0
-280 -233 366 1649 0
464 -207 170 1650 0
-4 -111 -120 1651 0
338 151 105 1652 0
291 -411 33 1653 0
-52 299 372 1654 0
360 388 -417 1655 0
-52 319 293 1656 0
-464 -87 342 1657 0
200 -35 -398 1658 0
-440 -355 -289 1659 0
-190 -336 -87 1660 0
190 -128 -471 1661 0
376 89 -342 1662 0
-267 255 -474 1663 0
-475 -482 111 1664 0
-203 128 -216 1665 0
-158 21 -34 1666 0
136 -219 489 1667 0
342 -280 159 1668 0
-174 340 376 1669 0
229 71 237 1670 0
-293 -306 -289 1671 0
-10 416 33 1672 0
-273 348 -461 1673 0
-397 -432 -163 1674 0
330 -284 -362 1675 0
-320 87 174 1676 0
-7 42 149 1677 0
-42 315 -450 1678 0
-448 -471 443 1679 0
412 455 -153 1680 0
-7 -204 412 1681 0
-39 -104 -118 1682 0
463 -82 -435 1683 0
17 68 233 1684 0
-472 386 226 1685 0
-387 379 210 1686 0
12 -250 350 1687 0
99 -327 -43 1688 0
472 259 375 1689 0
463 462 -405 1690 0
320 -53 -235 1691 0
-266 429 250 1692 0
-248 -471 357 1693 0
233 98 180 1694 0
-465 96 83 1695 0
380 -150 393 1696 0
-374 7 206 1697 0
-112 -319 -295 1698 0
-378 462 -421 1699 0
322 103 70 1700 0
422 489 -82 1701 0
-354 -317 -47 1702 0
458 -91 354 1703 0
9 -427 -207 1704 0
-220 81 -277 1705 0
-471 -132 214 1706 0
463 483 232 1707 0
-456 -475 423 1708 0
18 -468 63 1709 0
-267 -193 227 1710 0
20 -204 -3 1711 0
-486 -345 -211 1712 0
159 -17 35 1713 0
66 174 202 1714 0
141 -190 -213 1715 0
355 86 -477 1716 0
-259 -72 -81 1717 0
224 123 -379 1718 0
-33 448 -386 1719 0
432 -477 243 1720 0
57 290 239 1721 0
-375 217 334 1722 0
-315 370 -118 1723 0
-168 47 280 1724 0
284 -160 -6 1725 0
-436 -225 367 1726 0
-115 274 -101 1727 0
260 -155 -448 1728 0
-456 170 378 1729 0
384 -163 -379 1730 0
-2 334 -246 1731 0
301 -83 85 1732 0
132 261 -190 1733 0
348 494 -170 1734 0
335 288 -138 1735 0
-420 232 409 1736 0
35 164 -158 1737 0
323 -435 156 1738 0
-135 25 -173 1739 0
353 -483 -373 1740 0
-442 -197 384 1741 0
-458 483 394 1742 0
-189 52 -456 1743 0
190 186 -74 1744 0
231 426 136 1745 0
-426 -414 -432 1746 0
-60 212 45 1747 0
497 239 -41 1748 0
366 491 -53 1749 0
-178 -43 345 1750 0
296 -77 -320 1751 0
438 345 160 1752 0
-378 -341 -170 1753 0
-401 91 -122 1754 0
-465 314 206 1755 0
376 475 119 1756 0
-354 59 307 1757 0
-111 495 -28 1758 0
392 -212 -451 1759 0
-148 190 -493 1760 0
-124 -79 -413 1761 0
50 -133 -178 1762 0
473 -56 147 1763 0
-208 290 -31 1764 0
-302 421 -157 1765 0
188 368 -260 1766 0
403 -132 207 1767 0
-373 -419 401 1768 0
241 413 -159 1769 0
-213 -12 -356 1770 0
-180 499 -241 1771 0
-219 -180 362 1772 0
-367 200 136 1773 0
-296 -36 376 1774 0
-209 -239 -95 1775 0
-60 -57 -257 1776 0
142 388 436 1777 0
339 229 -458 1778 0
295 32 -80 1779 0
-38 2 -265 1780 0
149 -43 278 1781 0
-267 136 -70 1782 0
140 151 -161 1783 0
107 452 314 1784 0
-460 254 -385 1785 0
-378 -390 -129 1786 0
143 -150 418 1787 0
-66 -439 197 1788 0
-342 -390 66 1789 0
-398 439 178 1790 0
321 -214 119 1791 0
125 455 9 1792 0
246 -74 200 1793 0
-19 245 -21 1794 0
104 -118 -205 1795 0
85 -312 -216 1796 0
440 -369 196 1797 0
-94 286 -67 1798 0
269 -189 57 1799 0
221 -488 -217 1800 0
421 163 -73 1801 0
330 -454 483 1802 0
55 -262 -57 1803 0
-415 -85 19 1804 0
364 68 -359 1805 0
189 -134 -277 1806 0
-211 -419 -117 1807 0
-425 -191 -33 1808 0
-270 198 376 1809 0
450 483 150 1810 0
393 -43 -496 1811 0
-170 -224 233 1812 0
64 -85 -233 1813 0
-409 40 295 1814 0
119 23 196 1815 0
288 198 -354 1816 0
-422 -88 306 1817 0
331 411 324 1818 0
2 136 -65 1819 0
314 -269 351 1820 0
103 -106 -63 1821 0
-173 -306 -399 1822 0
-315 -269 -301 1823 0
-211 -256 -220 1824 0
345 259 471 1825 0
101 -229 -129 1826 0
500 245 -371 1827 0
-479 -326 -197 1828 0
-188 350 379 1829 0
321 -487 262 1830 0
129 448 -333 1831 0
-259 -494 107 1832 0
-189 68 -3 1833 0
428 340 7 1834 0
-46 48 -149 1835 0
-79 223 90 1836 0
454 -484 482 1837 0
-10 23 490 1838 0
137 351 -421 1839 0
90 -110 -446 1840 0
-21 246 -220 1841 0
331 -220 -486 1842 0
-152 320 -495 1843 0
248 -134 182 1844 0
155 177 -291 1845 0
-79 -444 463 1846 0
-269 -66 -378 1847 0
-205 -454 116 1848 0
367 464 338 1849 0
-422 288 392 1850 0
-304 -143 221 1851 0
-500 -457 -135 1852 0
488 16 -322 1853 0
169 85 -288 1854 0
287 -35 -20 1855 0
448 -323 487 1856 0
-86 434 401 1857 0
484 -102 323 1858 0
-351 120 -296 1859 0
-499 419 -477 1860 0
339 -314 -471 1861 0
-418 151 85 1862 0
-12 59 492 1863 0
-303 -394 430 1864 0
210 -2 49 1865 0
-85 302 -98 1866 0
473 -4 -199 1867 0
-85 283 -51 1868 0
268 -360 -168 1869 0
255 -474 -25 1870 0
-129 278 -99 1871 0
-201 -263 -383 1872 0
-171 184 36 1873 0
87 -146 -138 1874 0
500 -354 118 1875 0
-354 396 -304 1876 0
482 -78 -478 1877 0
176 -188 -453 1878 0
322 198 -244 1879 0
440 123 247 1880 0
370 124 -357 1881 0
-444 49 109 1882 0
422 -398 -137 1883 0
-19 128 -327 1884 0
392 -349 434 1885 0
424 297 441 1886 0
-481 40 65 1887 0
-423 -482 276 1888 0
31 50 -233 1889 0
-449 -366 95 1890 0
-171 -479 -327 1891 0
158 -404 -100 1892 0
-204 -389 327 1893 0
-428 -320 -86 1894 0
-151 300 342 1895 0
347 241 -326 1896 0
125 247 -54 1897 0
391 402 340 1898 0
-489 -249 345 1899 0
-466 -113 -354 1900 0
208 -336 235 1901 0
-296 -23 -179 1902 0
-182 -90 -352 1903 0
-485 -399 388 1904 0
182 -58 -167 1905 0
224 -47 268 1906 0
167 20 -368 1907 0
-466 -399 213 1908 0
-255 97 -389 1909 0
-480 73 444 1910 0
-59 -96 -203 1911 0
287 373 -147 1912 0
-110 278 421 1913 0
-473 279 -470 1914 0
318 -193 175 1915 0
207 -371 -16 1916 0
485 107 75 1917 0
366 -319 316 1918 0
-469 -379 -400 1919 0
-265 195 -313 1920 0
-449 478 -236 1921 0
92 -424 250 1922 0
-264 -297 450 1923 0
447 -404 -124 1924 0
424 38 -166 1925 0
199 -225 -343 1926 0
-38 -91 -445 1927 0
-195 373 435 1928 0
-476 -172 -482 1929 0
-288 -357 -18 1930 0
-202 -493 67 1931 0
-342 -496 -443 1932 0
-114 89 466 1933 0
-67 237 -136 1934 0
182 65 -117 1935 0
360 -54 -140 1936 0
-465 63 -185 1937 0
366 -155 -39 1938 0
250 -158 -461 1939 0
-48 249 -304 1940 0
386 222 448 1941 0
-253 289 -414 1942 0
-196 275 -284 1943 0
71 -198 275 1944 0
272 -83 206 1945 0
-241 487 -382 1946 0
-64 -412 21 1947 0
226 108 104 1948 0
135 -71 258 1949 0
401 392 48 1950 0
-455 -104 -82 1951 0
104 -40 122 1952 0
170 181 -393 1953 0
334 -290 282 1954 0
219 282 477 1955 0
170 134 -96 1956 0
-427 -374 -474 1957 0
337 -129 -102 1958 0
-84 196 -76 1959 0
-104 -489 -335 1960 0
-424 81 471 1961 0
382 2 495 1962 0
437 -54 -112 1963 0
-261 -422 -121 1964 0
-207 407 56 1965 0
-171 362 -407 1966 0
305 187 382 1967 0
-500 -465 -70 1968 0
-290 93 299 1969 0
5 9 -7 1970 0
-406 34 -61 1971 0
-335 49 -326 1972 0
-316 66 126 1973 0
494 -243 466 1974 0
-221 278 -254 1975 0
177 436 102 1976 0
-256 55 -494 1977 0
364 -313 413 1978 0
32 16 125 1979 0
162 -104 -394 1980 0
480 239 -118 1981 0
-321 339 -453 1982 0
310 156 -462 1983 0
130 89 -475 1984 0
-266 -359 -309 1985 0
187 -68 -200 1986 0
-482 -375 -5 1987 0
-29 302 -251 1988 0
451 204 342 1989 0
-56 -380 -69 1990 0
-374 -315 -115 1991 0
-494 -497 479 1992 0
-165 185 411 1993 0
-448 112 35 1994 0
-19 -477 214 1995 0
67 -407 409 1996 0
-321 -290 279 1997 0
-171 159 -315 1998 0
-301 246 223 1999 0
-298 483 -40 2000 0
-146 -480 263 2001 0
-31 244 -466 2002 0
-263 -396 337 2003 0
-437 344 -414 2004 0
-258 -297 -345 2005 0
488 -364 -187 2006 0
228 59 218 2007 0
-309 375 -297 2008 0
412 121 -461 2009 0
274 -9 43 2010 0
-264 -381 30 2011 0
-102 -92 146 2012 0
31 -118 311 2013 0
266 391 28 2014 0
-82 295 401 2015 0
-187 389 364 2016 0
-33 -463 -426 2017 0
-427 -25 -374 2018 0
109 -303 -382 2019 0
208 -81 480 2020 0
251 88 154 2021 0
424 -430 -390 2022 0
477 22 203 2023 0
99 140 44 2024 0
417 -299 -392 2025 0
-190 -58 275 2026 0
183 -172 243 2027 0
59 -44 -57 2028 0
357 -196 -296 2029 0
-364 -111 249 2030 0
455 358 -224 2031 0
300 -267 -485 2032 0
29 340 -481 2033 0
278 -242 26 2034 0
-225 -7 -333 2035 0
97 450 36 2036 0
404 112 -480 2037 0
-251 420 -113 2038 0
9 34 23 2039 0
250 132 258 2040 0
-183 204 90 2041 0
64 -21 243 2042 0
-120 -117 426 2043 0
-142 457 -164 2044 0
-27 178 -223 2045 0
-41 451 142 2046 0
-267 -67 -181 2047 0
407 -34 -114 2048 0
-281 -12 393 2049 0
60 -327 -326 2050 0
-175 101 -94 2051 0
-78 291 292 2052 0
-179 -337 -223 2053 0
206 441 -147 2054 0
-368 -126 -394 2055 0
459 -95 141 2056 0
-7 -148 267 2057 0
-426 355 -101 2058 0
409 61 -443 2059 0
144 -342 -303 2060 0
-226 -369 -68 2061 0
186 -206 275 2062 0
-52 -457 -51 2063 0
-137 -421 271 2064 0
252 -494 -109 2065 0
258 144 -28 2066 0
-312 -482 -481 2067 0
477 57 -293 2068 0
-438 -208 -475 2069 0
-402 -228 -138 2070 0
-379 -174 38 2071 0
-447 -46 -291 2072 0
301 -166 486 2073 0
172 425 -491 2074 0
-165 -406 51 2075 0
-59 -259 -495 2076 0
192 460 422 2077 0
397 -426 452 2078 0
123 -79 206 2079 0
46 106 -228 2080 0
1 292 -475 2081 0
-408 131 -115 2082 0
-64 -48 438 2083 0
-204 -226 448 2084 0
-350 191 177 2085 0
288 295 10 2086 0
-435 78 -247 2087 0
-168 319 364 2088 0
483 -280 238 2089 0
369 -142 -371 2090 0
330 33 -468 2091 0
-102 148 -227 2092 0
50 -112 -466 2093 0
367 416 -168 2094 0
424 -120 -277 2095 0
97 407 -463 2096 0
-381 -447 115 2097 0
56 -466 333 2098 0
-172 -166 -331 2099 0
128 67 321 2100 0
264 -185 -295 2101 0
304 -342 423 2102 0
110 305 293 2103 0
55 306 -160 2104 0
-290 435 -244 2105 0
-299 -400 343 2106 0
192 302 169 2107 0
-380 -220 -108 2108 0
69 -439 -146 2109 0
-389 246 215 2110 0
305 -138 160 2111 0
-93 -8 -305 2112 0
394 -362 -230 2113 0
463 -368 -397 2114 0
296 384 -217 2115 0
-429 145 -26 2116 0
-298 -385 -107 2117 0
276 381 -472 2118 0
-393 176 -354 2119 0
336 -181 156 2120 0
-18 408 348 2121 0
256 -63 -148 2122 0
221 -393 -29 2123 0
-471 270 -76 2124 0
-60 50 -312 2125 0
-169 -111 -146 2126 0
414 148 112 2127 0
455 423 272 2128 0
387 316 -406 2129 0
-113 -57 497 2130 0
96 -66 -116 2131 0
484 83 327 2132 0
-477 180 -332 2133 0
-192 65 -343 2134 0
-434 -162 266 2135 0
25 -19 146 2136 0
-22 -193 -348 2137 0
-232 143 244 2138 0
-25 -198 -71 2139 0
-417 234 346 2140 0
137 376 -290 2141 0
389 -118 386 2142 0
344 301 -104 2143 0
327 -437 322 2144 0
374 -137 64 2145 0
68 -168 -428 2146 0
233 -215 222 2147 0
-288 -94 91 2148 0
-455 376 -330 2149 0
145 -444 -25 2150 0
-16 -349 103 2151 0
406 251 435 2152 0
383 441 499 2153 0
-313 -148 171 2154 0
463 -324 464 2155 0
429 -333 -137 2156 0
161 455 -482 2157 0
79 478 -381 2158 0
468 218 -39 2159 0
449 284 348 2160 0
-223 -371 -244 2161 0
-337 360 -265 2162 0
-62 199 409 2163 0
248 294 -397 2164 0
-228 -263 -206 2165 0
43 362 -214 2166 0
348 -148 478 2167 0
-162 -275 39 2168 0
-464 -361 -173 2169 0
-152 37 437 2170 0
-316 342 16 2171 0
-453 -21 406 2172 0
211 286 14 2173 0
-494 455 -228 2174 0
395 340 -164 2175 0
170 -72 -311 2176 0
-85 -401 -67 2177 0
476 263 -117 2178 0
216 373 496 2179 0
233 -334 -470 2180 0
101 409 429 2181 0
-363 -371 239 2182 0
491 -68 -309 2183 0
-129 67 196 2184 0
351 -423 418 2185 0
-474 -124 397 2186 0
-434 296 151 2187 0
-145 205 -323 2188 0
48 424 -24 2189 0
8 -437 249 2190 0
128 -41 -408 2191 0
28 486 -36 2192 0
-83 -125 -142 2193 0
-450 66 -147 2194 0
-359 428 -135 2195 0
-45 103 -288 2196 0
111 -232 398 2197 0
-300 400 -227 2198 0
345 5 359 2199 0
25 -145 276 2200 0
41 330 -139 2201 0
-61 266 -73 2202 0
-405 -22 -393 2203 0
-134 -46 383 2204 0
66 153 -188 2205 0
173 -284 323 2206 0
283 -273 208 2207 0
-364 498 -500 2208 0
31 -6 -26 2209 0
233 280 375 2210 0
9 408 -285 2211 0
-486 -12 383 2212 0
344 -251 178 2213 0
203 -298 -347 2214 0
-197 485 39 2215 0
490 328 -88 2216 0
459 -304 -345 2217 0
-332 228 -331 2218 0
460 385 -419 2219 0
19 146 -128 2220 0
-170 40 319 2221 0
-351 160 479 2222 0
149 -305 -464 2223 0
350 -6 278 2224 0
-61 286 354 2225 0
-22 412 -220 2226 0
-471 323 -62 2227 0
3 126 -244 2228 0
216 -228 -321 2229 0
-117 267 -444 2230 0
417 216 -169 2231 0
131 -484 442 2232 0
486 366 115 2233 0
223 470 -192 2234 0
9 -48 -210 2235 0
-423 436 -399 2236 0
-56 -309 433 2237 0
448 249 -156 2238 0
-291 393 -27 2239 0
439 467 42 2240 0
-394 351 -345 2241 0
404 -173 484 2242 0
370 -118 -116 2243 0
472 55 199 2244 0
426 -377 8 2245 0
-493 -416 -172 2246 0
413 62 132 2247 0
-387 -123 189 2248 0
-414 28 470 2249 0
125 -110 -490 2250 0
-104 268 75 2251 0
-20 -207 191 2252 0
260 -119 379 2253 0
-341 -464 297 2254 0
348 366 -412 2255 0
-231 -95 399 2256 0
-34 183 -218 2257 0
6 381 -94 2258 0
278 -440 357 2259 0
-217 53 -390 2260 0
9 381 470 2261 0
-364 125 -261 2262 0
91 333 -81 2263 0
-114 139 -454 2264 0
-452 -469 -133 2265 0
-146 -36 108 2266 0
499 -137 217 2267 0
221 219 229 2268 0
214 299 127 2269 0
-107 -356 -205 2270 0
121 455 173 2271 0
78 -205 -185 2272 0
-472 428 207 2273 0
360 -91 -444 2274 0
-110 488 390 2275 0
-40 -11 -265 2276 0
-72 -252 404 2277 0
-56 -110 215 2278 0
410 89 141 2279 0
-418 -307 254 2280 0
-217 314 -43 2281 0
-38 -133 448 2282 0
184 -408 -41 2283 0
242 107 -313 2284 0
174 116 489 2285 0
-340 -132 -108 2286 0
-113 -289 331 2287 0
48 332 -406 2288 0
-433 77 -303 2289 0
129 -492 197 2290 0
401 -105 -146 2291 0
-449 455 180 2292 0
-413 412 85 2293 0
-250 -436 208 2294 0
72 257 382 2295 0
-359 149 -342 2296 0
-322 -6 296 2297 0
-35 -217 -328 2298 0
302 322 -301 2299 0
490 -5 385 2300 0
-10 -5 477 2301 0
-378 -497 107 2302 0
16 198 -397 2303 0
-473 -69 -288 2304 0
72 -359 -347 2305 0
-26 136 -373 2306 0
183 -355 326 2307 0
-86 -285 -194 2308 0
-489 -247 -481 2309 0
88 -370 -133 2310 0
-393 -471 -193 2311 0
-168 124 -368 2312 0
201 -268 386 2313 0
162 327 227 2314 0
315 -216 383 2315 0
410 -409 -214 2316 0
134 -327 -300 2317 0
-380 431 99 2318 0
491 -364 120 2319 0
478 -103 -21 2320 0
173 348 -262 2321 0
292 70 298 2322 0
360 478 341 2323 0
371 187 -255 2324 0
87 -130 -238 2325 0
-159 -380 -288 2326 0
-402 486 66 2327 0
128 -355 -347 2328 0
200 411 -361 2329 0
-130 318 422 2330 0
333 55 -54 2331 0
-446 235 279 2332 0
-174 34 -1 2333 0
301 -47 -420 2334 0
-451 487 -124 2335 0
449 173 -413 2336 0
122 445 275 2337 0
357 -453 -317 2338 0
282 -461 406 2339 0
382 220 -335 2340 0
122 354 -243 2341 0
-255 -444 -81 2342 0
69 -419 -31 2343 0
201 282 373 2344 0
-413 -23 214 2345 0
374 213 -60 2346 0
-211 287 -120 2347 0
350 385 -459 2348 0
-191 402 -205 2349 0
281 405 441 2350 0
388 462 -295 2351 0
442 43 42 2352 0
-369 -55 -92 2353 0
-186 463 -397 2354 0
210 54 -172 2355 0
371 484 -361 2356 0
237 -271 77 2357 0
-454 332 -260 2358 0
387 409 -312 2359 0
281 193 489 2360 0
388 -1 -350 2361 0
330 298 170 2362 0
-442 -153 18 2363 0
216 -403 488 2364 0
309 -187 -138 2365 0
-197 230 -114 2366 0
-333 -246 -357 2367 0
-239 -415 -500 2368 0
32 -350 -3 2369 0
-82 9 -168 2370 0
-188 -153 -314 2371 0
387 278 -162 2372 0
-459 231 315 2373 0
430 128 -339 2374 0
122 178 -217 2375 0
-488 -369 230 2376 0
14 471 -320 2377 0
224 -294 160 2378 0
-296 172 392 2379 0
-11 -28 -145 2380 0
173 -410 39 2381 0
-479 -367 -144 2382 0
-356 113 139 2383 0
56 -126 483 2384 0
-414 -332 -310 2385 0
-74 -432 353 2386 0
335 469 205 2387 0
448 334 -204 2388 0
-152 -169 -188 2389 0
153 274 -417 2390 0
144 377 -86 2391 0
-191 -387 309 2392 0
-236 -204 313 2393 0
24 -406 445 2394 0
440 -420 -149 2395 0
-292 228 -191 2396 0
220 -289 -372 2397 0
219 69 -361 2398 0
257 -215 262 2399 0
-314 252 387 2400 0
260 -341 -8 2401 0
-446 84 106 2402 0
-488 479 66 2403 0
228 93 158 2404 0
-232 435 474 2405 0
130 -429 -460 2406 0
445 500 297 2407 0
-33 358 139 2408 0
432 -147 185 2409 0
-91 97 -237 2410 0
-57 42 -2 2411 0
384 419 -380 2412 0
-226 203 278 2413 0
330 -54 -490 2414 0
-495 -214 -146 2415 0
212 37 477 2416 0
208 -264 -89 2417 0
334 -299 104 2418 0
-249 181 -178 2419 0
66 27 -494 2420 0
-178 380 86 2421 0
-489 -286 -275 2422 0
44 453 307 2423 0
189 -294 -485 2424 0
-244 19 -123 2425 0
-269 -39 -416 2426 0
-415 7 -405 2427 0
313 -103 -50 2428 0
-46 -331 -34 2429 0
-323 280 -437 2430 0
-393 -95 -359 2431 0
-335 153 204 2432 0
-348 145 -52 2433 0
152 -479 338 2434 0
310 425 446 2435 0
-233 352 -184 2436 0
112 426 -358 2437 0
-384 -475 -3 2438 0
-125 -231 -381 2439 0
244 -387 -214 2440 0
-96 -173 52 2441 0
320 -471 -450 2442 0
318 181 235 2443 0
332 -49 140 2444 0
-474 -315 186 2445 0
-221 281 -290 2446 0
-124 -24 -93 2447 0
178 -383 239 2448 0
314 364 253 2449 0
-496 351 -189 2450 0
-306 39 -54 2451 0
-371 4 -21 2452 0
391 52 7 2453 0
204 -76 122 2454 0
125 -188 -144 2455 0
-361 290 -232 2456 0
-457 451 500 2457 0
-487 82 -151 2458 0
-372 -27 -307 2459 0
-251 177 -430 2460 0
-121 -403 -368 2461 0
-6 57 -346 2462 0
396 -12 -19 2463 0
190 -49 262 2464 0
196 270 473 2465 0
-65 473 -374 2466 0
110 -198 -423 2467 0
-283 -81 95 2468 0
-97 -287 -401 2469 0
-461 -386 -438 2470 0
118 -320 -53 2471 0
430 -413 331 2472 0
255 -413 -72 2473 0
483 -453 422 2474 0
-54 284 241 2475 0
200 -453 -123 2476 0
-293 250 -341 2477 0
122 382 -74 2478 0
253 450 -414 2479 0
152 -139 214 2480 0
-118 305 161 2481 0
500 348 -313 2482 0
469 -1 -139 2483 0
-466 33 -421 2484 0
260 -178 -166 2485 0
-14 -434 352 2486 0
-282 -231 -61 2487 0
-489 -128 -286 2488 0
22 -299 -345 2489 0
-458 -245 441 2490 0
-43 437 -229 2491 0
-390 281 368 2492 0
-111 -381 -245 2493 0
-126 -64 -101 2494 0
-298 399 478 2495 0
490 461 -479 2496 0
-79 226 -179 2497 0
-338 -108 -78 2498 0
343 443 -37 2499 0
-433 -189 -476 2500 0
-423 -435 54 2501 0
-108 444 302 2502 0
238 341 345 2503 0
433 -117 -338 2504 0
284 -115 -57 2505 0
-83 -313 -137 2506 0
415 -55 227 2507 0
42 -463 130 2508 0
-223 134 -298 2509 0
11 296 -304 2510 0
127 405 -20 2511 0
111 -184 265 2512 0
-341 205 60 2513 0
-144 159 465 2514 0
-288 -318 -237 2515 0
-403 69 42 2516 0
125 479 303 2517 0
5 457 183 2518 0
316 27 54 2519 0
-235 274 389 2520 0
183 -354 -405 2521 0
-310 167 32 2522 0
-96 33 -356 2523 0
-404 -472 414 2524 0
-252 247 299 2525 0
-168 -23 -83 2526 0
-219 202 497 2527 0
165 372 -26 2528 0
-213 402 -9 2529 0
204 423 -447 2530 0
-145 -9 265 2531 0
277 246 -469 2532 0
333 -144 67 2533 0
49 65 -466 2534 0
-488 -37 -216 2535 0
360 203 440 2536 0
346 269 -201 2537 0
-88 186 311 2538 0
-380 -425 -393 2539 0
140 32 187 2540 0
181 -20 123 2541 0
-285 94 -358 2542 0
120 -147 -451 2543 0
90 -367 -312 2544 0
80 393 -1 2545 0
-115 -371 -406 2546 0
238 366 -260 2547 0
98 -200 460 2548 0
-184 363 26 2549 0
-4 340 -21 2550 0
-107 500 -355 2551 0
-477 165 -212 2552 0
-420 -42 -340 2553 0
-427 -303 -351 2554 0
-221 366 474 2555 0
-399 298 352 2556 0
225 -82 -74 2557 0
-39 -310 -393 2558 0
263 -327 290 2559 0
138 148 -307 2560 0
348 170 -392 2561 0
393 -114 -29 2562 0
94 -17 384 2563 0
475 -248 -101 2564 0
-483 460 124 2565 0
454 487 -23 2566 0
-22 -373 -31 2567 0
141 388 489 2568 0
-86 -90 262 2569 0
277 425 286 2570 0
-220 113 -189 2571 0
-372 201 -236 2572 0
-466 -167 9 2573 0
-211 -390 346 2574 0
-260 -8 164 2575 0
-27 120 -17 2576 0
168 -197 -285 2577 0
-249 -169 -448 2578 0
-348 -357 -484 2579 0
186 40 -228 2580 0
-12 268 -301 2581 0
-456 -253 -61 2582 0
-221 157 -465 2583 0
371 348 -276 2584 0
313 202 -235 2585 0
-365 454 -456 2586 0
53 277 5 2587 0
-321 -495 -453 2588 0
-147 479 388 2589 0
-349 -63 120 2590 0
-207 -354 -196 2591 0
-447 -406 498 2592 0
47 -421 226 2593 0
-219 167 106 2594 0
-217 99 -104 2595 0
166 -200 -27 2596 0
17 -497 153 2597 0
480 -185 -479 2598 0
-259 64 -62 2599 0
-390 285 -109 2600 0
384 313 -428 2601 0
32 30 189 2602 0
240 34 -303 2603 0
-388 -71 -258 2604 0
-7 -18 -364 2605 0
-395 149 116 2606 0
-476 -314 -351 2607 0
404 -1 3 2608 0
293 1 125 2609 0
243 226 -273 2610 0
-380 -175 -194 2611 0
-102 -63 274 2612 0
-489 457 23 2613 0
-420 -363 -262 2614 0
-57 -339 356 2615 0
366 -195 293 2616 0
420 -304 -331 2617 0
450 -318 -425 2618 0
412 65 415 2619 0
-422 334 -17 2620 0
-456 -275 310 2621 0
-458 -446 255 2622 0
185 43 -416 2623 0
371 166 419 2624 0
-463 496 235 2625 0
185 -328 176 2626 0
159 -144 176 2627 0
202 -489 415 2628 0
65 14 -271 2629 0
-463 4 -216 2630 0
152 -266 455 2631 0
63 56 -478 2632 0
179 464 69 2633 0
-353 -346 251 2634 0
393 201 207 2635 0
-479 70 -400 2636 0
409 -66 208 2637 0
-490 -32 26 2638 0
-372 -429 -65 2639 0
111 402 -180 2640 0
-255 220 442 2641 0
-43 -175 -411 2642 0
-479 -284 -54 2643 0
-309 -435 -87 2644 0
363 -43 -465 2645 0
-293 183 -323 2646 0
-388 -248 357 2647 0
301 -451 -125 2648 0
-323 -40 -132 2649 0
-223 153 452 2650 0
