p cnf 2650 2150
28 -337 -330 501 0
-166 16 -92 502 0
-279 447 -333 503 0
208 35 199 504 0
-149 -439 127 505 0
-216 357 -54 506 0
277 79 374 507 0
156 295 -215 508 0
250 311 94 509 0
160 497 -334 510 0
437 -13 206 511 0
13 -340 154 512 0
200 -223 -195 513 0
328 2 288 514 0
-331 -386 -396 515 0
220 165 -93 516 0
-143 276 -396 517 0
-146 -127 426 518 0
-306 -339 141 519 0
118 -115 -352 520 0
206 7 -257 521 0
13 -196 -168 522 0
204 -115 296 523 0
401 -496 150 524 0
251 71 -342 525 0
-16 -137 429 526 0
206 -151 -20 527 0
-126 42 98 528 0
229 2 326 529 0
-173 -225 -209 530 0
10 267 -64 531 0
-101 -216 8 532 0
-496 -364 -112 533 0
206 -299 -97 534 0
176 408 86 535 0
-391 -481 315 536 0
-80 -149 -277 537 0
-48 145 9 538 0
-13 315 -350 539 0
139 320 -488 540 0
289 406 165 541 0
71 478 -462 542 0
-213 84 375 543 0
-71 235 257 544 0
452 -178 -320 545 0
-3 150 396 546 0
-206 297 378 547 0
-93 488 436 548 0
499 112 129 549 0
20 -288 350 550 0
233 404 -234 551 0
166 401 56 552 0
-106 -392 -126 553 0
76 220 -71 554 0
-111 80 385 555 0
193 151 311 556 0
235 -185 477 557 0
-375 85 -198 558 0
-230 283 215 559 0
-444 371 -262 560 0
58 96 -374 561 0
-20 269 368 562 0
389 -264 -142 563 0
-168 255 -451 564 0
-186 95 -489 565 0
476 -12 -269 566 0
277 157 354 567 0
-213 424 228 568 0
220 448 -490 569 0
-458 404 23 570 0
-285 307 414 571 0
-247 37 172 572 0
-36 -367 -268 573 0
-87 -11 107 574 0
79 216 376 575 0
-469 -203 241 576 0
-189 489 106 577 0
465 175 -135 578 0
381 182 84 579 0
-165 -278 310 580 0
-34 472 342 581 0
-147 -417 195 582 0
5 492 130 583 0
-298 184 -109 584 0
175 -470 -488 585 0
-239 218 -347 586 0
192 -110 -249 587 0
205 -340 -43 588 0
23 -476 485 589 0
-53 431 97 590 0
-298 -95 -69 591 0
-221 245 439 592 0
-326 -323 -474 593 0
53 112 471 594 0
425 210 -260 595 0
128 -210 -365 596 0
113 -319 205 597 0
-302 -343 -124 598 0
336 6 -315 599 0
122 399 -345 600 0
351 439 -316 601 0
358 336 489 602 0
-71 366 251 603 0
-140 -375 60 604 0
30 -5 -483 605 0
282 -283 390 606 0
-388 -135 -208 607 0
-110 -382 -80 608 0
-101 -34 -465 609 0
411 -12 43 610 0
-411 35 -70 611 0
65 224 -291 612 0
-221 -236 10 613 0
-180 223 -40 614 0
368 -305 -498 615 0
166 -267 402 616 0
-86 -328 43 617 0
361 -242 -196 618 0
80 -466 252 619 0
138 275 -276 620 0
318 -323 277 621 0
-268 461 -115 622 0
-190 -369 -210 623 0
-356 -41 171 624 0
-389 -296 180 625 0
228 -174 -418 626 0
9 10 228 627 0
445 -57 228 628 0
-368 -494 395 629 0
-175 -111 -408 630 0
-334 398 -257 631 0
-177 -369 -470 632 0
320 -499 -39 633 0
401 479 74 634 0
-175 -19 -67 635 0
463 332 -349 636 0
-372 -87 429 637 0
268 288 -364 638 0
350 -461 324 639 0
-133 -58 366 640 0
407 -325 -103 641 0
-496 -350 160 642 0
-134 300 376 643 0
-19 -143 420 644 0
-481 335 -81 645 0
442 -453 499 646 0
115 435 469 647 0
359 -371 379 648 0
-218 -238 390 649 0
351 174 -464 650 0
-400 296 -280 651 0
229 114 -260 652 0
479 -247 -245 653 0
-256 328 304 654 0
-306 26 479 655 0
-268 184 390 656 0
291 -19 -340 657 0
170 400 248 658 0
-177 56 -316 659 0
-283 -55 294 660 0
-386 99 212 661 0
357 -66 -67 662 0
452 16 -394 663 0
468 -220 -414 664 0
417 -145 -164 665 0
436 -428 -58 666 0
23 -84 302 667 0
381 -473 156 668 0
24 -427 -197 669 0
-291 -406 -219 670 0
-103 227 35 671 0
-429 63 -261 672 0
104 -183 -208 673 0
458 -157 -317 674 0
268 -43 233 675 0
135 -294 103 676 0
-409 -309 212 677 0
-393 -472 59 678 0
270 -198 -167 679 0
270 61 -484 680 0
-95 414 -92 681 0
253 210 -468 682 0
50 376 -318 683 0
231 -214 163 684 0
-497 -499 390 685 0
-104 200 -32 686 0
-415 494 52 687 0
296 -175 -154 688 0
153 -207 287 689 0
404 378 450 690 0
-178 -444 2 691 0
-150 188 -99 692 0
-405 -279 -11 693 0
-353 -298 -365 694 0
-211 -411 -451 695 0
48 -60 120 696 0
-206 75 -1 697 0
-158 176 -33 698 0
258 90 -112 699 0
-80 376 -243 700 0
397 -110 -114 701 0
360 -453 466 702 0
428 -325 441 703 0
-293 -496 -205 704 0
93 321 -494 705 0
-329 185 -380 706 0
122 -294 308 707 0
437 479 414 708 0
-497 -371 65 709 0
382 -184 -37 710 0
385 -151 -48 711 0
-312 97 77 712 0
479 38 -491 713 0
390 -119 407 714 0
72 227 328 715 0
-183 435 -463 716 0
61 438 140 717 0
125 -311 76 718 0
-341 -382 49 719 0
79 294 -431 720 0
-201 -108 -303 721 0
471 -43 -202 722 0
53 416 -431 723 0
-33 323 -112 724 0
326 -493 -96 725 0
-59 471 -156 726 0
315 -109 -51 727 0
224 -472 63 728 0
140 222 -482 729 0
-349 -134 416 730 0
223 200 -149 731 0
-380 -424 -276 732 0
53 280 -233 733 0
-299 95 -157 734 0
-498 -438 -465 735 0
31 238 -232 736 0
-402 -83 380 737 0
287 -47 -480 738 0
417 -379 -45 739 0
-491 -378 469 740 0
143 -122 256 741 0
-347 -445 178 742 0
-149 -109 40 743 0
-385 351 53 744 0
-384 481 -376 745 0
-247 166 -137 746 0
367 -75 -74 747 0
362 -51 -437 748 0
78 205 -470 749 0
-399 49 -236 750 0
-214 -355 -396 751 0
-243 -375 347 752 0
-53 -95 368 753 0
229 -102 -154 754 0
320 -261 -44 755 0
-279 -178 -366 756 0
-407 352 206 757 0
-229 -452 -363 758 0
-433 468 213 759 0
330 280 117 760 0
-209 -258 262 761 0
174 187 -198 762 0
-489 -60 351 763 0
424 190 -387 764 0
110 279 -453 765 0
-188 -436 441 766 0
-9 46 87 767 0
291 266 -427 768 0
227 -164 404 769 0
71 -102 77 770 0
-448 -428 60 771 0
412 395 -226 772 0
415 32 216 773 0
-89 -414 340 774 0
144 -360 482 775 0
350 -226 -308 776 0
-303 265 -5 777 0
66 130 282 778 0
-253 367 -80 779 0
-433 6 392 780 0
189 259 -476 781 0
-13 218 -462 782 0
376 -146 357 783 0
302 -475 -93 784 0
-228 -382 492 785 0
-141 -427 -29 786 0
346 258 -125 787 0
290 241 482 788 0
-78 -170 215 789 0
-483 361 -189 790 0
-185 100 323 791 0
-417 -432 351 792 0
353 277 43 793 0
92 -203 -97 794 0
352 167 46 795 0
-240 138 229 796 0
440 37 469 797 0
-76 -114 -15 798 0
-49 -288 427 799 0
59 -315 -483 800 0
-372 -495 -402 801 0
168 225 -357 802 0
205 -122 -170 803 0
-384 246 368 804 0
-166 -87 394 805 0
237 22 -251 806 0
-235 -178 401 807 0
83 -109 496 808 0
426 179 248 809 0
346 -484 91 810 0
-218 -125 329 811 0
278 -81 -32 812 0
-58 -154 443 813 0
-70 305 374 814 0
443 5 238 815 0
262 -247 -377 816 0
413 287 -59 817 0
125 187 449 818 0
314 307 -381 819 0
384 217 -118 820 0
133 -169 -138 821 0
-20 -312 30 822 0
109 -119 480 823 0
-125 2 -22 824 0
-398 383 -330 825 0
-361 -299 74 826 0
-237 257 -193 827 0
-218 382 -492 828 0
-221 433 126 829 0
279 -193 -366 830 0
-70 352 458 831 0
-452 49 -498 832 0
481 -341 107 833 0
-330 148 130 834 0
47 331 50 835 0
24 322 96 836 0
472 417 438 837 0
-323 151 302 838 0
246 66 153 839 0
495 -316 232 840 0
-85 -459 138 841 0
281 23 472 842 0
308 244 229 843 0
-156 -180 -99 844 0
64 398 -26 845 0
-53 333 82 846 0
-408 -486 349 847 0
305 331 354 848 0
-320 159 -52 849 0
-240 -91 81 850 0
108 -70 -368 851 0
-478 -301 412 852 0
-45 97 176 853 0
-383 -26 -386 854 0
-335 -410 377 855 0
-62 142 144 856 0
-183 -489 288 857 0
-70 178 -141 858 0
110 183 233 859 0
-152 -218 472 860 0
371 222 308 861 0
378 -422 189 862 0
-386 -103 -256 863 0
247 201 364 864 0
72 18 -454 865 0
-158 300 -319 866 0
485 387 -472 867 0
273 225 -420 868 0
-210 135 411 869 0
-185 -200 70 870 0
1 -378 -205 871 0
-389 -7 -168 872 0
-6 27 -142 873 0
-140 45 135 874 0
127 -56 449 875 0
-213 411 320 876 0
64 -400 -409 877 0
-67 -46 155 878 0
-131 -426 -78 879 0
410 -460 -350 880 0
80 -119 427 881 0
-309 329 -314 882 0
-400 -29 -473 883 0
-349 -193 -263 884 0
218 -440 -475 885 0
-351 468 -289 886 0
494 -421 -209 887 0
-385 470 -334 888 0
324 418 167 889 0
-451 -202 -193 890 0
-214 -54 -111 891 0
167 -391 49 892 0
-394 -229 -15 893 0
359 31 378 894 0
180 91 271 895 0
-249 19 409 896 0
-1 -366 -135 897 0
-31 449 251 898 0
-35 -135 147 899 0
-135 -187 371 900 0
-233 -330 476 901 0
-203 -233 244 902 0
367 -326 2 903 0
-232 302 296 904 0
-382 -339 -317 905 0
154 -48 -252 906 0
-342 -486 -316 907 0
-301 265 -101 908 0
-317 371 325 909 0
-120 315 55 910 0
484 118 -246 911 0
221 207 110 912 0
152 158 392 913 0
388 18 -110 914 0
-434 -334 151 915 0
53 328 93 916 0
-194 -159 413 917 0
218 -4 -401 918 0
-9 -122 -169 919 0
350 302 364 920 0
102 169 340 921 0
-10 -457 -252 922 0
443 375 -422 923 0
113 -481 89 924 0
316 -73 -466 925 0
-397 65 306 926 0
196 -57 162 927 0
282 412 -167 928 0
294 265 -411 929 0
31 88 -32 930 0
297 288 415 931 0
115 -306 113 932 0
-462 364 482 933 0
218 -301 63 934 0
-207 35 331 935 0
115 -441 433 936 0
-197 -184 138 937 0
378 -30 461 938 0
470 -473 -439 939 0
225 -121 -11 940 0
99 38 -398 941 0
-382 -396 -394 942 0
338 44 -498 943 0
-461 -232 19 944 0
-396 -382 274 945 0
344 -107 -329 946 0
-13 -400 -45 947 0
238 314 -436 948 0
472 259 284 949 0
-355 30 -168 950 0
304 -455 -426 951 0
-300 -81 243 952 0
-195 108 -148 953 0
189 209 -160 954 0
-220 -132 -428 955 0
256 434 -273 956 0
69 244 53 957 0
-448 -397 -289 958 0
-54 447 -475 959 0
-90 364 339 960 0
-231 -488 -23 961 0
260 -448 229 962 0
-135 -429 416 963 0
150 -4 -47 964 0
-297 -208 320 965 0
-12 -2 177 966 0
-121 -344 -75 967 0
-325 34 -459 968 0
-257 101 141 969 0
45 30 76 970 0
320 -428 -153 971 0
414 216 -48 972 0
260 45 -466 973 0
131 -173 -159 974 0
-96 -289 149 975 0
-257 -291 -499 976 0
79 -31 -103 977 0
321 -167 -219 978 0
282 497 72 979 0
-454 -117 209 980 0
-54 322 -82 981 0
422 -495 -434 982 0
387 -143 69 983 0
-480 178 139 984 0
-221 183 -475 985 0
406 -460 -309 986 0
-462 -55 198 987 0
-440 -291 365 988 0
-424 85 -411 989 0
389 -409 -230 990 0
234 313 -296 991 0
-411 -408 31 992 0
-9 423 -118 993 0
42 -323 -140 994 0
99 -236 -430 995 0
-330 -116 393 996 0
-355 -181 28 997 0
225 -34 -224 998 0
292 -219 -481 999 0
-72 63 23 1000 0
262 -488 -99 1001 0
83 109 169 1002 0
-57 331 91 1003 0
52 -173 155 1004 0
-426 -312 31 1005 0
-455 -93 399 1006 0
-371 -99 -340 1007 0
-306 217 391 1008 0
-441 -286 180 1009 0
336 339 -74 1010 0
313 36 425 1011 0
-330 496 374 1012 0
184 -254 485 1013 0
310 142 -308 1014 0
236 406 -205 1015 0
-303 -80 380 1016 0
17 -84 303 1017 0
-253 77 134 1018 0
320 -152 53 1019 0
455 -63 -390 1020 0
-56 -126 31 1021 0
-314 -196 482 1022 0
113 -39 -478 1023 0
289 45 -244 1024 0
-388 -187 495 1025 0
211 -80 -29 1026 0
-406 263 -176 1027 0
131 -428 350 1028 0
89 340 85 1029 0
217 145 107 1030 0
161 -319 -332 1031 0
456 72 -241 1032 0
316 91 141 1033 0
-488 -240 70 1034 0
2 -330 314 1035 0
482 -213 229 1036 0
-250 -9 50 1037 0
393 431 389 1038 0
55 114 -418 1039 0
-206 -68 40 1040 0
381 164 411 1041 0
-105 172 437 1042 0
-30 -47 -372 1043 0
-227 285 153 1044 0
60 -140 -358 1045 0
436 -106 -111 1046 0
306 28 -103 1047 0
-405 -376 -293 1048 0
-131 -148 79 1049 0
226 391 -190 1050 0
-10 158 -113 1051 0
-453 382 100 1052 0
-205 -96 139 1053 0
344 436 -257 1054 0
-223 -454 -476 1055 0
-41 -219 292 1056 0
162 31 365 1057 0
-236 -410 359 1058 0
-465 45 102 1059 0
-30 84 416 1060 0
301 -238 357 1061 0
-99 -343 434 1062 0
-229 -7 -268 1063 0
454 -412 166 1064 0
-150 -199 497 1065 0
327 15 -40 1066 0
394 -339 225 1067 0
-319 -135 -479 1068 0
166 -144 11 1069 0
-369 128 358 1070 0
-295 450 -327 1071 0
498 -472 -47 1072 0
463 312 -98 1073 0
291 -255 201 1074 0
52 196 -43 1075 0
53 425 37 1076 0
-248 80 198 1077 0
-43 144 -279 1078 0
20 358 401 1079 0
-363 72 282 1080 0
201 104 7 1081 0
483 431 444 1082 0
-376 486 112 1083 0
350 -304 -469 1084 0
-465 -125 -215 1085 0
274 261 407 1086 0
-2 -244 -329 1087 0
392 -127 -7 1088 0
-243 -78 440 1089 0
296 -181 55 1090 0
468 185 -104 1091 0
475 -387 -122 1092 0
478 426 188 1093 0
23 43 -488 1094 0
-269 44 46 1095 0
-1 362 -48 1096 0
-486 497 -97 1097 0
-37 200 275 1098 0
-167 270 -439 1099 0
192 -296 141 1100 0
83 53 43 1101 0
83 -388 15 1102 0
76 153 -385 1103 0
-365 182 69 1104 0
-255 372 -188 1105 0
-343 410 195 1106 0
500 324 182 1107 0
-245 -79 -292 1108 0
-462 455 190 1109 0
-138 -128 96 1110 0
371 -363 -8 1111 0
-415 -50 -149 1112 0
-64 241 491 1113 0
-281 323 -257 1114 0
-8 -284 -5 1115 0
-483 52 -238 1116 0
-288 -464 -346 1117 0
89 -339 408 1118 0
-367 190 -386 1119 0
32 -282 240 1120 0
493 -56 350 1121 0
87 188 354 1122 0
298 -466 -402 1123 0
-7 -16 -259 1124 0
-299 342 206 1125 0
128 -136 -135 1126 0
-256 48 -206 1127 0
460 311 -140 1128 0
-234 283 -479 1129 0
242 140 -370 1130 0
204 492 -319 1131 0
-332 -2 -388 1132 0
-395 -411 -221 1133 0
-326 370 234 1134 0
-26 -427 -53 1135 0
390 -412 -411 1136 0
18 -190 157 1137 0
114 -94 273 1138 0
-361 186 14 1139 0
257 -484 217 1140 0
-292 158 -180 1141 0
-390 332 -158 1142 0
49 365 -165 1143 0
-281 465 -330 1144 0
-78 -41 10 1145 0
131 248 336 1146 0
-271 -472 -182 1147 0
-237 -12 240 1148 0
99 457 132 1149 0
-18 -232 -211 1150 0
334 104 463 1151 0
-114 362 -271 1152 0
-46 432 265 1153 0
131 -197 -133 1154 0
-322 -65 -204 1155 0
-391 109 -287 1156 0
291 300 256 1157 0
148 477 -489 1158 0
-302 -82 469 1159 0
-89 -351 310 1160 0
400 26 -466 1161 0
-22 -284 -259 1162 0
-481 91 132 1163 0
151 22 286 1164 0
170 -343 146 1165 0
5 -35 387 1166 0
-141 335 160 1167 0
-3 -476 395 1168 0
-365 400 -425 1169 0
-136 -206 242 1170 0
-492 175 289 1171 0
-348 62 -485 1172 0
-224 184 -82 1173 0
-481 460 154 1174 0
-470 312 -367 1175 0
-206 308 134 1176 0
-214 -148 198 1177 0
451 -436 -452 1178 0
288 287 113 1179 0
457 -397 -12 1180 0
455 283 -109 1181 0
208 -236 -49 1182 0
-270 -129 -261 1183 0
7 399 130 1184 0
157 119 241 1185 0
-133 278 -146 1186 0
125 -260 168 1187 0
128 -188 -90 1188 0
-319 453 375 1189 0
-426 465 -251 1190 0
491 -57 230 1191 0
62 -66 -9 1192 0
79 -200 160 1193 0
-165 454 -425 1194 0
410 -248 -433 1195 0
257 483 494 1196 0
27 -42 391 1197 0
380 -352 -421 1198 0
77 131 251 1199 0
-255 -313 -308 1200 0
-309 239 -437 1201 0
-273 -435 -228 1202 0
485 -400 -241 1203 0
191 -271 152 1204 0
437 270 95 1205 0
125 -109 120 1206 0
-379 -154 -36 1207 0
-401 -332 -425 1208 0
-159 32 -171 1209 0
-392 -146 -281 1210 0
-464 -226 -89 1211 0
-104 456 -30 1212 0
175 -94 386 1213 0
250 363 498 1214 0
184 -5 411 1215 0
91 -199 -16 1216 0
268 304 -246 1217 0
-45 404 -371 1218 0
-272 223 132 1219 0
397 -439 -178 1220 0
-279 175 -182 1221 0
324 460 251 1222 0
-330 198 452 1223 0
219 -395 180 1224 0
344 -219 235 1225 0
-26 -97 -43 1226 0
-370 -350 -273 1227 0
-262 173 -391 1228 0
-133 -459 -182 1229 0
195 398 227 1230 0
-284 103 307 1231 0
-478 -354 341 1232 0
228 -104 44 1233 0
-382 379 -486 1234 0
-184 -150 -99 1235 0
47 -183 -109 1236 0
114 303 108 1237 0
221 126 228 1238 0
-54 -69 439 1239 0
233 92 475 1240 0
-295 174 250 1241 0
225 44 191 1242 0
204 -377 -187 1243 0
-84 -82 108 1244 0
297 409 -128 1245 0
-197 -366 417 1246 0
26 -169 -12 1247 0
395 135 -478 1248 0
-373 467 -32 1249 0
98 -104 -499 1250 0
-300 -434 39 1251 0
-174 -60 341 1252 0
-284 141 180 1253 0
92 189 -395 1254 0
264 -357 -295 1255 0
278 -304 -370 1256 0
163 -321 12 1257 0
413 -286 -152 1258 0
-238 -409 -390 1259 0
169 281 -471 1260 0
-57 91 347 1261 0
257 264 96 1262 0
304 -44 -18 1263 0
234 -103 171 1264 0
39 425 388 1265 0
487 -243 130 1266 0
-216 -234 -140 1267 0
-492 320 -471 1268 0
154 -86 35 1269 0
222 243 -34 1270 0
258 -78 214 1271 0
239 -259 279 1272 0
367 434 -9 1273 0
-35 352 -92 1274 0
-40 50 -429 1275 0
115 -239 435 1276 0
370 383 -169 1277 0
-83 -433 191 1278 0
329 -498 449 1279 0
-12 25 -204 1280 0
132 251 323 1281 0
-231 -253 414 1282 0
-227 40 -147 1283 0
115 54 -341 1284 0
-482 -211 415 1285 0
-35 -479 -135 1286 0
-165 -317 -181 1287 0
39 107 458 1288 0
365 402 -46 1289 0
295 346 -97 1290 0
153 107 395 1291 0
302 205 222 1292 0
-374 161 80 1293 0
-494 296 -238 1294 0
129 -192 312 1295 0
-319 484 -410 1296 0
-140 -69 63 1297 0
445 -126 -196 1298 0
12 -215 -170 1299 0
448 419 15 1300 0
370 405 -20 1301 0
-305 432 492 1302 0
-61 495 21 1303 0
111 -444 463 1304 0
-430 -443 -208 1305 0
-124 -374 -341 1306 0
397 -238 -144 1307 0
322 -260 383 1308 0
-356 318 -222 1309 0
304 -460 486 1310 0
-312 185 -451 1311 0
190 -198 -99 1312 0
-357 -492 415 1313 0
-366 -173 393 1314 0
-435 440 386 1315 0
212 351 55 1316 0
-90 105 85 1317 0
368 -308 25 1318 0
341 -372 276 1319 0
-441 61 -381 1320 0
446 -80 46 1321 0
253 -425 -44 1322 0
-378 -53 -172 1323 0
461 -417 494 1324 0
495 -478 -227 1325 0
-286 -269 -497 1326 0
-63 66 -83 1327 0
49 -115 338 1328 0
380 -435 167 1329 0
-397 148 262 1330 0
-25 287 -57 1331 0
-413 307 201 1332 0
-381 -211 23 1333 0
-93 -409 -260 1334 0
459 488 -13 1335 0
17 -220 282 1336 0
402 344 -498 1337 0
251 -296 425 1338 0
318 -326 -210 1339 0
-29 11 -374 1340 0
386 -200 366 1341 0
263 -276 -88 1342 0
-492 108 47 1343 0
374 211 -35 1344 0
-39 447 213 1345 0
-446 4 381 1346 0
-441 278 -429 1347 0
-282 -278 -221 1348 0
-162 453 -321 1349 0
-143 -93 309 1350 0
-312 -68 -277 1351 0
445 122 251 1352 0
403 -377 421 1353 0
360 478 -365 1354 0
-242 255 -51 1355 0
159 -130 -277 1356 0
231 -14 130 1357 0
-459 -318 -421 1358 0
424 -453 350 1359 0
85 -219 158 1360 0
-41 -160 44 1361 0
311 -240 -495 1362 0
342 401 -133 1363 0
449 -11 423 1364 0
-327 -416 -458 1365 0
478 158 200 1366 0
-304 180 427 1367 0
181 -30 -498 1368 0
-221 -469 -151 1369 0
402 374 -447 1370 0
-37 294 -228 1371 0
-21 334 -109 1372 0
-494 356 -499 1373 0
480 394 148 1374 0
407 -298 345 1375 0
475 244 13 1376 0
387 -231 -308 1377 0
-161 107 -392 1378 0
158 -331 439 1379 0
374 206 302 1380 0
131 88 -489 1381 0
82 26 256 1382 0
134 -464 495 1383 0
3 250 -443 1384 0
54 -270 35 1385 0
-429 -208 69 1386 0
-378 398 -303 1387 0
-312 92 152 1388 0
18 -111 137 1389 0
322 -87 408 1390 0
-140 -299 -36 1391 0
207 -479 172 1392 0
-352 46 -434 1393 0
-111 232 408 1394 0
261 406 237 1395 0
-227 56 -93 1396 0
425 -18 -335 1397 0
175 -393 -74 1398 0
-59 -85 -181 1399 0
-252 -150 -348 1400 0
-227 375 -334 1401 0
281 228 -4 1402 0
303 293 -57 1403 0
427 -98 454 1404 0
436 499 464 1405 0
460 -209 279 1406 0
-324 -319 -129 1407 0
-148 -487 17 1408 0
231 -190 -2 1409 0
-228 -54 102 1410 0
-345 -10 -72 1411 0
-100 402 -357 1412 0
298 -179 127 1413 0
-40 -426 199 1414 0
124 -2 -276 1415 0
-250 329 -310 1416 0
-498 257 -18 1417 0
292 -114 208 1418 0
-470 353 -302 1419 0
-117 -463 -18 1420 0
-297 410 -400 1421 0
-289 125 216 1422 0
-417 -191 320 1423 0
341 159 447 1424 0
432 -36 -86 1425 0
-230 -346 236 1426 0
108 -23 170 1427 0
-152 -69 405 1428 0
-33 203 -179 1429 0
118 -472 -469 1430 0
59 -316 334 1431 0
-51 -329 372 1432 0
-14 -374 -115 1433 0
366 -460 -309 1434 0
-169 39 97 1435 0
-405 -365 -154 1436 0
-88 296 184 1437 0
-441 493 221 1438 0
447 -258 7 1439 0
358 229 -384 1440 0
25 137 71 1441 0
-495 315 -351 1442 0
-233 465 445 1443 0
-371 -189 -258 1444 0
-290 -197 167 1445 0
-120 403 -387 1446 0
-119 -388 344 1447 0
-114 76 170 1448 0
-124 378 159 1449 0
66 -458 -130 1450 0
-311 -279 -415 1451 0
200 -169 -173 1452 0
160 -65 -238 1453 0
-109 -347 409 1454 0
-128 -117 381 1455 0
474 175 334 1456 0
-1 -414 138 1457 0
-268 -293 -315 1458 0
295 -23 -16 1459 0
338 -216 -38 1460 0
214 400 -232 1461 0
-316 142 228 1462 0
420 -149 278 1463 0
466 250 -437 1464 0
-373 -280 -278 1465 0
405 -45 -153 1466 0
500 -479 179 1467 0
-173 418 -265 1468 0
361 -357 44 1469 0
-343 -297 -464 1470 0
189 366 -483 1471 0
-312 64 -343 1472 0
-167 -338 -82 1473 0
236 -25 -483 1474 0
-113 263 -75 1475 0
-208 466 -324 1476 0
-401 105 -236 1477 0
398 -419 237 1478 0
183 -273 -159 1479 0
-280 -353 35 1480 0
346 173 192 1481 0
-308 -94 204 1482 0
500 171 -254 1483 0
264 71 329 1484 0
107 137 463 1485 0
-289 482 418 1486 0
241 -338 -60 1487 0
279 1 -395 1488 0
-322 491 340 1489 0
337 443 122 1490 0
30 150 38 1491 0
-198 381 47 1492 0
-409 5 415 1493 0
-163 360 -212 1494 0
-239 498 -71 1495 0
130 399 433 1496 0
13 -332 -286 1497 0
42 -282 149 1498 0
-346 -173 454 1499 0
-169 11 -399 1500 0
-401 -462 -448 1501 0
297 296 460 1502 0
121 -299 -393 1503 0
470 125 -196 1504 0
88 -351 443 1505 0
336 -22 23 1506 0
-54 -201 374 1507 0
-274 416 -390 1508 0
347 123 -251 1509 0
213 -494 -227 1510 0
-198 152 45 1511 0
-221 358 181 1512 0
311 376 -224 1513 0
-322 -491 347 1514 0
151 362 -41 1515 0
-266 73 -286 1516 0
-393 207 92 1517 0
294 398 369 1518 0
185 -410 -456 1519 0
159 -259 -378 1520 0
-219 411 33 1521 0
-126 402 158 1522 0
252 -3 244 1523 0
20 8 459 1524 0
-406 24 167 1525 0
100 -476 -388 1526 0
-359 293 -204 1527 0
402 350 446 1528 0
-270 -490 452 1529 0
-453 -272 -209 1530 0
96 255 202 1531 0
238 -312 -85 1532 0
62 119 -25 1533 0
335 200 59 1534 0
-84 -17 221 1535 0
-40 21 -337 1536 0
325 14 339 1537 0
-5 -407 -249 1538 0
-384 -352 -337 1539 0
98 -108 293 1540 0
-471 211 -179 1541 0
-278 455 -276 1542 0
333 -424 -56 1543 0
-302 -44 460 1544 0
-156 483 -329 1545 0
-371 480 -5 1546 0
-79 -423 379 1547 0
-152 -272 -495 1548 0
55 1 15 1549 0
52 -293 -388 1550 0
-492 -223 -322 1551 0
487 225 300 1552 0
338 428 -7 1553 0
489 -109 -406 1554 0
-476 284 73 1555 0
371 -220 -373 1556 0
-7 -201 110 1557 0
-99 -437 -109 1558 0
299 274 446 1559 0
-316 258 345 1560 0
-173 -98 -24 1561 0
222 195 -292 1562 0
467 293 374 1563 0
273 370 -42 1564 0
492 -291 -200 1565 0
183 133 184 1566 0
-288 -167 -455 1567 0
71 -245 -103 1568 0
-99 446 85 1569 0
354 59 19 1570 0
38 370 -330 1571 0
458 297 21 1572 0
-164 253 296 1573 0
-167 69 -150 1574 0
301 -221 416 1575 0
425 25 136 1576 0
31 478 -197 1577 0
33 394 122 1578 0
145 60 303 1579 0
-362 -262 -302 1580 0
-301 -492 -417 1581 0
314 298 -343 1582 0
276 -216 444 1583 0
-86 349 -188 1584 0
335 -416 -173 1585 0
-180 248 -20 1586 0
145 295 -40 1587 0
-304 -3 -55 1588 0
203 -63 -245 1589 0
-419 421 423 1590 0
440 115 -240 1591 0
-462 -20 422 1592 0
-91 -460 -54 1593 0
154 -20 -468 1594 0
240 263 388 1595 0
-306 404 -327 1596 0
2 144 345 1597 0
-384 164 -497 1598 0
236 -371 -416 1599 0
-292 -35 105 1600 0
302 72 -264 1601 0
-135 -140 -230 1602 0
404 32 -46 1603 0
-268 -86 217 1604 0
-230 -266 -116 1605 0
-202 463 -92 1606 0
104 -346 -403 1607 0
133 353 75 1608 0
478 -347 -373 1609 0
-434 -79 -246 1610 0
438 261 -7 1611 0
-168 -220 -290 1612 0
-362 38 -348 1613 0
-420 345 1 1614 0
-228 -375 120 1615 0
408 -456 174 1616 0
491 -247 76 1617 0
250 -266 -262 1618 0
-321 -422 -235 1619 0
363 317 -95 1620 0
60 -138 -382 1621 0
-12 -415 426 1622 0
396 -305 164 1623 0
249 69 -81 1624 0
-162 77 232 1625 0
423 394 -353 1626 0
353 249 486 1627 0
-38 398 255 1628 0
-339 392 462 1629 0
497 -285 223 1630 0
254 -311 -266 1631 0
499 388 133 1632 0
-387 -160 168 1633 0
-107 206 145 1634 0
-438 -497 -77 1635 0
-368 -397 -277 1636 0
-380 288 317 1637 0
-6 193 254 1638 0
60 31 -187 1639 0
382 218 -108 1640 0
413 -21 -31 1641 0
1 222 -340 1642 0
-217 73 -58 1643 0
383 109 63 1644 0
338 465 328 1645 0
-373 -190 -364 1646 0
439 314 -136 1647 0
128 -301 -480 1648 0
-190 -186 -293 1649 0
35 466 174 1650 0
204 75 -117 1651 0
-69 -401 283 1652 0
-199 -473 -421 1653 0
383 -156 -126 1654 0
350 -477 -475 1655 0
260 381 430 1656 0
-363 459 -291 1657 0
-265 -376 302 1658 0
-437 -447 -70 1659 0
-431 185 60 1660 0
-495 73 -361 1661 0
-119 75 230 1662 0
432 -290 -497 1663 0
88 -80 44 1664 0
410 368 -408 1665 0
195 -56 -332 1666 0
-194 -337 87 1667 0
-244 -39 92 1668 0
377 -120 -298 1669 0
-394 288 402 1670 0
-306 334 494 1671 0
128 -59 -317 1672 0
-196 -44 358 1673 0
123 -147 59 1674 0
-415 172 344 1675 0
303 -419 -328 1676 0
-495 -422 78 1677 0
-352 -166 -264 1678 0
-477 495 -345 1679 0
-259 -172 -262 1680 0
-43 167 441 1681 0
125 -397 216 1682 0
-99 -33 -131 1683 0
-225 500 -489 1684 0
-65 -280 382 1685 0
-386 -214 -64 1686 0
-42 63 379 1687 0
-293 -199 452 1688 0
37 483 -286 1689 0
-253 -475 -6 1690 0
25 52 -410 1691 0
-234 84 -95 1692 0
419 425 -52 1693 0
-408 -219 390 1694 0
261 463 252 1695 0
-401 72 307 1696 0
-98 74 -155 1697 0
-355 222 -260 1698 0
-119 349 -291 1699 0
-269 14 397 1700 0
-178 -328 115 1701 0
343 -400 51 1702 0
-299 -257 247 1703 0
263 -479 335 1704 0
43 2 310 1705 0
101 87 125 1706 0
451 -402 -375 1707 0
120 177 -93 1708 0
-406 34 -78 1709 0
-163 179 -384 1710 0
305 428 -412 1711 0
485 -354 479 1712 0
-96 371 201 1713 0
-153 -336 287 1714 0
-102 414 -306 1715 0
3 -391 -143 1716 0
344 346 -382 1717 0
-200 334 193 1718 0
500 194 -352 1719 0
-350 -281 354 1720 0
-324 -63 466 1721 0
-305 -400 -259 1722 0
-339 -24 285 1723 0
-262 -200 -73 1724 0
-144 34 408 1725 0
244 34 -497 1726 0
-446 5 -170 1727 0
481 -254 -176 1728 0
-246 173 265 1729 0
223 263 -182 1730 0
306 271 -119 1731 0
124 352 -449 1732 0
125 377 -500 1733 0
171 -227 -9 1734 0
497 247 -109 1735 0
-134 -354 136 1736 0
359 4 170 1737 0
-181 238 -193 1738 0
-289 320 70 1739 0
-140 -156 -287 1740 0
-265 38 -21 1741 0
28 269 134 1742 0
187 254 420 1743 0
-284 318 -389 1744 0
68 47 -85 1745 0
29 -400 303 1746 0
115 337 148 1747 0
15 344 -154 1748 0
-55 -400 -306 1749 0
-272 -444 383 1750 0
-305 457 -327 1751 0
243 225 -480 1752 0
-75 155 -188 1753 0
-221 312 -123 1754 0
-358 -92 -278 1755 0
-92 185 208 1756 0
29 -180 -401 1757 0
-274 -123 191 1758 0
-141 87 131 1759 0
303 104 -60 1760 0
-175 337 430 1761 0
385 -152 -87 1762 0
-118 -464 -10 1763 0
-369 292 119 1764 0
-377 176 -261 1765 0
-73 -59 -445 1766 0
248 428 -498 1767 0
114 -347 93 1768 0
-293 331 366 1769 0
349 466 391 1770 0
-228 -94 184 1771 0
386 -25 -335 1772 0
-206 311 -403 1773 0
453 -271 56 1774 0
-152 28 2 1775 0
444 -52 -5 1776 0
327 294 217 1777 0
-383 -67 274 1778 0
328 -245 261 1779 0
34 275 -272 1780 0
-245 -178 -215 1781 0
-477 -64 108 1782 0
-42 92 187 1783 0
38 -117 144 1784 0
346 -374 477 1785 0
-289 60 -424 1786 0
-137 -284 453 1787 0
101 122 -145 1788 0
57 312 -388 1789 0
67 -66 -335 1790 0
-66 368 334 1791 0
474 391 149 1792 0
-155 -243 376 1793 0
-353 -251 52 1794 0
326 189 -303 1795 0
-265 -355 224 1796 0
39 400 -120 1797 0
-406 66 -376 1798 0
-237 -362 -411 1799 0
314 -235 87 1800 0
21 -483 -189 1801 0
425 322 246 1802 0
335 -184 489 1803 0
-296 12 452 1804 0
357 464 212 1805 0
-247 -397 -74 1806 0
-186 256 -462 1807 0
-59 -263 333 1808 0
219 339 50 1809 0
416 -158 147 1810 0
58 144 -327 1811 0
282 227 453 1812 0
351 429 -499 1813 0
-264 -263 -491 1814 0
379 -143 -195 1815 0
126 -19 -272 1816 0
278 -416 -129 1817 0
225 -371 368 1818 0
59 -153 265 1819 0
12 157 -492 1820 0
40 457 319 1821 0
466 -59 329 1822 0
355 161 49 1823 0
-245 -422 -408 1824 0
121 -181 -229 1825 0
-143 -403 -352 1826 0
-495 -34 -492 1827 0
-325 68 -97 1828 0
479 -270 120 1829 0
-59 387 -372 1830 0
-430 -474 -12 1831 0
433 461 459 1832 0
10 -322 -483 1833 0
-238 -375 -137 1834 0
-27 473 -346 1835 0
146 -440 -367 1836 0
-415 -417 -285 1837 0
61 213 174 1838 0
129 398 -382 1839 0
-310 342 -274 1840 0
-95 464 -78 1841 0
130 -280 341 1842 0
301 277 -396 1843 0
-152 26 -374 1844 0
65 -57 269 1845 0
-346 -19 -61 1846 0
9 -474 356 1847 0
366 180 35 1848 0
-80 -409 -99 1849 0
-382 199 250 1850 0
-443 215 45 1851 0
256 286 -156 1852 0
8 126 262 1853 0
-44 354 410 1854 0
381 -257 -18 1855 0
-495 372 210 1856 0
466 277 -290 1857 0
-394 -163 7 1858 0
313 -2 365 1859 0
141 89 149 1860 0
-500 -266 20 1861 0
-122 124 357 1862 0
-287 -199 -345 1863 0
297 -345 387 1864 0
456 498 -203 1865 0
-274 26 238 1866 0
-273 435 293 1867 0
103 108 -3 1868 0
-296 324 -118 1869 0
107 -313 -6 1870 0
-399 439 -233 1871 0
-164 -196 151 1872 0
337 500 489 1873 0
484 -363 497 1874 0
320 234 -1 1875 0
-160 123 17 1876 0
467 -243 -435 1877 0
301 278 475 1878 0
162 -119 361 1879 0
247 478 23 1880 0
173 -379 440 1881 0
-112 41 414 1882 0
-330 235 -131 1883 0
117 -178 -353 1884 0
291 157 482 1885 0
411 -472 -300 1886 0
-240 446 -48 1887 0
106 -331 356 1888 0
-121 -472 -326 1889 0
12 -170 -109 1890 0
-298 -132 152 1891 0
-31 408 172 1892 0
-296 307 -495 1893 0
301 -105 -261 1894 0
324 203 -462 1895 0
-473 -140 293 1896 0
68 44 10 1897 0
384 -374 79 1898 0
-377 313 -303 1899 0
492 384 -190 1900 0
434 101 429 1901 0
-439 -339 365 1902 0
-364 -309 -408 1903 0
-432 279 117 1904 0
-396 52 -71 1905 0
-156 494 -404 1906 0
-278 3 -121 1907 0
-234 -168 12 1908 0
-232 34 -295 1909 0
472 446 -466 1910 0
72 -497 -465 1911 0
-277 365 -121 1912 0
231 302 130 1913 0
-207 156 -145 1914 0
-79 -372 283 1915 0
318 41 26 1916 0
-321 141 -158 1917 0
-420 85 -271 1918 0
269 -271 -277 1919 0
109 -118 439 1920 0
-301 -423 -283 1921 0
-343 83 -214 1922 0
-178 -316 484 1923 0
440 -333 -492 1924 0
213 417 327 1925 0
156 -23 194 1926 0
-215 207 62 1927 0
205 -206 214 1928 0
274 270 133 1929 0
441 -475 415 1930 0
278 78 303 1931 0
57 -486 271 1932 0
327 -268 10 1933 0
294 -1 -445 1934 0
351 -170 -136 1935 0
-18 -257 -416 1936 0
-305 122 -432 1937 0
227 -37 -279 1938 0
64 145 -385 1939 0
56 72 -435 1940 0
-199 -266 -178 1941 0
85 -372 326 1942 0
-319 -381 -83 1943 0
495 -348 381 1944 0
279 339 10 1945 0
-138 -220 36 1946 0
-315 -152 363 1947 0
69 42 -138 1948 0
491 -473 -493 1949 0
-431 -275 -423 1950 0
-270 200 157 1951 0
-434 -254 -64 1952 0
486 223 -65 1953 0
386 -384 13 1954 0
-424 474 -316 1955 0
179 -341 -114 1956 0
100 274 -414 1957 0
272 457 144 1958 0
-66 201 14 1959 0
269 79 424 1960 0
230 -84 68 1961 0
219 -320 248 1962 0
133 334 362 1963 0
157 -455 -406 1964 0
422 131 240 1965 0
-252 -276 336 1966 0
413 77 466 1967 0
185 -132 -121 1968 0
-330 397 -171 1969 0
316 -1 -179 1970 0
457 -287 -346 1971 0
11 -30 -259 1972 0
-90 38 493 1973 0
-207 484 -114 1974 0
293 -149 -353 1975 0
-280 -159 -101 1976 0
79 251 275 1977 0
-12 -249 287 1978 0
-225 84 124 1979 0
393 -162 439 1980 0
-362 -39 -306 1981 0
-129 -61 164 1982 0
138 -472 -212 1983 0
-477 -120 128 1984 0
-82 204 -350 1985 0
276 282 300 1986 0
354 236 152 1987 0
-226 86 63 1988 0
76 -406 -4 1989 0
58 171 464 1990 0
47 422 197 1991 0
-361 -10 -222 1992 0
-108 434 -117 1993 0
427 -315 -114 1994 0
178 -297 -56 1995 0
-334 115 -77 1996 0
-177 -264 -204 1997 0
169 415 -500 1998 0
-138 328 -361 1999 0
-255 -329 257 2000 0
403 -249 127 2001 0
-371 225 442 2002 0
-169 -160 -216 2003 0
341 391 -70 2004 0
-203 267 -304 2005 0
-245 471 330 2006 0
-473 -10 106 2007 0
-237 -459 -451 2008 0
-488 -306 90 2009 0
152 -191 332 2010 0
343 69 -257 2011 0
206 318 -22 2012 0
-124 282 -117 2013 0
479 -344 294 2014 0
-408 -474 498 2015 0
-214 -295 300 2016 0
114 -43 417 2017 0
371 -312 -194 2018 0
-410 -352 -156 2019 0
-128 122 -492 2020 0
244 -417 129 2021 0
317 265 -32 2022 0
421 -152 -21 2023 0
-233 -172 -374 2024 0
23 155 248 2025 0
-1 -39 219 2026 0
-227 -231 -121 2027 0
-124 149 8 2028 0
-439 -314 175 2029 0
289 -68 78 2030 0
5 283 -351 2031 0
-421 -378 -308 2032 0
324 -201 434 2033 0
-357 -168 348 2034 0
-71 -190 -128 2035 0
-132 -36 444 2036 0
196 -329 364 2037 0
-209 -367 -365 2038 0
159 112 -301 2039 0
126 -205 -22 2040 0
-453 -241 -50 2041 0
-305 60 -364 2042 0
424 212 253 2043 0
455 419 -237 2044 0
156 14 -271 2045 0
188 -12 328 2046 0
-140 -73 402 2047 0
-16 -217 -10 2048 0
274 16 24 2049 0
-258 28 -81 2050 0
-230 -280 -294 2051 0
32 355 257 2052 0
34 -163 -165 2053 0
-260 354 490 2054 0
48 131 231 2055 0
-359 385 72 2056 0
485 -129 -269 2057 0
-207 -394 94 2058 0
498 -468 -91 2059 0
-45 480 -41 2060 0
-323 278 113 2061 0
104 -19 216 2062 0
477 -268 253 2063 0
48 254 -439 2064 0
-124 107 81 2065 0
-401 -90 -62 2066 0
384 226 -351 2067 0
349 -423 -445 2068 0
446 407 1 2069 0
74 358 419 2070 0
418 -345 -420 2071 0
377 -274 -301 2072 0
254 240 -363 2073 0
463 -46 -358 2074 0
116 500 -261 2075 0
-150 177 488 2076 0
25 -288 -201 2077 0
-74 -294 -146 2078 0
-28 -210 -198 2079 0
-317 93 208 2080 0
236 65 -340 2081 0
301 -197 -112 2082 0
-21 -445 494 2083 0
129 237 170 2084 0
-324 -366 -181 2085 0
-47 146 383 2086 0
377 -45 141 2087 0
330 171 377 2088 0
417 -101 -154 2089 0
-182 183 64 2090 0
212 48 -128 2091 0
238 240 -478 2092 0
56 -134 460 2093 0
-420 -142 329 2094 0
403 481 86 2095 0
-45 -24 -196 2096 0
-180 122 -86 2097 0
434 216 -24 2098 0
172 314 484 2099 0
453 -112 203 2100 0
-57 -462 257 2101 0
-14 -158 -83 2102 0
-93 346 -110 2103 0
-136 375 -489 2104 0
148 282 331 2105 0
264 -281 310 2106 0
117 72 -381 2107 0
135 132 189 2108 0
-112 -53 -65 2109 0
-375 393 182 2110 0
5 461 -246 2111 0
415 35 8 2112 0
-14 192 491 2113 0
417 39 301 2114 0
364 -223 -102 2115 0
-422 318 -49 2116 0
28 454 473 2117 0
377 343 -334 2118 0
-376 -451 -500 2119 0
144 -191 -353 2120 0
42 -25 372 2121 0
-4 -432 16 2122 0
206 -396 83 2123 0
-368 187 279 2124 0
360 146 -286 2125 0
-118 -288 276 2126 0
-42 -238 -371 2127 0
113 205 -299 2128 0
-382 -144 -226 2129 0
-64 -303 228 2130 0
457 -415 174 2131 0
-224 294 -62 2132 0
-251 425 -328 2133 0
-429 378 227 2134 0
38 -368 -203 2135 0
-207 -317 -120 2136 0
-385 327 -6 2137 0
-154 -294 250 2138 0
-317 295 344 2139 0
-399 16 290 2140 0
-95 32 -139 2141 0
-296 -91 -80 2142 0
-198 -357 31 2143 0
105 -411 -110 2144 0
-106 45 -194 2145 0
-377 296 69 2146 0
87 479 475 2147 0
-435 -218 317 2148 0
323 219 176 2149 0
164 -133 -304 2150 0
35 303 176 2151 0
-310 -154 299 2152 0
407 -154 -307 2153 0
390 -488 -219 2154 0
61 -33 -342 2155 0
-423 -313 -439 2156 0
12 -81 -32 2157 0
-140 376 446 2158 0
-157 -430 189 2159 0
-51 216 438 2160 0
-39 65 -75 2161 0
360 26 268 2162 0
141 -226 268 2163 0
-458 -335 -464 2164 0
233 5 -384 2165 0
-37 -30 397 2166 0
-179 -304 -383 2167 0
494 64 104 2168 0
72 299 214 2169 0
-420 356 -230 2170 0
485 495 -173 2171 0
-71 201 102 2172 0
18 -2 119 2173 0
91 -195 -459 2174 0
-29 -112 -3 2175 0
366 -240 194 2176 0
-297 -308 410 2177 0
-10 -414 328 2178 0
-206 78 61 2179 0
438 -395 -63 2180 0
123 443 413 2181 0
-62 358 -443 2182 0
-45 -69 -146 2183 0
-432 -322 309 2184 0
98 -445 165 2185 0
88 304 60 2186 0
101 -318 26 2187 0
368 363 -271 2188 0
-394 -125 -430 2189 0
-344 405 235 2190 0
34 158 181 2191 0
471 358 63 2192 0
393 -287 377 2193 0
-136 326 44 2194 0
36 246 -243 2195 0
-67 -87 -202 2196 0
85 -336 -154 2197 0
-340 314 497 2198 0
219 103 131 2199 0
23 29 -227 2200 0
-94 243 -173 2201 0
-349 404 38 2202 0
-306 3 383 2203 0
418 -147 472 2204 0
470 389 -18 2205 0
445 43 -256 2206 0
399 -16 -328 2207 0
-134 105 -432 2208 0
-14 -444 182 2209 0
202 -24 219 2210 0
276 -112 215 2211 0
325 27 -445 2212 0
-176 11 -168 2213 0
121 -21 -374 2214 0
-490 -212 189 2215 0
105 313 -160 2216 0
-155 50 176 2217 0
-376 -302 22 2218 0
-129 206 -280 2219 0
-470 -155 283 2220 0
-28 10 314 2221 0
-348 -346 -6 2222 0
-35 137 98 2223 0
-72 -394 164 2224 0
-110 463 -74 2225 0
-91 -244 381 2226 0
74 -111 166 2227 0
169 247 290 2228 0
173 136 192 2229 0
-338 -33 127 2230 0
-3 -462 65 2231 0
-192 -195 445 2232 0
-196 129 -361 2233 0
-335 96 20 2234 0
-359 -215 -11 2235 0
218 -176 -264 2236 0
326 462 274 2237 0
279 -44 -89 2238 0
353 115 414 2239 0
-34 330 -157 2240 0
-334 -489 363 2241 0
-217 466 -99 2242 0
2 -325 -365 2243 0
237 42 396 2244 0
-283 -278 -188 2245 0
437 -266 204 2246 0
-263 -265 411 2247 0
-175 325 118 2248 0
-129 363 8 2249 0
191 471 67 2250 0
-454 -484 420 2251 0
-352 77 387 2252 0
286 -250 -203 2253 0
-472 99 178 2254 0
134 -231 259 2255 0
-401 -61 450 2256 0
349 -249 182 2257 0
356 229 -109 2258 0
109 -54 -137 2259 0
380 244 -473 2260 0
-85 320 -461 2261 0
201 14 420 2262 0
117 -67 250 2263 0
-410 204 425 2264 0
483 -180 -27 2265 0
345 109 -203 2266 0
-374 -53 385 2267 0
184 -83 152 2268 0
499 288 -45 2269 0
476 -396 -302 2270 0
66 199 -144 2271 0
182 275 -442 2272 0
325 -385 -476 2273 0
-67 428 -237 2274 0
24 -404 -156 2275 0
500 -409 305 2276 0
-235 -183 60 2277 0
-161 -435 446 2278 0
-55 281 -219 2279 0
14 494 -243 2280 0
344 270 353 2281 0
-211 123 181 2282 0
-190 -124 -123 2283 0
-396 -159 258 2284 0
242 -203 -90 2285 0
62 -202 -201 2286 0
219 -120 12 2287 0
-298 207 -130 2288 0
-97 -457 -90 2289 0
-42 69 138 2290 0
29 -355 494 2291 0
-96 444 -76 2292 0
118 -295 456 2293 0
405 471 30 2294 0
-426 -325 -251 2295 0
239 17 -91 2296 0
13 372 -245 2297 0
167 147 -50 2298 0
-270 -227 -377 2299 0
-421 -47 -265 2300 0
-1 421 -41 2301 0
-300 493 101 2302 0
135 67 -289 2303 0
248 -361 421 2304 0
-94 -336 -331 2305 0
-374 -343 492 2306 0
-208 476 -428 2307 0
-97 379 324 2308 0
224 -265 495 2309 0
-44 -408 375 2310 0
-410 -214 272 2311 0
-131 -142 -239 2312 0
65 -309 397 2313 0
-343 -193 -413 2314 0
473 259 -256 2315 0
-295 261 173 2316 0
-298 157 225 2317 0
-106 431 299 2318 0
-218 -101 378 2319 0
-488 314 288 2320 0
-140 -156 192 2321 0
-357 -161 -337 2322 0
-79 -322 72 2323 0
209 -261 -177 2324 0
-330 -278 -493 2325 0
-266 -161 -141 2326 0
-397 -459 -245 2327 0
221 227 22 2328 0
-468 -94 28 2329 0
-135 -305 -90 2330 0
214 111 -108 2331 0
333 -210 142 2332 0
-158 11 -100 2333 0
-1 -440 158 2334 0
-85 274 385 2335 0
-267 411 217 2336 0
-136 -328 405 2337 0
319 76 -347 2338 0
129 352 -118 2339 0
-8 -437 228 2340 0
378 -71 -198 2341 0
84 462 269 2342 0
167 103 161 2343 0
238 -471 -408 2344 0
341 459 -318 2345 0
158 67 -48 2346 0
-256 -470 493 2347 0
-451 -334 -432 2348 0
-132 293 -465 2349 0
189 80 62 2350 0
74 -316 119 2351 0
-334 -319 219 2352 0
214 149 410 2353 0
-474 483 -183 2354 0
346 225 -39 2355 0
492 481 -38 2356 0
-87 404 152 2357 0
-455 -382 96 2358 0
48 95 -370 2359 0
339 316 -198 2360 0
-388 118 -211 2361 0
266 141 491 2362 0
356 381 468 2363 0
219 -168 177 2364 0
-232 312 212 2365 0
19 182 -78 2366 0
-240 -100 -450 2367 0
202 128 42 2368 0
-449 314 -407 2369 0
337 -276 -330 2370 0
-242 183 -208 2371 0
444 -488 -426 2372 0
339 -283 176 2373 0
342 -154 -340 2374 0
-305 82 -272 2375 0
-355 -289 103 2376 0
-280 -296 161 2377 0
162 295 416 2378 0
-233 -372 -221 2379 0
295 -399 -81 2380 0
-273 416 -148 2381 0
-442 -455 -158 2382 0
-315 -120 268 2383 0
222 -125 -100 2384 0
114 495 -203 2385 0
277 -250 347 2386 0
-65 -423 291 2387 0
172 276 -455 2388 0
-47 -407 -416 2389 0
289 -313 410 2390 0
-205 363 -176 2391 0
323 -33 -495 2392 0
-21 38 328 2393 0
426 343 -444 2394 0
-473 112 494 2395 0
-443 -205 -451 2396 0
-17 -439 -285 2397 0
223 -57 274 2398 0
-233 -188 488 2399 0
65 -236 -199 2400 0
247 375 -246 2401 0
359 172 23 2402 0
81 -306 -418 2403 0
429 -106 -382 2404 0
407 -180 -21 2405 0
-323 -404 63 2406 0
-4 51 303 2407 0
56 391 -305 2408 0
114 -62 197 2409 0
377 -115 -92 2410 0
309 72 -439 2411 0
-95 -287 205 2412 0
-465 -474 404 2413 0
298 -407 -37 2414 0
-133 -254 487 2415 0
-478 -400 307 2416 0
41 325 445 2417 0
95 366 -35 2418 0
-405 108 -240 2419 0
202 -452 -184 2420 0
27 -135 -209 2421 0
406 452 153 2422 0
-430 279 495 2423 0
-87 135 -9 2424 0
179 -318 -322 2425 0
-174 -55 -339 2426 0
-207 -167 141 2427 0
-387 138 192 2428 0
-385 -284 -23 2429 0
-399 -321 -377 2430 0
18 133 13 2431 0
-119 430 261 2432 0
-84 375 279 2433 0
45 4 -476 2434 0
339 98 -50 2435 0
-156 4 497 2436 0
266 370 -434 2437 0
487 398 -197 2438 0
-173 -87 37 2439 0
38 -72 -121 2440 0
258 233 76 2441 0
313 8 272 2442 0
-278 131 172 2443 0
-155 480 394 2444 0
-28 393 226 2445 0
189 20 161 2446 0
-312 190 -444 2447 0
340 8 -227 2448 0
-406 414 168 2449 0
-201 180 491 2450 0
-54 -448 -171 2451 0
202 479 -52 2452 0
379 -411 -362 2453 0
165 208 -209 2454 0
267 249 96 2455 0
118 172 -417 2456 0
-409 480 500 2457 0
-455 329 -111 2458 0
-11 -32 -56 2459 0
481 -167 -361 2460 0
-228 -393 16 2461 0
-227 475 -295 2462 0
-346 43 -409 2463 0
23 -307 72 2464 0
-32 363 394 2465 0
174 -288 -7 2466 0
-417 -28 -321 2467 0
-275 -238 404 2468 0
-368 -383 -31 2469 0
326 269 -480 2470 0
-121 -402 -201 2471 0
155 -40 466 2472 0
322 222 -441 2473 0
-469 377 -31 2474 0
-318 496 424 2475 0
-471 -495 -455 2476 0
-117 -113 94 2477 0
364 -362 330 2478 0
231 -181 296 2479 0
-102 -100 -137 2480 0
-355 -487 -196 2481 0
-330 -262 -64 2482 0
-315 -349 300 2483 0
-83 -120 298 2484 0
312 4 -70 2485 0
-15 500 275 2486 0
-290 148 150 2487 0
-232 -247 -485 2488 0
444 15 -427 2489 0
-170 339 154 2490 0
-143 123 -205 2491 0
-16 383 285 2492 0
475 217 458 2493 0
-75 -22 288 2494 0
67 277 -496 2495 0
290 93 127 2496 0
389 -100 -204 2497 0
50 474 -325 2498 0
-280 293 366 2499 0
340 413 -421 2500 0
345 110 182 2501 0
-30 -360 495 2502 0
-293 350 22 2503 0
-183 296 -297 2504 0
233 225 40 2505 0
281 497 61 2506 0
432 15 -269 2507 0
-448 365 495 2508 0
-194 -387 306 2509 0
299 358 -341 2510 0
10 425 81 2511 0
-318 -67 -11 2512 0
-282 -286 339 2513 0
243 74 417 2514 0
-130 164 -61 2515 0
-287 263 259 2516 0
88 -439 -145 2517 0
-352 -434 264 2518 0
-498 -177 -360 2519 0
-377 -385 215 2520 0
-412 -111 83 2521 0
-175 -129 -87 2522 0
483 -286 357 2523 0
-143 -461 234 2524 0
25 459 289 2525 0
-10 81 -486 2526 0
326 -77 -383 2527 0
-205 57 -186 2528 0
120 -67 96 2529 0
164 -5 -160 2530 0
239 -132 108 2531 0
-137 -139 -396 2532 0
434 -314 478 2533 0
-437 -476 461 2534 0
68 454 -412 2535 0
498 -375 303 2536 0
14 -82 -206 2537 0
236 -489 -178 2538 0
-185 -414 -251 2539 0
500 421 -397 2540 0
-65 -96 228 2541 0
-9 169 -107 2542 0
-91 -263 294 2543 0
276 -497 -443 2544 0
345 85 299 2545 0
61 -303 475 2546 0
-257 -339 44 2547 0
344 -423 223 2548 0
-136 375 239 2549 0
429 -218 338 2550 0
432 73 -260 2551 0
-259 -434 420 2552 0
-321 122 -212 2553 0
71 261 -331 2554 0
-164 264 225 2555 0
108 296 -456 2556 0
-88 59 -406 2557 0
-252 -345 26 2558 0
222 158 -11 2559 0
237 -370 219 2560 0
269 355 -350 2561 0
-69 100 -269 2562 0
-75 368 268 2563 0
205 329 86 2564 0
-437 114 268 2565 0
143 -303 487 2566 0
-250 124 -443 2567 0
-1 -297 -61 2568 0
238 481 -228 2569 0
-226 -455 -21 2570 0
-272 -76 -268 2571 0
434 -264 342 2572 0
-179 -93 180 2573 0
-221 -388 403 2574 0
428 -285 52 2575 0
244 -89 437 2576 0
-288 222 395 2577 0
-453 -25 77 2578 0
-405 420 34 2579 0
-193 273 291 2580 0
-411 -152 -87 2581 0
-189 -236 -474 2582 0
-99 -278 6 2583 0
-434 86 -92 2584 0
-106 -250 -297 2585 0
-135 -198 -153 2586 0
327 450 -421 2587 0
165 -14 186 2588 0
60 203 8 2589 0
378 -495 152 2590 0
-241 -480 477 2591 0
494 -301 186 2592 0
249 -283 423 2593 0
-147 -320 344 2594 0
-441 194 14 2595 0
-468 35 -38 2596 0
333 -473 -316 2597 0
-107 298 288 2598 0
-327 176 42 2599 0
285 -180 131 2600 0
309 -300 -60 2601 0
17 -182 219 2602 0
445 -183 468 2603 0
500 -310 -448 2604 0
278 97 228 2605 0
-194 35 -145 2606 0
-193 -406 -275 2607 0
3 235 -112 2608 0
-161 -385 -34 2609 0
-164 -22 -33 2610 0
28 -205 348 2611 0
66 369 -144 2612 0
-361 -206 150 2613 0
389 234 293 2614 0
260 2 -167 2615 0
281 -377 -432 2616 0
-234 39 -478 2617 0
-209 -409 -13 2618 0
-188 368 204 2619 0
403 91 -120 2620 0
-408 -136 -382 2621 0
282 47 102 2622 0
323 -241 -254 2623 0
-346 129 -215 2624 0
-464 -218 -47 2625 0
167 283 -21 2626 0
62 66 -287 2627 0
239 -200 417 2628 0
47 -23 492 2629 0
164 122 264 2630 0
3 401 44 2631 0
-133 358 -1 2632 0
64 -208 -321 2633 0
410 -390 268 2634 0
285 424 -383 2635 0
488 219 -66 2636 0
-495 173 -468 2637 0
385 -83 290 2638 0
335 486 464 2639 0
-458 -203 83 2640 0
125 -269 -255 2641 0
254 -19 -16 2642 0
8 -424 -304 2643 0
172 152 -438 2644 0
231 -375 -451 2645 0
-43 -124 133 2646 0
360 -321 209 2647 0
232 66 270 2648 0
-457 -187 174 2649 0
-259 -457 451 2650 0
