p cnf 2650 2150
349 -84 -376 501 0
125 23 262 502 0
-342 -448 300 503 0
207 316 143 504 0
-208 439 80 505 0
326 -232 197 506 0
-479 -52 198 507 0
-312 31 209 508 0
123 423 414 509 0
-416 153 -475 510 0
-252 113 -100 511 0
165 251 488 512 0
274 33 48 513 0
236 256 -277 514 0
226 -152 213 515 0
-17 -372 -423 516 0
241 481 24 517 0
-221 -378 -452 518 0
86 -151 -431 519 0
342 -78 254 520 0
-327 147 -151 521 0
398 62 -371 522 0
-400 133 348 523 0
-115 -244 -356 524 0
57 -163 215 525 0
-30 51 -397 526 0
365 164 -200 527 0
-411 -183 -72 528 0
-460 48 159 529 0
277 -311 488 530 0
282 -427 374 531 0
-381 -301 -266 532 0
-412 302 -168 533 0
-423 -446 289 534 0
33 336 -284 535 0
-79 -468 -467 536 0
-106 166 7 537 0
-43 -24 -362 538 0
124 240 282 539 0
191 374 477 540 0
-442 478 14 541 0
393 -208 321 542 0
-161 191 288 543 0
211 96 441 544 0
-272 237 -305 545 0
-263 338 -381 546 0
-114 405 -40 547 0
-222 -182 -360 548 0
-77 -18 314 549 0
388 97 -381 550 0
64 14 361 551 0
424 484 -26 552 0
-98 -221 152 553 0
-87 -349 -238 554 0
129 -324 359 555 0
274 -90 -363 556 0
-275 -338 -169 557 0
-153 359 38 558 0
-257 -107 -326 559 0
388 -375 164 560 0
57 -381 -168 561 0
-424 -2 314 562 0
98 -133 11 563 0
-8 195 -208 564 0
4 -50 -410 565 0
289 15 57 566 0
-186 367 -374 567 0
64 -302 -235 568 0
-399 435 -149 569 0
269 -403 221 570 0
461 375 -310 571 0
-174 -291 290 572 0
374 -13 -340 573 0
-173 184 -499 574 0
138 -70 -279 575 0
127 -86 440 576 0
222 404 18 577 0
236 -322 -118 578 0
-366 -114 -289 579 0
261 -452 124 580 0
-309 488 -221 581 0
-90 426 100 582 0
-115 177 -322 583 0
-458 169 94 584 0
480 296 413 585 0
-115 148 -305 586 0
236 -120 96 587 0
-23 -416 162 588 0
447 -277 -145 589 0
-393 -366 -121 590 0
-343 -459 23 591 0
79 88 155 592 0
334 -486 497 593 0
370 216 -337 594 0
100 -316 -222 595 0
-308 435 485 596 0
255 -400 122 597 0
121 62 267 598 0
-445 376 -41 599 0
-324 -22 337 600 0
-28 -242 -218 601 0
-434 266 -10 602 0
-180 -467 -402 603 0
319 -262 36 604 0
-396 -77 204 605 0
15 -260 276 606 0
-356 366 38 607 0
175 -50 375 608 0
-58 93 -128 609 0
91 -332 -138 610 0
423 -38 56 611 0
-287 -204 -267 612 0
258 419 67 613 0
441 331 -183 614 0
-104 423 32 615 0
-185 431 404 616 0
313 -184 -465 617 0
278 -213 203 618 0
-256 138 -384 619 0
61 -400 -178 620 0
-5 459 41 621 0
37 377 437 622 0
11 331 165 623 0
-481 269 454 624 0
34 -179 445 625 0
472 328 299 626 0
-92 23 104 627 0
-454 136 -241 628 0
330 -125 -175 629 0
-114 -393 462 630 0
-82 311 -422 631 0
453 347 -186 632 0
50 182 -280 633 0
338 30 -100 634 0
468 -489 344 635 0
137 -204 310 636 0
-207 -303 448 637 0
-484 -39 -422 638 0
16 59 -456 639 0
-120 -372 -270 640 0
49 382 439 641 0
345 20 -33 642 0
-273 242 41 643 0
406 -349 298 644 0
-99 -32 404 645 0
221 -454 -121 646 0
-202 -162 128 647 0
-103 281 450 648 0
175 323 -350 649 0
-41 -156 499 650 0
-255 -318 -178 651 0
324 77 208 652 0
-323 -337 -437 653 0
147 399 -305 654 0
-371 72 -187 655 0
368 319 481 656 0
232 -436 451 657 0
-181 -371 57 658 0
-218 282 422 659 0
-162 -29 136 660 0
-259 -281 315 661 0
-65 113 -157 662 0
-244 336 -492 663 0
-112 186 -476 664 0
263 47 237 665 0
-444 498 209 666 0
417 310 443 667 0
494 -346 185 668 0
-300 -467 53 669 0
-127 -146 285 670 0
-31 479 -387 671 0
-109 401 -97 672 0
84 -150 -316 673 0
60 -365 383 674 0
-155 -305 468 675 0
434 -106 -414 676 0
345 -370 -91 677 0
21 -313 -262 678 0
253 156 -411 679 0
293 173 -308 680 0
-146 -101 -170 681 0
291 -208 -382 682 0
272 319 -112 683 0
137 77 465 684 0
143 -219 39 685 0
345 -297 10 686 0
495 418 139 687 0
-158 50 -456 688 0
184 326 148 689 0
-426 -165 -27 690 0
68 -148 -451 691 0
-341 -482 194 692 0
293 -435 313 693 0
135 -140 -320 694 0
189 36 -72 695 0
318 -188 -391 696 0
-38 58 -24 697 0
-407 339 421 698 0
-225 299 -405 699 0
-39 316 87 700 0
-212 96 111 701 0
380 -369 -96 702 0
-206 -266 208 703 0
466 192 -81 704 0
266 177 308 705 0
-391 -359 -303 706 0
-374 211 141 707 0
-199 -222 413 708 0
417 -138 296 709 0
-142 353 126 710 0
-134 -225 -222 711 0
480 -99 80 712 0
45 -56 26 713 0
-339 -61 111 714 0
-342 225 182 715 0
321 160 -125 716 0
181 387 -259 717 0
-364 -24 -34 718 0
217 213 -141 719 0
-467 -63 -451 720 0
28 -206 216 721 0
114 -489 216 722 0
-310 164 100 723 0
263 457 -453 724 0
-121 -98 -139 725 0
-491 -2 -288 726 0
-282 -49 399 727 0
112 500 -289 728 0
-339 361 169 729 0
-110 -165 -77 730 0
-262 458 414 731 0
-197 299 -462 732 0
-26 135 -122 733 0
-38 -481 -181 734 0
-362 -71 -119 735 0
394 90 -386 736 0
-465 -210 29 737 0
-416 -291 -110 738 0
-128 -91 92 739 0
104 -236 99 740 0
434 -236 -102 741 0
-491 488 -257 742 0
447 59 -20 743 0
18 490 -441 744 0
379 -161 -462 745 0
322 436 -164 746 0
-396 -383 467 747 0
266 51 -268 748 0
-192 -104 406 749 0
-230 169 -469 750 0
214 -389 279 751 0
345 -458 -343 752 0
-285 -417 139 753 0
-76 -354 27 754 0
-422 481 39 755 0
-390 270 -3 756 0
53 167 -154 757 0
-441 -209 -419 758 0
411 446 223 759 0
-103 255 -144 760 0
352 228 -30 761 0
-381 -161 -309 762 0
-84 200 -40 763 0
-305 -162 148 764 0
-435 387 90 765 0
363 -191 40 766 0
-481 -185 12 767 0
291 -369 -427 768 0
-212 357 179 769 0
-417 459 -166 770 0
-194 -185 -217 771 0
-137 -423 -280 772 0
9 -451 -214 773 0
284 344 -432 774 0
75 -405 419 775 0
138 136 -215 776 0
-199 123 -142 777 0
-113 116 -132 778 0
-447 73 290 779 0
444 -288 -215 780 0
76 418 -319 781 0
154 -238 -98 782 0
241 -344 302 783 0
-434 383 -80 784 0
-302 -452 482 785 0
-16 296 -443 786 0
-115 96 423 787 0
115 472 -500 788 0
42 -267 -490 789 0
246 73 254 790 0
-110 -92 -496 791 0
232 128 14 792 0
440 -396 -492 793 0
-292 -350 -357 794 0
-99 -89 449 795 0
271 71 334 796 0
42 -224 434 797 0
37 -448 288 798 0
-382 449 93 799 0
240 53 292 800 0
226 -463 403 801 0
-89 -427 473 802 0
-1 423 -275 803 0
21 -129 287 804 0
-81 288 -190 805 0
-40 -16 -284 806 0
219 449 -332 807 0
-340 121 -206 808 0
495 386 96 809 0
323 95 -116 810 0
413 -493 47 811 0
-37 320 375 812 0
218 300 292 813 0
37 -49 -341 814 0
-314 149 113 815 0
53 159 337 816 0
-18 402 -478 817 0
-495 323 -414 818 0
-441 352 -171 819 0
2 380 138 820 0
233 -192 -375 821 0
-189 -191 -163 822 0
-83 -146 -49 823 0
-61 -104 -473 824 0
262 -287 52 825 0
-307 167 -352 826 0
-247 146 -217 827 0
-103 -28 -260 828 0
-238 237 -175 829 0
-196 -432 -431 830 0
-130 -162 -478 831 0
-323 -71 -355 832 0
-435 -380 -337 833 0
129 -366 -496 834 0
261 -417 -337 835 0
-359 19 349 836 0
-165 16 222 837 0
-287 478 212 838 0
-67 3 -90 839 0
-13 114 -61 840 0
489 114 -272 841 0
-9 188 15 842 0
-285 -335 -337 843 0
-333 144 6 844 0
-449 -83 -112 845 0
132 483 370 846 0
-142 425 -418 847 0
-271 450 -348 848 0
-244 -127 -170 849 0
-364 302 322 850 0
109 -2 -294 851 0
196 -418 114 852 0
265 445 -460 853 0
148 -189 -286 854 0
201 493 -226 855 0
216 -302 -480 856 0
-317 -362 -120 857 0
-81 173 -41 858 0
56 -281 360 859 0
-163 83 231 860 0
448 -336 400 861 0
113 -446 -307 862 0
-438 169 360 863 0
201 356 191 864 0
-254 -133 -405 865 0
295 -406 221 866 0
325 -355 -146 867 0
54 380 319 868 0
-499 -122 202 869 0
174 440 -416 870 0
94 -449 -297 871 0
-211 -405 -478 872 0
390 -196 -22 873 0
-257 62 -15 874 0
330 -268 490 875 0
-472 -219 -492 876 0
195 -369 -202 877 0
-486 273 -383 878 0
-327 -140 -6 879 0
-309 415 -465 880 0
270 -234 -414 881 0
-255 -17 -60 882 0
319 -7 -491 883 0
403 31 -94 884 0
-281 5 -480 885 0
70 484 -433 886 0
125 230 482 887 0
457 248 145 888 0
-423 391 -8 889 0
191 -94 441 890 0
-90 64 223 891 0
437 163 -484 892 0
338 26 202 893 0
12 227 -490 894 0
99 18 -236 895 0
449 179 196 896 0
500 267 -59 897 0
136 229 -134 898 0
107 -102 -187 899 0
-317 -100 415 900 0
-270 -378 -456 901 0
-460 -410 -497 902 0
223 -105 203 903 0
102 -267 -496 904 0
-353 -146 -26 905 0
-209 449 444 906 0
-440 -56 -393 907 0
121 252 358 908 0
30 168 -297 909 0
-245 167 -7 910 0
228 419 480 911 0
18 421 294 912 0
-168 124 19 913 0
-432 -44 -49 914 0
-117 182 -77 915 0
196 -384 288 916 0
-392 -228 359 917 0
-354 -437 -29 918 0
468 -357 -364 919 0
437 -441 -265 920 0
-443 -81 -384 921 0
92 259 142 922 0
434 -491 -93 923 0
-15 -414 -493 924 0
-121 327 454 925 0
167 -223 -381 926 0
-252 233 243 927 0
418 -259 -165 928 0
342 -291 -87 929 0
-154 220 -201 930 0
444 -80 475 931 0
183 72 196 932 0
75 -124 208 933 0
428 457 -319 934 0
25 372 -38 935 0
-72 375 318 936 0
378 -332 -83 937 0
351 48 -328 938 0
298 441 392 939 0
-433 -21 -53 940 0
-236 310 217 941 0
314 -33 261 942 0
-45 -269 366 943 0
-24 141 497 944 0
63 420 -171 945 0
-256 46 196 946 0
93 -181 -43 947 0
-321 -32 -60 948 0
-283 -413 -259 949 0
-448 444 452 950 0
83 268 415 951 0
39 -265 214 952 0
23 -472 324 953 0
-279 -252 -78 954 0
313 -325 -46 955 0
16 -51 180 956 0
165 122 -260 957 0
69 -204 -468 958 0
-419 -460 -216 959 0
436 363 -38 960 0
58 49 4 961 0
-288 -257 -263 962 0
311 497 348 963 0
160 154 -437 964 0
304 -69 -486 965 0
-385 -323 74 966 0
-423 495 -395 967 0
-7 360 302 968 0
132 4 -127 969 0
-143 -211 -270 970 0
230 -126 -16 971 0
490 200 -152 972 0
-42 -93 145 973 0
156 -396 122 974 0
-213 283 -452 975 0
-271 374 -437 976 0
113 457 -298 977 0
31 -290 -397 978 0
319 219 -64 979 0
-339 135 -190 980 0
276 88 445 981 0
284 499 156 982 0
37 230 211 983 0
-104 201 482 984 0
493 360 -486 985 0
-214 -76 122 986 0
113 495 -31 987 0
-282 -63 31 988 0
5 -46 -278 989 0
-119 394 264 990 0
226 -175 242 991 0
456 -44 91 992 0
183 -399 -479 993 0
128 -201 75 994 0
-395 -354 450 995 0
476 395 311 996 0
-456 326 80 997 0
-234 -442 -63 998 0
410 -178 -67 999 0
6 -186 65 1000 0
66 -124 85 1001 0
205 175 -229 1002 0
-306 -356 -68 1003 0
286 -297 271 1004 0
-461 -3 -120 1005 0
-401 279 296 1006 0
-26 401 -140 1007 0
227 -251 -478 1008 0
318 457 406 1009 0
479 276 218 1010 0
165 185 220 1011 0
-407 -390 137 1012 0
192 -272 317 1013 0
368 -400 -307 1014 0
258 435 -364 1015 0
444 329 432 1016 0
-422 147 -357 1017 0
8 211 -479 1018 0
93 -163 -443 1019 0
276 277 358 1020 0
295 -382 25 1021 0
293 173 53 1022 0
-373 -167 -400 1023 0
6 142 -24 1024 0
-318 -265 378 1025 0
-29 -249 -185 1026 0
59 -164 13 1027 0
423 -135 448 1028 0
113 126 -96 1029 0
-316 127 -19 1030 0
49 341 316 1031 0
186 -217 -248 1032 0
94 434 332 1033 0
211 457 -23 1034 0
-350 -484 487 1035 0
-169 -102 -96 1036 0
-107 179 -296 1037 0
148 -310 122 1038 0
-35 234 292 1039 0
293 -496 164 1040 0
212 -183 296 1041 0
-130 302 -288 1042 0
-485 -318 -362 1043 0
-363 233 221 1044 0
-302 36 -259 1045 0
380 433 -115 1046 0
-70 327 -117 1047 0
-378 -143 425 1048 0
-162 44 -38 1049 0
-42 282 -101 1050 0
-236 462 343 1051 0
262 -450 218 1052 0
3 386 -153 1053 0
-440 -408 456 1054 0
438 -26 -169 1055 0
-334 -39 323 1056 0
40 -308 437 1057 0
184 -76 158 1058 0
-108 426 220 1059 0
461 412 458 1060 0
-40 -12 -74 1061 0
-472 207 239 1062 0
-28 -267 -464 1063 0
-135 164 -325 1064 0
-247 13 -6 1065 0
-370 -399 -105 1066 0
334 -68 -21 1067 0
356 -241 89 1068 0
119 -433 77 1069 0
244 -175 396 1070 0
58 -307 -119 1071 0
283 -208 225 1072 0
-490 457 206 1073 0
292 -8 15 1074 0
-480 -244 -194 1075 0
-14 -107 -196 1076 0
-473 -354 384 1077 0
-190 -85 413 1078 0
-9 332 460 1079 0
427 -495 3 1080 0
-467 -156 -115 1081 0
-260 50 -417 1082 0
351 387 -178 1083 0
209 175 -295 1084 0
-374 460 -408 1085 0
495 226 384 1086 0
-144 232 -393 1087 0
-280 -457 163 1088 0
305 -329 132 1089 0
-49 -180 354 1090 0
-302 -385 -422 1091 0
-474 -485 110 1092 0
53 347 -132 1093 0
252 -375 -271 1094 0
135 -365 253 1095 0
-419 337 358 1096 0
95 -324 -225 1097 0
-218 303 -149 1098 0
-197 -404 150 1099 0
-163 -450 69 1100 0
255 338 -456 1101 0
163 -10 -123 1102 0
-422 341 -311 1103 0
-330 -89 293 1104 0
-237 -252 -341 1105 0
-168 125 -495 1106 0
396 448 -402 1107 0
-99 -481 10 1108 0
189 473 -393 1109 0
14 43 -40 1110 0
-480 -324 -381 1111 0
-331 -419 -277 1112 0
-34 152 497 1113 0
-13 -74 -209 1114 0
226 -245 -383 1115 0
113 98 184 1116 0
-126 -23 -96 1117 0
369 -310 24 1118 0
-356 -288 -148 1119 0
465 -424 -454 1120 0
110 -184 86 1121 0
-344 -52 -18 1122 0
-143 453 -450 1123 0
227 371 -31 1124 0
209 -283 -205 1125 0
248 368 -111 1126 0
3 -104 -433 1127 0
241 358 -360 1128 0
162 -56 -344 1129 0
-426 197 -231 1130 0
-325 181 -231 1131 0
242 427 -297 1132 0
-445 -200 -296 1133 0
-402 -40 -263 1134 0
254 166 388 1135 0
-66 48 -352 1136 0
311 -432 -218 1137 0
19 404 102 1138 0
-226 161 276 1139 0
22 231 340 1140 0
-404 -119 -135 1141 0
-10 -134 96 1142 0
382 -169 424 1143 0
-379 78 -286 1144 0
-58 117 325 1145 0
444 299 -256 1146 0
-414 -185 -443 1147 0
27 -492 407 1148 0
385 -290 -498 1149 0
386 -185 411 1150 0
175 406 154 1151 0
262 100 367 1152 0
480 -16 240 1153 0
236 456 164 1154 0
-25 -458 -76 1155 0
-28 -225 -342 1156 0
447 -74 454 1157 0
-343 -484 -244 1158 0
-184 195 -219 1159 0
438 -163 242 1160 0
-312 255 -116 1161 0
-142 -54 -404 1162 0
-215 298 476 1163 0
-426 108 181 1164 0
-348 186 62 1165 0
-239 -134 -108 1166 0
269 264 -447 1167 0
97 -276 -129 1168 0
-336 -390 -444 1169 0
459 -327 -205 1170 0
305 281 338 1171 0
-128 59 182 1172 0
3 120 -441 1173 0
-180 -215 -270 1174 0
-9 338 -69 1175 0
215 -199 -202 1176 0
-468 434 -414 1177 0
311 300 362 1178 0
-71 328 280 1179 0
-239 67 182 1180 0
-343 370 -455 1181 0
157 276 196 1182 0
328 -301 36 1183 0
-207 -457 358 1184 0
-482 356 -303 1185 0
-16 413 53 1186 0
-341 32 -93 1187 0
-256 -125 -391 1188 0
355 34 -139 1189 0
249 442 387 1190 0
182 -427 395 1191 0
437 326 221 1192 0
-325 313 -221 1193 0
-64 -118 -322 1194 0
-167 458 -401 1195 0
-386 247 -410 1196 0
-232 101 163 1197 0
256 219 452 1198 0
354 446 -311 1199 0
-12 165 185 1200 0
82 -78 -119 1201 0
338 -315 98 1202 0
-299 -39 -133 1203 0
19 -455 170 1204 0
-383 282 302 1205 0
231 -246 -12 1206 0
-202 37 67 1207 0
-216 117 -196 1208 0
-13 -488 78 1209 0
399 298 -155 1210 0
-27 -352 -392 1211 0
-468 -254 450 1212 0
-350 -281 -291 1213 0
91 76 293 1214 0
78 -372 -453 1215 0
-255 -337 205 1216 0
-481 -438 288 1217 0
-125 -315 -103 1218 0
154 182 211 1219 0
-207 58 204 1220 0
-353 -86 10 1221 0
-88 -447 143 1222 0
-472 491 250 1223 0
-59 43 -316 1224 0
-399 -292 48 1225 0
-470 450 125 1226 0
-144 25 -498 1227 0
-496 332 -381 1228 0
4 117 -458 1229 0
238 146 -396 1230 0
302 399 186 1231 0
-452 144 492 1232 0
62 211 -464 1233 0
-294 433 -491 1234 0
-303 432 55 1235 0
-58 110 -463 1236 0
-94 260 -487 1237 0
-41 -371 230 1238 0
-343 142 -477 1239 0
-220 -47 26 1240 0
259 346 229 1241 0
-83 466 289 1242 0
447 398 102 1243 0
160 -81 44 1244 0
-222 475 -387 1245 0
-403 397 -290 1246 0
209 299 359 1247 0
121 -395 432 1248 0
-15 307 -49 1249 0
167 -219 432 1250 0
-145 -96 -470 1251 0
-134 35 232 1252 0
-291 83 -225 1253 0
-410 -490 -190 1254 0
247 427 -235 1255 0
-353 -163 173 1256 0
214 -77 106 1257 0
178 -200 -68 1258 0
-334 -143 493 1259 0
-306 250 314 1260 0
-164 316 -18 1261 0
-362 156 482 1262 0
250 -139 -356 1263 0
283 23 -5 1264 0
160 494 251 1265 0
-476 260 254 1266 0
189 -495 438 1267 0
55 396 92 1268 0
-375 -214 321 1269 0
235 217 -294 1270 0
55 128 159 1271 0
-153 462 -452 1272 0
380 -177 -379 1273 0
259 139 262 1274 0
315 327 143 1275 0
-161 227 145 1276 0
-24 219 -101 1277 0
-69 237 464 1278 0
247 372 -292 1279 0
266 257 -71 1280 0
34 141 -305 1281 0
246 -302 -195 1282 0
318 -127 37 1283 0
311 214 -453 1284 0
89 -338 193 1285 0
-251 -19 294 1286 0
392 195 -479 1287 0
497 119 81 1288 0
-145 -172 -439 1289 0
-328 -455 -461 1290 0
-387 58 192 1291 0
440 -251 -123 1292 0
462 -52 -22 1293 0
236 2 -170 1294 0
321 272 -246 1295 0
-445 446 -493 1296 0
132 -359 138 1297 0
28 407 -132 1298 0
-491 476 93 1299 0
165 -16 -459 1300 0
142 183 -343 1301 0
-264 120 -311 1302 0
79 223 225 1303 0
109 184 -384 1304 0
145 328 -200 1305 0
-290 -369 -193 1306 0
316 -354 426 1307 0
-167 -44 -267 1308 0
173 49 362 1309 0
-400 -68 -356 1310 0
-496 74 -321 1311 0
231 471 -92 1312 0
-166 -337 -109 1313 0
-312 496 478 1314 0
-33 231 121 1315 0
319 -213 105 1316 0
44 221 -281 1317 0
361 -166 107 1318 0
-465 -118 -393 1319 0
-49 -84 252 1320 0
-233 447 -381 1321 0
-296 -434 195 1322 0
232 161 22 1323 0
194 -373 145 1324 0
-206 205 171 1325 0
78 -273 455 1326 0
104 -132 -473 1327 0
-98 494 430 1328 0
101 -407 463 1329 0
-132 304 -360 1330 0
-323 -90 283 1331 0
119 252 -442 1332 0
484 320 -466 1333 0
482 -190 -393 1334 0
-391 -164 -178 1335 0
433 -437 480 1336 0
-479 117 97 1337 0
368 -319 495 1338 0
170 -227 -497 1339 0
494 -243 -49 1340 0
-343 88 164 1341 0
-33 153 -454 1342 0
-491 444 383 1343 0
225 162 -240 1344 0
-144 -464 -322 1345 0
-404 71 28 1346 0
-98 21 362 1347 0
415 210 -8 1348 0
-177 -257 -134 1349 0
-224 -479 -86 1350 0
-263 -236 -125 1351 0
-400 -444 -378 1352 0
152 -70 272 1353 0
374 175 182 1354 0
-134 -421 1 1355 0
417 290 -8 1356 0
-141 240 330 1357 0
69 -123 -121 1358 0
409 71 -491 1359 0
-379 90 -136 1360 0
171 223 -186 1361 0
334 156 -92 1362 0
-139 -498 -381 1363 0
238 -243 -406 1364 0
431 381 -269 1365 0
-460 -475 436 1366 0
-257 -200 -443 1367 0
-79 -368 -132 1368 0
288 191 -132 1369 0
142 107 -110 1370 0
239 -312 101 1371 0
398 240 468 1372 0
310 -210 385 1373 0
302 24 -394 1374 0
248 -270 -231 1375 0
107 410 -321 1376 0
-402 -117 -412 1377 0
-76 -421 -180 1378 0
368 -154 289 1379 0
-176 246 366 1380 0
-242 202 -132 1381 0
-441 202 -292 1382 0
58 283 136 1383 0
383 21 -353 1384 0
-192 186 81 1385 0
336 63 -454 1386 0
178 315 -238 1387 0
-342 251 -317 1388 0
335 -50 -180 1389 0
-16 -320 97 1390 0
198 -243 -228 1391 0
20 -352 -379 1392 0
339 65 413 1393 0
-420 248 -181 1394 0
213 389 63 1395 0
411 -198 7 1396 0
51 -63 -151 1397 0
172 266 316 1398 0
397 -439 -403 1399 0
-109 -173 -187 1400 0
-337 -92 -1 1401 0
-143 -449 11 1402 0
308 439 -180 1403 0
-376 29 382 1404 0
-177 422 205 1405 0
374 -378 -178 1406 0
341 -439 374 1407 0
-145 353 -129 1408 0
297 -419 151 1409 0
155 252 -183 1410 0
-163 272 -305 1411 0
163 -172 -201 1412 0
425 470 151 1413 0
-146 180 -232 1414 0
79 8 -117 1415 0
-159 -234 -281 1416 0
-5 129 -234 1417 0
494 -264 161 1418 0
-91 212 -398 1419 0
473 298 -307 1420 0
126 -103 -499 1421 0
450 -140 -134 1422 0
20 184 327 1423 0
-21 -78 -35 1424 0
43 -316 -330 1425 0
291 325 -405 1426 0
270 -232 222 1427 0
-170 -125 12 1428 0
129 288 278 1429 0
32 -480 -462 1430 0
-402 -459 116 1431 0
428 -207 -168 1432 0
-274 494 337 1433 0
155 277 -41 1434 0
-354 -193 -255 1435 0
-432 275 40 1436 0
-215 -362 -234 1437 0
-175 -486 -88 1438 0
293 26 188 1439 0
397 111 -42 1440 0
-223 144 218 1441 0
-406 463 243 1442 0
110 152 326 1443 0
-94 -409 -18 1444 0
246 -61 -342 1445 0
-451 -404 -154 1446 0
7 213 463 1447 0
445 -14 232 1448 0
294 462 278 1449 0
-3 234 383 1450 0
180 -138 -449 1451 0
-389 -76 238 1452 0
-104 143 181 1453 0
220 254 -136 1454 0
-47 253 -184 1455 0
233 416 -480 1456 0
-330 -273 -373 1457 0
290 -100 -147 1458 0
-475 -431 148 1459 0
-147 -347 -430 1460 0
-452 -56 -92 1461 0
256 -361 53 1462 0
-161 -80 -193 1463 0
-238 -266 187 1464 0
222 251 -310 1465 0
-260 -35 -327 1466 0
124 86 394 1467 0
448 201 -104 1468 0
328 -240 430 1469 0
-151 -490 69 1470 0
-411 -211 201 1471 0
-135 350 -59 1472 0
457 138 -353 1473 0
137 298 111 1474 0
-217 358 -68 1475 0
352 -324 -171 1476 0
-122 -88 -412 1477 0
-56 -451 169 1478 0
402 380 -335 1479 0
7 -75 -143 1480 0
354 -132 480 1481 0
-211 255 -175 1482 0
140 -24 30 1483 0
-90 -52 -419 1484 0
260 168 -252 1485 0
-321 243 103 1486 0
-444 346 -440 1487 0
100 154 360 1488 0
-315 -278 12 1489 0
-152 106 -303 1490 0
154 1 -476 1491 0
7 -268 374 1492 0
291 -493 -499 1493 0
261 206 258 1494 0
-139 112 -73 1495 0
-46 -361 -332 1496 0
251 -354 -227 1497 0
-194 29 451 1498 0
10 -400 -19 1499 0
45 -33 -411 1500 0
81 -434 -500 1501 0
197 396 -442 1502 0
225 -477 117 1503 0
471 -309 -243 1504 0
439 101 -42 1505 0
-39 -61 46 1506 0
390 -337 -233 1507 0
193 363 -425 1508 0
-100 470 484 1509 0
-143 294 -382 1510 0
-63 -112 -454 1511 0
58 194 -40 1512 0
-52 -386 -197 1513 0
-364 358 -2 1514 0
-413 -75 23 1515 0
162 -468 -274 1516 0
-60 -211 7 1517 0
-99 -104 168 1518 0
-173 371 -76 1519 0
33 333 -293 1520 0
-125 -189 -307 1521 0
259 288 -126 1522 0
-215 -64 166 1523 0
424 -160 453 1524 0
-315 82 -191 1525 0
-129 116 268 1526 0
70 -455 -180 1527 0
-451 218 487 1528 0
-116 58 145 1529 0
-391 133 -478 1530 0
479 390 -76 1531 0
207 100 -48 1532 0
-238 -218 -216 1533 0
-268 483 -205 1534 0
-294 -184 -394 1535 0
29 -340 12 1536 0
174 273 22 1537 0
-233 377 497 1538 0
77 -414 -361 1539 0
14 414 335 1540 0
79 136 435 1541 0
194 182 210 1542 0
-57 229 -482 1543 0
351 37 53 1544 0
435 141 415 1545 0
-268 -494 447 1546 0
-41 24 -134 1547 0
-88 -137 -175 1548 0
101 271 -435 1549 0
232 -231 120 1550 0
-57 56 23 1551 0
-293 -307 92 1552 0
-432 301 -7 1553 0
-169 376 75 1554 0
488 284 -443 1555 0
-464 433 75 1556 0
471 -309 435 1557 0
-51 339 299 1558 0
463 -284 47 1559 0
-318 -177 112 1560 0
369 -80 -8 1561 0
-381 -427 69 1562 0
-496 -381 436 1563 0
-483 75 341 1564 0
-236 292 409 1565 0
-218 -483 -104 1566 0
-479 -149 -412 1567 0
-335 289 -208 1568 0
276 377 -342 1569 0
246 48 4 1570 0
274 192 -137 1571 0
-380 -415 -260 1572 0
-210 447 -176 1573 0
252 110 483 1574 0
467 477 -432 1575 0
250 407 223 1576 0
-419 -358 -342 1577 0
-201 316 59 1578 0
-450 -149 -143 1579 0
65 242 -130 1580 0
-187 282 -348 1581 0
-407 70 -33 1582 0
-386 -163 321 1583 0
-418 -419 -14 1584 0
286 406 -394 1585 0
-149 -197 -42 1586 0
-9 372 -500 1587 0
318 9 -5 1588 0
-90 -353 221 1589 0
330 -356 109 1590 0
311 -62 105 1591 0
392 -131 178 1592 0
-226 -149 -376 1593 0
336 421 -371 1594 0
59 -191 -143 1595 0
-107 -240 -132 1596 0
-457 206 -402 1597 0
-119 448 149 1598 0
127 -5 22 1599 0
-476 174 327 1600 0
-250 481 -16 1601 0
79 90 -439 1602 0
207 106 293 1603 0
-36 -379 -263 1604 0
-178 -497 377 1605 0
-92 -387 238 1606 0
-464 -193 333 1607 0
-351 -341 -277 1608 0
304 280 176 1609 0
34 198 415 1610 0
102 207 -232 1611 0
274 300 468 1612 0
147 39 267 1613 0
219 -98 -245 1614 0
80 300 -377 1615 0
144 -477 -81 1616 0
191 351 414 1617 0
-320 -347 -335 1618 0
-454 25 -2 1619 0
-333 -100 -58 1620 0
185 -482 464 1621 0
193 280 -53 1622 0
-18 484 -459 1623 0
32 116 306 1624 0
435 -269 137 1625 0
-185 -433 418 1626 0
-195 349 396 1627 0
-401 281 140 1628 0
-210 153 303 1629 0
120 -353 488 1630 0
214 -170 409 1631 0
-32 310 -383 1632 0
-28 -159 63 1633 0
493 337 461 1634 0
-224 -449 -361 1635 0
-410 -200 -418 1636 0
405 -190 211 1637 0
287 -84 -493 1638 0
305 60 -318 1639 0
-24 -452 -454 1640 0
-208 200 178 1641 0
170 486 80 1642 0
474 -277 -103 1643 0
52 108 392 1644 0
242 278 -385 1645 0
-474 -361 249 1646 0
-341 327 -213 1647 0
139 479 -333 1648 0
-52 305 -178 1649 0
-464 -8 443 1650 0
192 -213 395 1651 0
-126 -21 451 1652 0
180 188 139 1653 0
-81 52 -268 1654 0
203 -252 246 1655 0
-385 490 384 1656 0
210 -178 -122 1657 0
-207 261 -163 1658 0
-149 449 389 1659 0
-335 -206 27 1660 0
-205 -173 -68 1661 0
-8 464 -424 1662 0
461 -348 -385 1663 0
-397 215 396 1664 0
-53 -28 38 1665 0
-384 -68 46 1666 0
-297 104 185 1667 0
480 481 -199 1668 0
151 426 25 1669 0
421 -337 114 1670 0
426 342 134 1671 0
-82 414 -78 1672 0
387 -320 -426 1673 0
-328 -401 -59 1674 0
429 136 276 1675 0
64 234 -123 1676 0
480 -11 277 1677 0
197 -150 6 1678 0
264 470 11 1679 0
408 187 -66 1680 0
260 124 98 1681 0
244 -406 118 1682 0
117 444 40 1683 0
-451 -154 -44 1684 0
-257 489 55 1685 0
-416 180 -221 1686 0
-17 -236 347 1687 0
277 -358 244 1688 0
148 311 -185 1689 0
-364 -468 -47 1690 0
-382 3 345 1691 0
-293 -98 238 1692 0
458 -222 -22 1693 0
50 299 -89 1694 0
96 357 289 1695 0
235 -466 -450 1696 0
134 434 -227 1697 0
-34 -360 -135 1698 0
-318 -230 -319 1699 0
411 -371 489 1700 0
-243 138 206 1701 0
364 363 -333 1702 0
-485 133 -56 1703 0
183 171 241 1704 0
112 284 148 1705 0
-498 86 370 1706 0
80 -425 -427 1707 0
-401 -121 358 1708 0
-330 -182 -274 1709 0
104 -385 -91 1710 0
284 -148 129 1711 0
-339 -445 278 1712 0
160 -58 -16 1713 0
421 317 -221 1714 0
-25 167 -424 1715 0
-341 131 315 1716 0
-117 -108 -267 1717 0
-62 301 269 1718 0
-244 -473 74 1719 0
208 68 -407 1720 0
-489 343 316 1721 0
480 -370 -105 1722 0
-419 -399 478 1723 0
282 -325 -445 1724 0
93 447 -5 1725 0
235 301 448 1726 0
393 -289 97 1727 0
196 35 378 1728 0
413 -164 386 1729 0
113 -86 223 1730 0
367 -431 67 1731 0
-420 -481 390 1732 0
-3 131 389 1733 0
85 153 298 1734 0
493 111 16 1735 0
-470 -126 466 1736 0
249 -492 -449 1737 0
61 44 -402 1738 0
-422 110 -216 1739 0
-464 412 -136 1740 0
-305 -495 365 1741 0
-109 297 465 1742 0
437 -492 -290 1743 0
-416 -207 129 1744 0
455 195 -398 1745 0
144 -340 -71 1746 0
-351 -199 -220 1747 0
-242 -280 184 1748 0
-167 473 294 1749 0
-57 -431 -421 1750 0
-120 -377 -470 1751 0
-440 -150 -186 1752 0
72 5 -305 1753 0
-25 -75 387 1754 0
44 93 -436 1755 0
-250 263 -201 1756 0
46 -228 326 1757 0
-335 88 -372 1758 0
41 4 478 1759 0
-442 -89 471 1760 0
451 -43 -472 1761 0
101 416 -434 1762 0
-453 106 -430 1763 0
255 -438 -169 1764 0
-394 204 -37 1765 0
379 304 -307 1766 0
281 -54 -423 1767 0
-195 332 468 1768 0
225 -105 372 1769 0
-227 -456 -116 1770 0
-433 360 204 1771 0
-312 145 451 1772 0
363 167 221 1773 0
372 -218 231 1774 0
489 164 256 1775 0
-16 313 179 1776 0
361 -131 -120 1777 0
-3 54 368 1778 0
52 -10 -42 1779 0
-221 -356 457 1780 0
442 -204 76 1781 0
421 90 172 1782 0
277 -41 -463 1783 0
440 -376 -199 1784 0
-109 371 -11 1785 0
-380 5 -400 1786 0
-278 -258 80 1787 0
312 -323 96 1788 0
271 -54 -201 1789 0
-302 -373 -350 1790 0
96 398 321 1791 0
219 -284 177 1792 0
7 -229 -234 1793 0
233 479 1 1794 0
-69 429 136 1795 0
-42 237 -322 1796 0
-25 -40 27 1797 0
-358 451 -463 1798 0
87 -229 -465 1799 0
348 -446 54 1800 0
-162 122 179 1801 0
-174 72 -355 1802 0
-275 -137 500 1803 0
341 345 340 1804 0
137 -357 -284 1805 0
-471 -48 -174 1806 0
-423 1 35 1807 0
339 -92 162 1808 0
-499 33 122 1809 0
-254 195 299 1810 0
-489 194 94 1811 0
-262 -391 -275 1812 0
243 -225 -95 1813 0
263 34 -132 1814 0
-28 -62 -491 1815 0
-277 -106 263 1816 0
-168 205 216 1817 0
269 -324 36 1818 0
-253 -200 163 1819 0
331 -296 189 1820 0
-442 -348 457 1821 0
131 -479 151 1822 0
11 64 -414 1823 0
273 422 333 1824 0
-48 -224 -498 1825 0
472 -409 -120 1826 0
28 -423 -116 1827 0
240 244 -70 1828 0
78 -443 -464 1829 0
434 -194 199 1830 0
390 180 48 1831 0
115 453 403 1832 0
469 -274 161 1833 0
458 -86 -15 1834 0
-205 -110 77 1835 0
27 -402 -119 1836 0
-300 260 -347 1837 0
-253 469 -479 1838 0
-146 455 56 1839 0
-231 20 -311 1840 0
-260 -57 -429 1841 0
225 -299 333 1842 0
183 96 -454 1843 0
-8 386 -180 1844 0
-161 -433 438 1845 0
468 -246 -347 1846 0
-481 15 -197 1847 0
470 366 -394 1848 0
36 18 382 1849 0
-259 -407 -128 1850 0
368 323 -113 1851 0
267 89 -350 1852 0
218 -89 -136 1853 0
-303 -355 -171 1854 0
493 -284 -433 1855 0
-350 -321 -38 1856 0
-13 -5 179 1857 0
218 -341 328 1858 0
193 -152 -318 1859 0
205 281 484 1860 0
-418 21 321 1861 0
-328 -135 -300 1862 0
468 110 56 1863 0
47 -403 -471 1864 0
413 -492 -453 1865 0
-479 -390 288 1866 0
-152 -221 297 1867 0
377 -439 438 1868 0
254 -126 58 1869 0
-167 74 -432 1870 0
-178 77 365 1871 0
13 -421 -409 1872 0
336 -467 -281 1873 0
-246 -42 -248 1874 0
75 73 -173 1875 0
-459 -483 -57 1876 0
408 -424 -283 1877 0
-104 362 200 1878 0
-126 -375 326 1879 0
-286 304 -112 1880 0
-159 373 243 1881 0
394 -352 -439 1882 0
-229 -317 445 1883 0
-457 -163 -217 1884 0
475 -92 432 1885 0
447 -44 136 1886 0
-130 486 -155 1887 0
198 -295 -218 1888 0
29 -331 -148 1889 0
-268 -20 -179 1890 0
348 341 194 1891 0
221 446 447 1892 0
87 380 93 1893 0
285 -32 -293 1894 0
-273 221 -347 1895 0
-339 132 -370 1896 0
215 -131 196 1897 0
227 -29 54 1898 0
215 473 -301 1899 0
-305 -489 277 1900 0
359 305 354 1901 0
-146 -241 -466 1902 0
-202 -45 217 1903 0
-253 85 -250 1904 0
-223 -84 322 1905 0
-230 -448 494 1906 0
-202 277 394 1907 0
-31 -476 -260 1908 0
86 -58 -267 1909 0
-218 -483 84 1910 0
257 399 -487 1911 0
66 -53 -62 1912 0
-474 238 -370 1913 0
-346 154 487 1914 0
-399 221 -140 1915 0
-82 -13 -385 1916 0
-12 107 231 1917 0
374 212 -148 1918 0
-391 481 -298 1919 0
226 -300 419 1920 0
152 137 -459 1921 0
-124 -246 -256 1922 0
-335 -310 66 1923 0
-450 -255 422 1924 0
-163 -95 292 1925 0
21 91 -382 1926 0
254 -413 -258 1927 0
72 -240 -38 1928 0
-215 -300 -314 1929 0
-69 -497 317 1930 0
-125 351 -256 1931 0
-263 385 -217 1932 0
-79 -137 287 1933 0
74 412 473 1934 0
400 260 -343 1935 0
59 426 -167 1936 0
-273 -92 169 1937 0
226 -421 64 1938 0
160 406 24 1939 0
-41 -259 418 1940 0
-34 183 -170 1941 0
310 -276 -397 1942 0
93 346 369 1943 0
-185 -407 -369 1944 0
-248 187 -212 1945 0
29 -145 468 1946 0
-2 154 313 1947 0
-39 222 303 1948 0
-108 353 263 1949 0
-268 109 487 1950 0
341 -169 -250 1951 0
-306 -457 -277 1952 0
-478 187 -362 1953 0
24 432 396 1954 0
-1 -25 -82 1955 0
29 -230 -234 1956 0
265 -10 485 1957 0
-250 -189 -244 1958 0
458 34 -132 1959 0
-86 -487 2 1960 0
-345 172 360 1961 0
298 -75 -2 1962 0
-299 -96 180 1963 0
-204 335 -141 1964 0
477 84 75 1965 0
8 -110 254 1966 0
-65 452 -151 1967 0
-62 -269 -61 1968 0
100 117 -199 1969 0
-378 -366 -475 1970 0
1 485 221 1971 0
102 82 379 1972 0
234 -41 -162 1973 0
355 211 78 1974 0
357 -260 -457 1975 0
399 343 86 1976 0
-395 33 56 1977 0
-313 359 283 1978 0
-71 -80 108 1979 0
-11 330 -177 1980 0
187 157 354 1981 0
115 -53 323 1982 0
-459 70 326 1983 0
469 -286 433 1984 0
455 -368 121 1985 0
-173 -134 365 1986 0
362 381 -227 1987 0
-52 -47 -314 1988 0
166 -196 -381 1989 0
-325 311 -84 1990 0
326 -359 254 1991 0
-400 154 76 1992 0
-47 -118 -99 1993 0
65 236 472 1994 0
424 240 342 1995 0
-390 317 59 1996 0
44 82 -74 1997 0
-455 92 91 1998 0
-463 -196 454 1999 0
-407 -384 -57 2000 0
470 29 129 2001 0
183 -330 -363 2002 0
422 61 73 2003 0
-409 -105 -386 2004 0
-470 -243 138 2005 0
416 81 -241 2006 0
128 187 -452 2007 0
477 61 34 2008 0
-344 -349 -230 2009 0
-121 -236 -243 2010 0
220 52 344 2011 0
-227 -419 -105 2012 0
-214 -166 340 2013 0
483 350 -403 2014 0
348 -340 180 2015 0
141 -375 135 2016 0
307 212 -12 2017 0
95 -222 -164 2018 0
228 -440 -215 2019 0
454 -307 -488 2020 0
-326 229 495 2021 0
-382 -309 414 2022 0
-39 -497 -453 2023 0
485 -410 -309 2024 0
142 147 -169 2025 0
177 -70 390 2026 0
-156 -79 -10 2027 0
213 -182 -276 2028 0
-483 -315 -81 2029 0
-253 344 -218 2030 0
-386 454 -272 2031 0
353 30 -82 2032 0
60 -279 -180 2033 0
-244 -79 137 2034 0
170 -190 -409 2035 0
139 -494 148 2036 0
273 -452 -43 2037 0
36 -457 -107 2038 0
492 -46 -218 2039 0
425 53 398 2040 0
183 366 -13 2041 0
-401 452 371 2042 0
-105 343 464 2043 0
-295 -468 -168 2044 0
-307 442 -132 2045 0
319 175 -107 2046 0
-264 -88 317 2047 0
-407 -403 352 2048 0
386 -334 220 2049 0
-53 110 -145 2050 0
-86 -490 413 2051 0
370 433 -151 2052 0
-499 312 -392 2053 0
-196 -80 187 2054 0
307 -281 -449 2055 0
296 -455 226 2056 0
-384 427 346 2057 0
-486 -411 -384 2058 0
-231 44 382 2059 0
257 -12 269 2060 0
499 260 295 2061 0
-330 91 402 2062 0
-248 360 425 2063 0
-215 -178 -427 2064 0
-433 160 47 2065 0
159 -356 75 2066 0
-232 -78 197 2067 0
-373 127 -190 2068 0
279 19 -485 2069 0
361 58 -197 2070 0
342 446 386 2071 0
-8 -303 -147 2072 0
-234 -325 476 2073 0
229 397 -293 2074 0
-311 -31 -263 2075 0
-161 -49 179 2076 0
178 390 180 2077 0
438 -8 -122 2078 0
31 255 -405 2079 0
-86 -391 451 2080 0
307 -405 169 2081 0
21 57 -247 2082 0
146 -153 -471 2083 0
237 208 -250 2084 0
225 50 -263 2085 0
-174 -247 239 2086 0
-294 343 -154 2087 0
-10 -318 -16 2088 0
324 -307 151 2089 0
42 -151 -367 2090 0
-327 -176 491 2091 0
-365 1 -92 2092 0
237 159 -150 2093 0
-313 -61 174 2094 0
-191 -298 213 2095 0
-190 -224 -100 2096 0
263 -365 -331 2097 0
264 -1 -482 2098 0
441 -233 -273 2099 0
-167 400 -363 2100 0
122 -428 120 2101 0
468 -440 135 2102 0
129 -414 400 2103 0
-89 16 -288 2104 0
261 394 453 2105 0
-326 327 397 2106 0
-163 -385 -477 2107 0
406 230 202 2108 0
427 -127 262 2109 0
396 161 226 2110 0
-444 -275 -45 2111 0
193 465 -65 2112 0
74 -172 -429 2113 0
448 462 -366 2114 0
-460 -5 181 2115 0
496 -321 -180 2116 0
-249 -176 -397 2117 0
57 -269 410 2118 0
213 449 -199 2119 0
374 271 -478 2120 0
51 459 162 2121 0
-347 -344 -273 2122 0
-332 253 -31 2123 0
-399 -452 -137 2124 0
-270 -184 427 2125 0
-484 -155 -24 2126 0
-425 357 71 2127 0
-348 -332 -438 2128 0
-365 -100 110 2129 0
316 -148 -221 2130 0
-488 443 70 2131 0
-237 325 -215 2132 0
-314 379 -56 2133 0
379 -364 469 2134 0
279 378 -65 2135 0
8 102 423 2136 0
-113 -62 -485 2137 0
-58 2 -184 2138 0
-478 -251 443 2139 0
127 -290 -47 2140 0
344 348 -45 2141 0
-85 -186 -397 2142 0
-125 -276 -107 2143 0
-94 65 429 2144 0
321 358 -363 2145 0
476 88 310 2146 0
304 42 -295 2147 0
-421 260 -181 2148 0
277 82 -273 2149 0
-234 -447 -312 2150 0
132 -409 198 2151 0
-118 324 48 2152 0
-3 395 228 2153 0
316 -493 -377 2154 0
-28 36 350 2155 0
495 31 130 2156 0
-385 -220 235 2157 0
-140 -71 51 2158 0
-19 67 -488 2159 0
-80 -52 324 2160 0
139 374 478 2161 0
494 19 20 2162 0
405 324 367 2163 0
-328 463 409 2164 0
431 39 -330 2165 0
-436 86 -366 2166 0
445 115 -478 2167 0
-490 -22 -197 2168 0
-309 342 -98 2169 0
-462 31 -271 2170 0
471 -188 -336 2171 0
398 -321 94 2172 0
50 275 -278 2173 0
-362 -208 -462 2174 0
446 -137 286 2175 0
296 139 430 2176 0
-75 456 -351 2177 0
77 200 3 2178 0
-431 348 256 2179 0
-35 -288 -455 2180 0
-82 365 403 2181 0
321 -84 29 2182 0
-335 -260 476 2183 0
-459 -296 23 2184 0
60 166 245 2185 0
-273 -17 218 2186 0
-479 -148 167 2187 0
280 379 82 2188 0
-143 463 -36 2189 0
-438 -238 -103 2190 0
87 167 -437 2191 0
421 -496 -348 2192 0
383 380 -500 2193 0
30 -262 377 2194 0
276 -336 329 2195 0
-480 -489 -224 2196 0
181 78 274 2197 0
184 -289 -338 2198 0
26 -303 -193 2199 0
287 -391 -51 2200 0
-480 -374 -51 2201 0
109 -474 -388 2202 0
-385 264 350 2203 0
-201 270 368 2204 0
231 160 -200 2205 0
348 371 217 2206 0
444 -165 -478 2207 0
354 250 228 2208 0
493 484 99 2209 0
311 500 -74 2210 0
409 185 -426 2211 0
66 350 328 2212 0
-232 -347 457 2213 0
-283 -279 -231 2214 0
67 279 -142 2215 0
-334 481 -130 2216 0
-323 111 275 2217 0
422 -157 374 2218 0
-39 -95 371 2219 0
-418 -85 -82 2220 0
357 -245 -95 2221 0
-320 -362 40 2222 0
183 358 365 2223 0
183 238 -216 2224 0
441 -413 284 2225 0
437 -258 338 2226 0
-376 -227 -196 2227 0
176 468 -376 2228 0
148 -449 460 2229 0
-11 -413 67 2230 0
332 -191 -336 2231 0
338 204 198 2232 0
459 -470 14 2233 0
38 -112 248 2234 0
-315 -97 272 2235 0
-329 -249 473 2236 0
-274 328 183 2237 0
-439 128 -42 2238 0
-456 380 -341 2239 0
-412 297 -313 2240 0
-249 -5 415 2241 0
-68 203 173 2242 0
136 450 -146 2243 0
21 -431 153 2244 0
-67 -477 468 2245 0
134 137 253 2246 0
-338 -24 455 2247 0
-427 413 467 2248 0
328 80 -470 2249 0
64 11 -233 2250 0
-460 96 430 2251 0
147 159 21 2252 0
-477 264 200 2253 0
-201 468 220 2254 0
-325 372 -93 2255 0
362 -103 496 2256 0
-480 -191 7 2257 0
202 -36 -416 2258 0
-455 445 -226 2259 0
-17 -110 139 2260 0
-257 -230 379 2261 0
-144 363 -459 2262 0
-326 446 -344 2263 0
-75 -285 99 2264 0
-289 179 104 2265 0
-13 -497 -71 2266 0
232 81 -392 2267 0
-243 -487 180 2268 0
-270 476 316 2269 0
-351 -321 -84 2270 0
437 -155 -264 2271 0
65 301 -434 2272 0
-5 331 364 2273 0
488 104 -82 2274 0
461 -189 -419 2275 0
282 193 291 2276 0
-271 -394 130 2277 0
-23 421 -16 2278 0
-19 488 -378 2279 0
44 316 -112 2280 0
70 -202 -308 2281 0
431 359 433 2282 0
-189 -211 -124 2283 0
31 -166 -307 2284 0
-226 -15 -103 2285 0
329 -319 222 2286 0
-399 -435 418 2287 0
368 27 280 2288 0
211 19 -485 2289 0
-56 -215 -391 2290 0
346 -260 -274 2291 0
-479 81 -36 2292 0
136 75 53 2293 0
143 62 -345 2294 0
406 436 -12 2295 0
280 437 -388 2296 0
-323 43 -24 2297 0
-46 -266 394 2298 0
-334 -359 -307 2299 0
-443 -196 -120 2300 0
386 312 198 2301 0
-258 -263 -252 2302 0
-276 93 253 2303 0
-195 -394 -110 2304 0
-49 100 -145 2305 0
456 315 -13 2306 0
-452 440 107 2307 0
-359 71 110 2308 0
139 260 -367 2309 0
-474 -139 -55 2310 0
140 325 21 2311 0
175 -407 -353 2312 0
-12 73 -75 2313 0
15 -139 112 2314 0
143 -237 484 2315 0
34 -415 368 2316 0
190 -433 -346 2317 0
-322 -51 128 2318 0
-481 387 285 2319 0
-455 -88 4 2320 0
-246 -375 -85 2321 0
-219 77 -423 2322 0
-76 -309 28 2323 0
-79 -493 63 2324 0
171 255 487 2325 0
-395 308 -162 2326 0
-248 11 -344 2327 0
-442 -105 420 2328 0
100 154 229 2329 0
-473 -300 238 2330 0
399 -268 -352 2331 0
448 -359 -460 2332 0
-304 -256 -311 2333 0
-417 200 50 2334 0
184 455 161 2335 0
64 423 295 2336 0
-488 -297 -138 2337 0
421 294 -438 2338 0
222 130 164 2339 0
-159 69 -147 2340 0
5 475 -93 2341 0
-245 248 333 2342 0
164 393 -319 2343 0
-442 333 170 2344 0
-338 325 366 2345 0
-387 245 -258 2346 0
-84 -283 178 2347 0
-123 -100 139 2348 0
-195 253 414 2349 0
351 239 -248 2350 0
412 -304 346 2351 0
277 -116 7 2352 0
-220 275 -175 2353 0
414 240 -269 2354 0
383 58 121 2355 0
341 -225 411 2356 0
198 -319 397 2357 0
-360 -129 119 2358 0
486 -397 -19 2359 0
59 200 120 2360 0
31 487 201 2361 0
-119 167 -35 2362 0
-178 181 289 2363 0
-268 -463 -188 2364 0
455 451 -317 2365 0
-461 -262 -330 2366 0
-440 -81 -18 2367 0
-185 50 -218 2368 0
257 305 -423 2369 0
279 191 157 2370 0
101 -377 175 2371 0
163 -288 181 2372 0
-265 -359 -157 2373 0
-206 328 -300 2374 0
281 -151 174 2375 0
299 482 -471 2376 0
463 364 419 2377 0
-286 488 -423 2378 0
-448 423 397 2379 0
-178 341 -116 2380 0
447 -308 -226 2381 0
-62 -127 -315 2382 0
219 83 307 2383 0
-324 13 399 2384 0
-434 264 -460 2385 0
192 115 -108 2386 0
205 -445 185 2387 0
-250 -199 -477 2388 0
-340 -32 428 2389 0
-311 -354 -340 2390 0
193 3 371 2391 0
2 268 -477 2392 0
-107 363 416 2393 0
428 -90 -443 2394 0
-346 -446 -490 2395 0
135 194 -71 2396 0
-232 54 -499 2397 0
359 149 112 2398 0
-100 81 426 2399 0
90 -378 -413 2400 0
31 373 -326 2401 0
-101 -394 -52 2402 0
114 -292 -345 2403 0
-193 -434 3 2404 0
304 -380 -204 2405 0
-489 50 -106 2406 0
-481 -243 -500 2407 0
-43 -476 404 2408 0
-73 129 253 2409 0
78 114 -185 2410 0
-372 -7 -69 2411 0
-40 -102 -46 2412 0
-268 -24 408 2413 0
292 -410 342 2414 0
-42 -448 207 2415 0
402 -409 317 2416 0
157 245 280 2417 0
34 -38 -192 2418 0
-211 359 256 2419 0
-436 19 36 2420 0
-332 -420 448 2421 0
499 24 490 2422 0
-61 385 -399 2423 0
-478 -458 337 2424 0
-108 404 122 2425 0
-271 426 448 2426 0
-202 -401 -183 2427 0
-473 -466 -324 2428 0
-237 -15 366 2429 0
349 -266 362 2430 0
287 431 -455 2431 0
-488 79 -131 2432 0
43 477 313 2433 0
87 -345 14 2434 0
-8 309 103 2435 0
-161 463 -419 2436 0
-292 453 -129 2437 0
-452 110 194 2438 0
-285 -449 236 2439 0
-317 414 -198 2440 0
-115 -23 176 2441 0
275 -66 103 2442 0
-349 205 193 2443 0
-130 10 -160 2444 0
378 184 181 2445 0
294 -109 269 2446 0
429 363 435 2447 0
-124 -1 42 2448 0
434 400 -160 2449 0
-254 -330 320 2450 0
-230 287 479 2451 0
-318 493 474 2452 0
67 280 -162 2453 0
-429 -104 -264 2454 0
158 -101 -58 2455 0
126 -465 -200 2456 0
18 171 390 2457 0
-60 134 -293 2458 0
-114 429 -260 2459 0
291 -104 216 2460 0
313 315 440 2461 0
-59 440 231 2462 0
406 -485 257 2463 0
-407 255 72 2464 0
65 39 278 2465 0
416 -320 -348 2466 0
-317 -421 -262 2467 0
-236 231 -255 2468 0
-14 -171 197 2469 0
436 387 -299 2470 0
-166 325 -149 2471 0
-356 110 -388 2472 0
50 -246 -68 2473 0
-336 212 -114 2474 0
313 -393 -49 2475 0
270 262 -405 2476 0
-272 246 -271 2477 0
74 249 -350 2478 0
-93 410 -202 2479 0
285 -331 148 2480 0
484 -326 -226 2481 0
-314 -294 -481 2482 0
167 31 -400 2483 0
-388 111 160 2484 0
-300 -147 -187 2485 0
159 32 446 2486 0
-492 -86 -376 2487 0
35 168 -118 2488 0
478 88 200 2489 0
228 154 -220 2490 0
206 286 -358 2491 0
329 21 119 2492 0
402 415 -336 2493 0
-232 499 -196 2494 0
-258 -207 -290 2495 0
419 185 -213 2496 0
28 -326 15 2497 0
271 -125 426 2498 0
-472 -260 -295 2499 0
-233 436 72 2500 0
315 473 -414 2501 0
132 -306 244 2502 0
146 128 -33 2503 0
348 444 33 2504 0
-61 -458 102 2505 0
440 -155 -409 2506 0
458 -148 -331 2507 0
303 158 247 2508 0
56 250 275 2509 0
-306 166 -482 2510 0
368 8 61 2511 0
238 -210 412 2512 0
475 -157 360 2513 0
269 -396 375 2514 0
-246 380 181 2515 0
-230 -21 251 2516 0
-296 -228 344 2517 0
166 431 -396 2518 0
-491 -40 106 2519 0
-448 449 -80 2520 0
-202 471 -39 2521 0
161 -379 204 2522 0
-243 -68 -342 2523 0
491 50 201 2524 0
-247 -168 100 2525 0
-256 148 -461 2526 0
-272 65 -387 2527 0
-162 -8 346 2528 0
232 -379 -282 2529 0
-205 90 288 2530 0
499 402 244 2531 0
496 360 130 2532 0
136 111 -301 2533 0
-246 -311 -159 2534 0
-341 -91 64 2535 0
-463 353 164 2536 0
479 -299 378 2537 0
227 -72 -184 2538 0
454 -292 -33 2539 0
-351 -125 -281 2540 0
-71 -120 -228 2541 0
-46 -269 172 2542 0
-60 267 -25 2543 0
-241 -258 148 2544 0
357 -486 5 2545 0
-248 -323 495 2546 0
480 -148 -473 2547 0
350 -85 -361 2548 0
271 -288 266 2549 0
-150 422 332 2550 0
-178 -98 34 2551 0
475 324 -353 2552 0
-365 -418 -289 2553 0
-135 -280 -41 2554 0
3 459 -388 2555 0
251 -265 474 2556 0
385 -201 -310 2557 0
88 -133 288 2558 0
-385 83 306 2559 0
-319 -313 -108 2560 0
249 -458 -498 2561 0
24 -150 -226 2562 0
-96 -417 169 2563 0
-30 346 100 2564 0
-42 9 -22 2565 0
-166 -499 -209 2566 0
227 -15 325 2567 0
-416 -72 395 2568 0
-456 -155 -482 2569 0
-308 -460 221 2570 0
-135 276 -246 2571 0
150 136 440 2572 0
270 -335 -426 2573 0
-275 -402 -95 2574 0
-458 444 -498 2575 0
397 -111 -422 2576 0
-157 297 150 2577 0
-273 -43 -316 2578 0
21 -382 200 2579 0
-500 127 430 2580 0
-355 -257 294 2581 0
266 -388 -474 2582 0
-80 -43 -139 2583 0
-455 -207 -84 2584 0
-301 -498 217 2585 0
382 -324 -395 2586 0
283 68 212 2587 0
328 -358 30 2588 0
269 -431 -391 2589 0
74 -51 421 2590 0
-330 306 -485 2591 0
-421 59 338 2592 0
417 212 422 2593 0
132 -125 216 2594 0
-4 298 -439 2595 0
447 -315 76 2596 0
-71 -85 239 2597 0
-375 500 -493 2598 0
438 -342 358 2599 0
-230 411 -252 2600 0
193 -244 382 2601 0
309 74 99 2602 0
400 182 -124 2603 0
383 280 -167 2604 0
229 251 -224 2605 0
-125 -30 -251 2606 0
-46 -5 289 2607 0
-422 326 -331 2608 0
9 -219 386 2609 0
-422 -365 -376 2610 0
420 157 255 2611 0
-340 -315 -490 2612 0
-250 -428 -492 2613 0
128 -427 445 2614 0
436 122 -86 2615 0
64 -468 113 2616 0
119 -173 386 2617 0
-62 -477 -209 2618 0
-329 -332 -233 2619 0
-205 -316 -266 2620 0
-30 55 426 2621 0
-250 193 -134 2622 0
-56 174 256 2623 0
-119 -453 -10 2624 0
-62 123 -367 2625 0
-369 -80 347 2626 0
230 266 -328 2627 0
481 -275 93 2628 0
-286 -6 -303 2629 0
-78 -155 162 2630 0
156 62 231 2631 0
-122 183 -79 2632 0
39 -184 -246 2633 0
-342 477 -64 2634 0
6 111 -160 2635 0
-199 310 -108 2636 0
189 -9 204 2637 0
369 494 61 2638 0
-309 -200 382 2639 0
222 93 205 2640 0
147 250 35 2641 0
282 196 48 2642 0
-474 76 344 2643 0
-446 371 469 2644 0
119 2 383 2645 0
307 -131 115 2646 0
-240 -276 190 2647 0
-277 -155 -119 2648 0
242 -426 190 2649 0
427 -375 -499 2650 0
