p cnf 2650 2150
-344 176 32 501 0
435 17 113 502 0
267 -98 84 503 0
430 9 256 504 0
294 -361 491 505 0
-199 -204 471 506 0
-150 320 321 507 0
165 260 274 508 0
202 -233 -327 509 0
113 -104 70 510 0
274 -102 150 511 0
-312 -218 -9 512 0
426 -315 396 513 0
-433 -304 -224 514 0
-303 242 465 515 0
486 60 174 516 0
-404 -432 -478 517 0
224 412 66 518 0
-257 107 -161 519 0
-437 384 -477 520 0
193 -79 483 521 0
251 -285 303 522 0
-149 273 -175 523 0
429 -358 292 524 0
-47 -367 231 525 0
-203 279 273 526 0
367 326 -343 527 0
66 -120 -7 528 0
431 39 177 529 0
129 -18 479 530 0
-244 -80 -492 531 0
-423 369 304 532 0
359 78 437 533 0
-395 -49 277 534 0
-188 386 -94 535 0
-321 -20 74 536 0
-117 98 463 537 0
385 228 140 538 0
-276 -112 145 539 0
452 -336 -74 540 0
-40 -443 -329 541 0
-282 7 -44 542 0
-311 -173 -108 543 0
236 231 145 544 0
-237 -495 435 545 0
-182 365 260 546 0
-460 355 -403 547 0
-465 -126 429 548 0
375 67 421 549 0
449 -60 -398 550 0
-231 -221 157 551 0
336 308 -243 552 0
-21 -470 -498 553 0
89 -91 322 554 0
198 -14 -382 555 0
229 -274 75 556 0
-286 18 361 557 0
61 -18 373 558 0
22 451 -168 559 0
266 -18 -406 560 0
-81 358 291 561 0
365 -318 -9 562 0
296 189 204 563 0
-183 -178 366 564 0
52 -195 116 565 0
-469 -73 182 566 0
-23 -247 -373 567 0
428 -132 476 568 0
-214 -55 -112 569 0
171 -213 -258 570 0
-294 -355 -371 571 0
473 62 -208 572 0
-351 440 202 573 0
-379 -237 96 574 0
-21 -220 11 575 0
97 -412 -473 576 0
15 185 -164 577 0
68 146 139 578 0
-468 407 382 579 0
299 -389 390 580 0
365 334 -366 581 0
109 -213 250 582 0
-351 17 477 583 0
-440 326 -316 584 0
-66 -279 270 585 0
-101 -211 -42 586 0
206 78 -128 587 0
463 471 -489 588 0
-245 244 -10 589 0
78 401 437 590 0
322 -237 221 591 0
-155 -324 422 592 0
104 332 -251 593 0
92 -332 9 594 0
342 -368 -360 595 0
-376 386 -43 596 0
109 -416 418 597 0
-212 -230 -323 598 0
-255 343 -425 599 0
31 447 123 600 0
53 306 -70 601 0
-441 183 101 602 0
25 297 -495 603 0
32 -364 47 604 0
-55 349 48 605 0
-333 -137 464 606 0
-301 -53 -220 607 0
369 33 -113 608 0
-249 -230 -66 609 0
-223 -477 -308 610 0
-54 -472 364 611 0
359 -403 -299 612 0
57 -382 489 613 0
-456 -67 284 614 0
-103 179 368 615 0
308 475 311 616 0
-297 129 292 617 0
190 -450 455 618 0
231 300 -498 619 0
-406 -353 -379 620 0
-291 -176 280 621 0
-189 -123 -314 622 0
24 269 354 623 0
114 424 55 624 0
-14 -4 -420 625 0
-247 -31 40 626 0
372 -332 -204 627 0
-237 393 115 628 0
335 352 -42 629 0
212 -435 137 630 0
496 219 -436 631 0
-432 96 -424 632 0
-97 -45 390 633 0
68 420 -42 634 0
-4 318 -335 635 0
45 316 38 636 0
172 22 324 637 0
210 -165 396 638 0
135 -218 -99 639 0
479 76 -278 640 0
-361 390 349 641 0
294 461 351 642 0
328 234 -239 643 0
423 -427 -114 644 0
71 -3 246 645 0
13 -494 -268 646 0
-326 -427 -325 647 0
-482 -62 105 648 0
-117 -415 432 649 0
356 -194 -67 650 0
191 81 -387 651 0
215 255 -447 652 0
-271 34 98 653 0
-118 -58 -407 654 0
123 -459 251 655 0
-191 -85 -346 656 0
-218 363 -490 657 0
-265 -75 164 658 0
-345 361 376 659 0
-182 -223 -76 660 0
-466 487 315 661 0
-245 -267 -174 662 0
79 -37 -150 663 0
-260 -403 -241 664 0
-40 42 434 665 0
285 -266 -488 666 0
-433 -45 346 667 0
73 -446 -37 668 0
194 21 -210 669 0
282 -446 263 670 0
449 308 -175 671 0
326 125 -279 672 0
-197 -22 98 673 0
-39 -297 33 674 0
-218 133 432 675 0
469 -27 -94 676 0
-467 -152 47 677 0
440 495 413 678 0
-112 414 412 679 0
-196 -249 126 680 0
328 -185 97 681 0
-253 -338 -53 682 0
224 130 443 683 0
83 270 -179 684 0
-466 241 -171 685 0
-73 -358 -59 686 0
-473 137 387 687 0
175 -241 -425 688 0
-269 243 168 689 0
-425 466 47 690 0
-28 292 448 691 0
-406 -83 115 692 0
387 453 -111 693 0
-289 124 -98 694 0
-176 346 -436 695 0
-53 -142 -210 696 0
69 341 -126 697 0
23 52 -192 698 0
-373 -35 13 699 0
-124 -69 269 700 0
215 -359 -449 701 0
-117 387 367 702 0
-18 -253 173 703 0
-366 -270 -243 704 0
-78 93 182 705 0
-237 -428 283 706 0
222 101 -6 707 0
-426 -213 77 708 0
189 193 -451 709 0
-134 192 -44 710 0
150 2 346 711 0
-393 186 51 712 0
97 438 357 713 0
69 -54 -44 714 0
-233 -8 452 715 0
-156 -243 -204 716 0
7 -44 240 717 0
163 -87 198 718 0
-118 -132 -296 719 0
-52 100 -93 720 0
173 -65 -97 721 0
-295 -263 93 722 0
-423 -42 12 723 0
17 -239 225 724 0
260 -439 -66 725 0
-52 488 497 726 0
449 117 -161 727 0
143 -498 425 728 0
-410 -390 -73 729 0
319 19 250 730 0
-461 -368 326 731 0
68 -118 165 732 0
-214 -500 -271 733 0
-392 48 -47 734 0
-292 206 417 735 0
204 -154 -281 736 0
-308 -390 -70 737 0
-160 182 419 738 0
-210 -317 -430 739 0
-468 375 153 740 0
430 -258 -418 741 0
-420 -103 -130 742 0
-302 218 -468 743 0
73 -329 -281 744 0
223 12 -285 745 0
-376 -223 143 746 0
-200 57 -385 747 0
-19 343 -292 748 0
220 488 -152 749 0
-130 -374 404 750 0
180 -92 -173 751 0
-129 28 -376 752 0
-280 371 -16 753 0
-276 -428 461 754 0
-33 45 187 755 0
-306 420 309 756 0
322 172 -460 757 0
-34 -80 -220 758 0
-60 309 276 759 0
489 -487 -103 760 0
-173 -41 31 761 0
-199 354 -381 762 0
-220 88 311 763 0
34 -383 -86 764 0
44 90 -459 765 0
389 11 216 766 0
4 -289 438 767 0
308 -84 -124 768 0
-81 70 -467 769 0
-200 -14 -351 770 0
-266 194 108 771 0
-500 386 -217 772 0
449 -438 -195 773 0
38 -56 -281 774 0
-241 -94 -303 775 0
-230 -303 -22 776 0
-281 -364 16 777 0
-459 -375 -12 778 0
122 278 309 779 0
337 252 270 780 0
364 406 -319 781 0
127 143 354 782 0
454 -208 477 783 0
-457 328 380 784 0
-4 371 179 785 0
-342 463 -201 786 0
237 -71 -26 787 0
67 176 -88 788 0
-217 307 268 789 0
114 -431 255 790 0
-81 26 44 791 0
-141 3 263 792 0
500 454 314 793 0
453 -227 8 794 0
56 -30 127 795 0
351 -292 -364 796 0
195 -341 148 797 0
-279 -462 202 798 0
-91 -396 82 799 0
242 -271 51 800 0
-115 -401 -325 801 0
-164 -47 -221 802 0
-297 -424 -417 803 0
-417 -48 14 804 0
218 -104 -29 805 0
-271 -305 254 806 0
-338 -285 329 807 0
385 100 412 808 0
-445 -136 -222 809 0
312 -346 192 810 0
366 -321 -164 811 0
458 381 255 812 0
279 -109 144 813 0
453 209 -48 814 0
450 -296 149 815 0
198 485 460 816 0
427 232 -270 817 0
69 239 347 818 0
420 365 399 819 0
45 59 -153 820 0
250 485 12 821 0
-196 -248 -217 822 0
-498 -127 -183 823 0
-477 -95 -233 824 0
443 120 80 825 0
53 -368 75 826 0
312 -142 146 827 0
-43 266 428 828 0
-98 23 -146 829 0
26 -327 -384 830 0
-325 179 -8 831 0
108 -84 -155 832 0
-465 38 133 833 0
208 -431 384 834 0
107 -335 -492 835 0
-70 431 -242 836 0
380 -134 458 837 0
41 100 497 838 0
-456 -458 297 839 0
-442 -474 248 840 0
-403 -215 82 841 0
-4 499 -77 842 0
415 -435 150 843 0
221 155 8 844 0
-370 -339 -208 845 0
372 -366 -21 846 0
-62 492 -499 847 0
30 310 -243 848 0
-173 100 386 849 0
-297 227 89 850 0
196 345 230 851 0
-105 -359 -313 852 0
-401 258 302 853 0
480 319 300 854 0
194 9 -38 855 0
-427 -16 372 856 0
190 -242 226 857 0
-38 -471 306 858 0
401 71 -311 859 0
-136 -305 301 860 0
171 -239 126 861 0
-81 -231 -413 862 0
106 -158 94 863 0
255 -299 384 864 0
289 222 123 865 0
159 30 373 866 0
-3 388 -444 867 0
368 296 131 868 0
-99 468 156 869 0
10 65 235 870 0
-169 235 372 871 0
200 493 -60 872 0
-34 -266 97 873 0
-322 64 180 874 0
426 232 -110 875 0
-459 444 -20 876 0
-386 -441 -221 877 0
215 305 180 878 0
351 184 -227 879 0
448 478 1 880 0
-316 109 407 881 0
393 438 408 882 0
-88 123 473 883 0
138 -293 133 884 0
-405 -7 -203 885 0
84 5 -321 886 0
34 -127 113 887 0
-159 94 15 888 0
107 -288 433 889 0
-474 -428 -389 890 0
-200 337 60 891 0
-257 391 -259 892 0
126 21 53 893 0
-482 382 -407 894 0
-375 107 217 895 0
-17 -281 278 896 0
370 -18 -359 897 0
-264 -34 -431 898 0
-130 -437 -345 899 0
301 207 -40 900 0
321 380 -442 901 0
-127 233 -240 902 0
220 -196 14 903 0
-422 -136 111 904 0
114 344 139 905 0
58 233 -156 906 0
77 239 -253 907 0
-69 389 -30 908 0
428 -445 -193 909 0
481 295 -397 910 0
387 93 202 911 0
432 216 137 912 0
37 203 355 913 0
-388 453 354 914 0
-100 -78 225 915 0
-387 -137 -314 916 0
226 329 485 917 0
-407 358 204 918 0
-266 -182 268 919 0
-189 33 -381 920 0
-336 -286 -459 921 0
-307 -136 241 922 0
344 -205 152 923 0
-213 -132 206 924 0
353 283 367 925 0
131 491 -16 926 0
-48 -315 -265 927 0
368 315 66 928 0
-366 70 157 929 0
337 -340 410 930 0
-296 162 -9 931 0
-329 216 57 932 0
-356 263 138 933 0
-24 400 3 934 0
-287 -372 315 935 0
116 157 -352 936 0
-46 -85 -22 937 0
440 -80 5 938 0
210 -305 321 939 0
-63 395 -5 940 0
422 -318 -294 941 0
393 -326 -450 942 0
-410 -356 152 943 0
413 -291 369 944 0
180 -192 -497 945 0
500 474 41 946 0
440 379 246 947 0
-279 170 48 948 0
-246 270 -360 949 0
-460 -398 122 950 0
-204 -497 -232 951 0
330 396 -43 952 0
-413 -97 -398 953 0
289 -67 -274 954 0
32 166 -279 955 0
102 462 -264 956 0
276 90 -427 957 0
-167 -270 -454 958 0
-401 -30 175 959 0
-78 49 493 960 0
346 -343 -301 961 0
254 -441 189 962 0
-456 293 321 963 0
-313 299 409 964 0
-376 -307 190 965 0
309 -108 -75 966 0
-332 320 489 967 0
355 110 35 968 0
-42 124 399 969 0
-159 48 398 970 0
247 -274 78 971 0
375 347 -288 972 0
433 -127 -54 973 0
53 -339 -267 974 0
-51 -459 439 975 0
81 -43 17 976 0
-170 -44 404 977 0
26 -213 -387 978 0
442 402 -162 979 0
-311 462 312 980 0
40 -421 -351 981 0
161 273 116 982 0
111 423 -50 983 0
229 191 25 984 0
-473 -71 -197 985 0
-473 -294 -213 986 0
-344 -93 229 987 0
-379 -261 -18 988 0
-359 -407 -280 989 0
-109 470 -55 990 0
99 -124 438 991 0
-475 -212 174 992 0
376 -457 104 993 0
-48 23 -434 994 0
330 225 -3 995 0
364 -366 438 996 0
-313 156 -317 997 0
-157 -27 -419 998 0
-209 -53 175 999 0
-362 -370 397 1000 0
-165 -264 53 1001 0
87 -227 354 1002 0
268 498 352 1003 0
242 393 276 1004 0
-327 377 270 1005 0
-244 18 167 1006 0
292 179 -326 1007 0
-73 -495 -281 1008 0
-123 287 306 1009 0
271 50 -359 1010 0
82 201 -306 1011 0
-341 151 293 1012 0
-7 -401 -167 1013 0
-478 369 86 1014 0
-232 341 -408 1015 0
229 -19 -365 1016 0
-330 490 -196 1017 0
410 -231 292 1018 0
136 485 -410 1019 0
-408 -398 -165 1020 0
456 277 -203 1021 0
427 326 114 1022 0
291 -268 -68 1023 0
172 149 100 1024 0
-122 -322 443 1025 0
-274 166 279 1026 0
304 214 166 1027 0
-62 -107 24 1028 0
-379 241 240 1029 0
-447 -263 -254 1030 0
-268 381 489 1031 0
64 -159 365 1032 0
-214 -45 -367 1033 0
181 320 240 1034 0
-342 -230 -162 1035 0
127 199 205 1036 0
-136 -355 -400 1037 0
408 317 296 1038 0
-32 106 274 1039 0
366 -496 393 1040 0
277 -251 381 1041 0
352 32 -482 1042 0
66 -87 489 1043 0
460 -437 -240 1044 0
39 241 144 1045 0
177 -483 278 1046 0
-457 -164 -154 1047 0
-253 289 -451 1048 0
141 493 383 1049 0
352 -154 -360 1050 0
114 126 24 1051 0
-483 385 -241 1052 0
165 -332 -479 1053 0
66 419 123 1054 0
321 221 410 1055 0
294 -164 15 1056 0
151 133 270 1057 0
-32 337 456 1058 0
345 -43 -72 1059 0
353 -138 -345 1060 0
390 70 -310 1061 0
-328 -186 -189 1062 0
-434 95 12 1063 0
397 405 395 1064 0
-498 -74 67 1065 0
-15 -42 -187 1066 0
111 -118 462 1067 0
487 407 -441 1068 0
-474 -139 -368 1069 0
-259 278 -401 1070 0
-303 443 -145 1071 0
362 151 -17 1072 0
-491 -232 324 1073 0
413 -367 -304 1074 0
-249 418 -135 1075 0
-473 197 226 1076 0
8 -29 246 1077 0
-350 322 -55 1078 0
-284 -465 423 1079 0
-132 310 -44 1080 0
71 -115 -83 1081 0
183 -344 155 1082 0
254 197 -94 1083 0
-28 341 332 1084 0
103 220 -157 1085 0
-17 29 430 1086 0
-343 122 -300 1087 0
-498 329 -72 1088 0
93 -354 79 1089 0
-51 190 -198 1090 0
-496 -400 -77 1091 0
-165 463 128 1092 0
-219 66 -159 1093 0
479 -373 -488 1094 0
-61 -341 -249 1095 0
78 -153 -485 1096 0
405 -120 90 1097 0
-261 -237 -427 1098 0
-76 -193 395 1099 0
442 -234 -173 1100 0
226 18 197 1101 0
-460 -233 349 1102 0
122 -285 460 1103 0
-414 -420 -214 1104 0
354 -129 -153 1105 0
-286 2 143 1106 0
-445 -246 -165 1107 0
357 -18 -84 1108 0
107 -312 -188 1109 0
-241 -120 -56 1110 0
-123 -310 -200 1111 0
-183 -456 -335 1112 0
-154 270 197 1113 0
347 -11 234 1114 0
78 -184 242 1115 0
237 -84 204 1116 0
27 280 24 1117 0
73 -492 -110 1118 0
380 -15 -396 1119 0
207 -294 282 1120 0
74 132 -284 1121 0
74 -229 316 1122 0
-415 401 -458 1123 0
-415 246 -10 1124 0
481 -284 -401 1125 0
-60 -396 230 1126 0
318 -307 -391 1127 0
-457 -89 450 1128 0
-201 432 -47 1129 0
322 -492 66 1130 0
-32 -497 430 1131 0
83 -106 270 1132 0
254 338 433 1133 0
-14 -16 -448 1134 0
352 455 -478 1135 0
-197 -112 -63 1136 0
-160 73 -177 1137 0
-332 161 325 1138 0
-409 8 -181 1139 0
-344 175 364 1140 0
-391 -238 204 1141 0
70 274 -342 1142 0
-363 -76 -393 1143 0
-219 49 432 1144 0
251 234 -107 1145 0
-275 -179 452 1146 0
-324 -355 367 1147 0
184 293 120 1148 0
-201 -463 -319 1149 0
3 112 471 1150 0
-440 -40 224 1151 0
291 19 -130 1152 0
-112 195 18 1153 0
-377 -289 182 1154 0
33 -166 -177 1155 0
218 -138 314 1156 0
-64 -180 156 1157 0
-177 401 362 1158 0
-37 248 70 1159 0
-429 -427 179 1160 0
-378 405 -426 1161 0
331 -485 146 1162 0
457 9 363 1163 0
146 47 497 1164 0
463 361 411 1165 0
176 259 246 1166 0
327 377 -69 1167 0
29 398 325 1168 0
499 -95 214 1169 0
-88 414 425 1170 0
178 46 -170 1171 0
-77 1 -76 1172 0
-343 -396 -209 1173 0
-205 179 185 1174 0
-429 261 121 1175 0
-55 -329 -21 1176 0
-264 51 -435 1177 0
174 -330 421 1178 0
244 334 266 1179 0
-25 -299 -193 1180 0
-456 338 383 1181 0
-431 406 165 1182 0
-372 -477 -89 1183 0
-153 -408 -379 1184 0
-493 5 362 1185 0
333 437 -370 1186 0
-386 -259 -154 1187 0
-194 -352 -255 1188 0
161 -450 180 1189 0
128 31 86 1190 0
-311 313 -399 1191 0
215 -374 488 1192 0
143 -451 -358 1193 0
-44 -75 -169 1194 0
129 -204 -495 1195 0
21 465 -190 1196 0
-493 25 87 1197 0
-368 -292 -419 1198 0
220 440 -344 1199 0
-453 369 -197 1200 0
-428 -482 -272 1201 0
444 -137 76 1202 0
-154 -39 420 1203 0
441 91 -223 1204 0
2 -440 -437 1205 0
384 252 -199 1206 0
103 -218 -214 1207 0
-317 -264 -71 1208 0
-408 -378 -415 1209 0
-158 364 418 1210 0
138 -3 361 1211 0
196 256 -13 1212 0
-483 -78 -389 1213 0
-223 269 -312 1214 0
-192 109 50 1215 0
-446 357 -104 1216 0
-408 395 367 1217 0
258 88 474 1218 0
-26 -378 301 1219 0
337 141 -459 1220 0
-334 -345 -225 1221 0
-326 422 184 1222 0
171 -23 49 1223 0
-371 436 -424 1224 0
-94 350 -285 1225 0
-197 -122 -332 1226 0
101 182 150 1227 0
-367 425 -158 1228 0
490 -416 308 1229 0
-2 -353 -346 1230 0
20 -246 392 1231 0
-209 -468 -409 1232 0
-143 348 -340 1233 0
-368 -370 -42 1234 0
101 15 386 1235 0
128 386 -287 1236 0
-144 -216 -432 1237 0
447 81 -401 1238 0
-132 116 -286 1239 0
-440 -251 -58 1240 0
-371 -55 -125 1241 0
225 209 320 1242 0
-98 -320 -30 1243 0
-417 57 328 1244 0
-396 -322 85 1245 0
-358 177 -52 1246 0
151 484 -131 1247 0
-40 -79 418 1248 0
182 115 362 1249 0
442 -8 -110 1250 0
-162 -262 471 1251 0
-463 249 81 1252 0
-184 295 59 1253 0
-78 -208 320 1254 0
449 443 -420 1255 0
-101 113 -144 1256 0
-492 229 12 1257 0
67 -153 151 1258 0
477 -471 -55 1259 0
335 -419 138 1260 0
-107 191 -383 1261 0
300 -223 337 1262 0
-51 -23 -423 1263 0
-431 -86 333 1264 0
436 -128 -20 1265 0
-297 -399 295 1266 0
-180 131 -486 1267 0
-179 -373 470 1268 0
-289 376 -236 1269 0
-336 -247 111 1270 0
485 -27 -200 1271 0
-62 163 347 1272 0
-164 -345 444 1273 0
-22 -379 313 1274 0
-15 159 455 1275 0
449 -278 -487 1276 0
-462 390 -251 1277 0
-190 -314 174 1278 0
-239 129 103 1279 0
453 153 254 1280 0
3 -229 -100 1281 0
-143 -283 -202 1282 0
326 -385 64 1283 0
-140 -454 -71 1284 0
-11 365 -13 1285 0
436 -437 -14 1286 0
-207 106 179 1287 0
227 336 463 1288 0
284 419 443 1289 0
-91 457 462 1290 0
-46 319 -396 1291 0
175 379 -109 1292 0
328 -354 208 1293 0
-334 157 -426 1294 0
296 -194 -209 1295 0
-333 -15 -139 1296 0
-296 -274 -320 1297 0
148 -310 324 1298 0
-487 -74 -422 1299 0
369 -325 266 1300 0
384 -39 -168 1301 0
-421 -444 -251 1302 0
-207 327 173 1303 0
153 195 -219 1304 0
-456 468 356 1305 0
-489 316 303 1306 0
-434 18 -179 1307 0
99 -235 -37 1308 0
340 455 250 1309 0
-238 5 251 1310 0
290 -114 -120 1311 0
-280 -160 -20 1312 0
-39 -201 240 1313 0
-231 -85 -244 1314 0
-474 -317 -300 1315 0
391 -45 269 1316 0
-163 494 -170 1317 0
16 -316 -91 1318 0
473 -41 191 1319 0
423 290 294 1320 0
-331 224 -102 1321 0
320 454 -131 1322 0
-301 189 350 1323 0
-98 -201 440 1324 0
-15 259 197 1325 0
493 -237 -116 1326 0
190 441 -182 1327 0
323 55 71 1328 0
-226 347 -434 1329 0
447 -157 100 1330 0
434 118 168 1331 0
330 -453 225 1332 0
443 269 -424 1333 0
-337 -138 -314 1334 0
-169 32 -358 1335 0
356 159 154 1336 0
255 41 76 1337 0
210 59 219 1338 0
-382 -38 170 1339 0
-95 -466 -84 1340 0
22 -372 324 1341 0
-227 -483 -236 1342 0
-64 -356 -286 1343 0
-160 -11 -13 1344 0
-166 -67 -319 1345 0
455 330 388 1346 0
404 -269 147 1347 0
171 74 222 1348 0
-483 -150 164 1349 0
-153 -91 -146 1350 0
-54 430 460 1351 0
-147 313 281 1352 0
436 -399 494 1353 0
-78 199 -405 1354 0
487 199 454 1355 0
-10 241 -231 1356 0
462 298 -20 1357 0
485 -76 293 1358 0
19 -500 -350 1359 0
-26 -246 -11 1360 0
231 315 -187 1361 0
-433 -26 42 1362 0
-13 -449 -244 1363 0
-146 -434 442 1364 0
-75 208 -320 1365 0
80 -282 74 1366 0
-215 198 -263 1367 0
324 92 -475 1368 0
64 466 -430 1369 0
389 -263 364 1370 0
-83 -11 1 1371 0
-20 -9 -297 1372 0
41 202 -377 1373 0
397 377 370 1374 0
-143 261 -176 1375 0
431 -347 448 1376 0
-83 180 270 1377 0
186 -65 338 1378 0
89 97 -157 1379 0
131 197 -174 1380 0
306 111 409 1381 0
-65 98 -173 1382 0
-57 442 -241 1383 0
328 148 76 1384 0
115 450 291 1385 0
67 347 6 1386 0
412 -428 -430 1387 0
-110 108 -269 1388 0
-403 289 254 1389 0
-197 274 -123 1390 0
-146 399 -457 1391 0
-472 -376 -58 1392 0
117 413 487 1393 0
244 236 193 1394 0
-362 463 60 1395 0
395 181 -63 1396 0
-244 -181 -347 1397 0
118 -351 53 1398 0
-147 302 69 1399 0
-489 486 175 1400 0
382 -20 19 1401 0
312 278 -237 1402 0
498 -303 495 1403 0
-6 295 341 1404 0
32 414 -39 1405 0
-476 200 81 1406 0
-462 -5 158 1407 0
323 -206 -367 1408 0
332 -310 63 1409 0
406 -262 -146 1410 0
347 328 -499 1411 0
252 -468 367 1412 0
-94 -54 179 1413 0
-235 -135 -214 1414 0
127 -369 -12 1415 0
-354 464 411 1416 0
468 -275 111 1417 0
155 188 -258 1418 0
-293 -14 -458 1419 0
348 165 318 1420 0
469 -276 375 1421 0
79 -288 263 1422 0
400 -103 445 1423 0
309 409 -81 1424 0
-304 255 -120 1425 0
-253 -277 238 1426 0
426 -439 46 1427 0
-120 323 -464 1428 0
221 27 19 1429 0
-398 -27 -483 1430 0
-271 -56 -497 1431 0
25 -485 296 1432 0
13 169 -488 1433 0
-335 302 -307 1434 0
-177 369 -11 1435 0
-122 -170 116 1436 0
216 23 -340 1437 0
-490 -49 -264 1438 0
-260 -145 -354 1439 0
370 -44 -471 1440 0
-242 61 -418 1441 0
356 -338 -103 1442 0
-359 -389 230 1443 0
-51 -157 -78 1444 0
-237 189 446 1445 0
161 -61 17 1446 0
279 -120 -265 1447 0
170 -454 67 1448 0
433 334 488 1449 0
-83 380 11 1450 0
11 -76 -157 1451 0
52 -437 -38 1452 0
417 -158 -216 1453 0
-397 -228 31 1454 0
-469 49 -54 1455 0
-399 -373 173 1456 0
-396 214 -274 1457 0
-327 -325 -388 1458 0
-343 55 -27 1459 0
164 -449 -85 1460 0
451 -147 -15 1461 0
220 28 360 1462 0
-475 -74 -225 1463 0
348 -58 -118 1464 0
367 139 -85 1465 0
-267 -262 107 1466 0
113 169 217 1467 0
-426 428 433 1468 0
-344 -435 -271 1469 0
157 403 -280 1470 0
12 -244 224 1471 0
299 -335 85 1472 0
198 -334 -244 1473 0
356 73 468 1474 0
-104 -319 312 1475 0
22 -310 -412 1476 0
-473 63 -380 1477 0
-397 -168 -487 1478 0
-488 -1 412 1479 0
-130 442 200 1480 0
334 324 86 1481 0
-1 -323 -349 1482 0
-168 132 490 1483 0
-477 -446 381 1484 0
-19 -389 -302 1485 0
335 -394 360 1486 0
-361 329 234 1487 0
146 323 -333 1488 0
-486 443 340 1489 0
391 197 430 1490 0
98 369 -215 1491 0
384 -37 -481 1492 0
376 -500 -23 1493 0
-380 -101 -353 1494 0
152 222 -450 1495 0
105 78 -109 1496 0
-420 227 478 1497 0
-294 31 13 1498 0
-266 300 6 1499 0
35 -258 -316 1500 0
-211 224 44 1501 0
199 169 -112 1502 0
-312 324 -422 1503 0
-25 188 -34 1504 0
24 -435 -112 1505 0
-429 30 461 1506 0
-60 -147 53 1507 0
-367 -115 189 1508 0
-49 -82 125 1509 0
-250 90 -439 1510 0
257 -498 143 1511 0
-186 328 107 1512 0
188 40 282 1513 0
-481 384 34 1514 0
477 373 371 1515 0
494 358 160 1516 0
-265 397 138 1517 0
451 422 95 1518 0
-395 120 -253 1519 0
114 -173 205 1520 0
444 -311 335 1521 0
-32 -398 9 1522 0
-498 242 -138 1523 0
-101 29 268 1524 0
-254 -325 124 1525 0
49 -175 189 1526 0
160 -24 -180 1527 0
-264 -391 374 1528 0
250 199 219 1529 0
-91 -107 -492 1530 0
418 -27 270 1531 0
303 -326 19 1532 0
131 338 -275 1533 0
-161 158 493 1534 0
-214 294 122 1535 0
-70 -303 -315 1536 0
-205 -324 188 1537 0
375 111 187 1538 0
62 201 -327 1539 0
-399 -137 -227 1540 0
55 173 -245 1541 0
412 -26 473 1542 0
212 -472 112 1543 0
385 -408 -264 1544 0
127 13 -294 1545 0
133 404 -385 1546 0
-415 40 87 1547 0
424 -291 198 1548 0
290 178 257 1549 0
106 -63 -34 1550 0
461 -119 -363 1551 0
312 36 106 1552 0
-18 60 310 1553 0
-170 166 175 1554 0
-167 287 170 1555 0
-312 149 -353 1556 0
-476 -345 281 1557 0
160 142 -35 1558 0
59 167 234 1559 0
-106 329 -104 1560 0
355 149 -86 1561 0
496 307 164 1562 0
-36 -320 378 1563 0
135 -127 12 1564 0
499 377 128 1565 0
199 485 253 1566 0
-371 -105 335 1567 0
173 -390 106 1568 0
-332 108 447 1569 0
408 26 164 1570 0
-206 104 343 1571 0
-269 406 -41 1572 0
25 463 109 1573 0
1 272 306 1574 0
45 298 -492 1575 0
50 -300 306 1576 0
14 -35 320 1577 0
-172 286 333 1578 0
440 -32 61 1579 0
-474 75 -247 1580 0
-380 -254 -442 1581 0
-355 362 74 1582 0
162 -320 -67 1583 0
-355 -1 -427 1584 0
-428 -353 39 1585 0
-164 -98 -325 1586 0
118 86 -395 1587 0
264 -249 499 1588 0
207 9 194 1589 0
-160 -162 -302 1590 0
182 346 237 1591 0
414 494 119 1592 0
-7 -254 -99 1593 0
46 273 444 1594 0
496 -180 -92 1595 0
-147 216 -165 1596 0
-345 -293 -87 1597 0
-296 358 -157 1598 0
-470 -348 4 1599 0
-266 -383 421 1600 0
-302 -61 449 1601 0
387 -303 134 1602 0
300 77 -24 1603 0
-304 -186 -348 1604 0
-130 -32 -331 1605 0
484 63 -287 1606 0
464 366 465 1607 0
-475 -71 377 1608 0
-17 111 47 1609 0
-379 179 -78 1610 0
-54 -359 310 1611 0
447 252 -475 1612 0
-471 271 68 1613 0
-97 276 -488 1614 0
453 -457 -49 1615 0
-148 -374 462 1616 0
234 196 -242 1617 0
350 -233 -476 1618 0
-379 -442 25 1619 0
278 -224 207 1620 0
21 -240 73 1621 0
340 -106 -322 1622 0
-30 216 -47 1623 0
-58 -323 314 1624 0
-474 306 -400 1625 0
-445 190 243 1626 0
329 94 -262 1627 0
327 -194 -37 1628 0
174 -420 -291 1629 0
95 -225 -350 1630 0
-11 103 -259 1631 0
-270 -56 -330 1632 0
460 168 419 1633 0
-479 -251 -190 1634 0
-95 286 -106 1635 0
-481 20 146 1636 0
481 -202 127 1637 0
132 -375 46 1638 0
-185 250 -464 1639 0
-193 -367 402 1640 0
-382 -33 -449 1641 0
-346 32 -407 1642 0
-181 332 367 1643 0
-410 -461 354 1644 0
-26 86 -142 1645 0
-154 -410 343 1646 0
379 -67 316 1647 0
-315 -304 113 1648 0
-11 342 -344 1649 0
131 50 -453 1650 0
403 76 -105 1651 0
-259 62 193 1652 0
-68 177 -109 1653 0
-309 -285 -198 1654 0
-247 382 402 1655 0
174 -369 380 1656 0
306 -455 -201 1657 0
-72 476 -180 1658 0
69 -15 -205 1659 0
-28 -116 -337 1660 0
407 24 -182 1661 0
153 72 438 1662 0
-26 23 190 1663 0
356 -25 -274 1664 0
211 -19 411 1665 0
58 332 220 1666 0
-229 -130 -154 1667 0
-375 157 -295 1668 0
-81 -467 406 1669 0
409 -328 461 1670 0
224 245 186 1671 0
-294 279 184 1672 0
-482 300 -57 1673 0
-218 434 -107 1674 0
-221 -14 -51 1675 0
160 -286 -114 1676 0
-110 497 101 1677 0
-403 -254 -308 1678 0
-140 410 49 1679 0
208 -147 94 1680 0
67 -148 -362 1681 0
-162 -60 -55 1682 0
387 -399 -430 1683 0
249 -307 110 1684 0
-30 326 -26 1685 0
-65 430 -384 1686 0
-494 -380 -69 1687 0
-39 -102 187 1688 0
-364 263 46 1689 0
29 -144 -173 1690 0
-53 346 -151 1691 0
-229 187 432 1692 0
-394 -117 389 1693 0
464 -365 309 1694 0
-63 487 33 1695 0
224 -376 -241 1696 0
473 28 249 1697 0
85 139 -14 1698 0
-12 316 -367 1699 0
-422 377 -158 1700 0
-114 -344 -107 1701 0
-280 -63 -13 1702 0
156 -332 -236 1703 0
339 -33 -3 1704 0
213 18 -5 1705 0
366 169 301 1706 0
-226 108 63 1707 0
-455 330 -366 1708 0
-179 138 -74 1709 0
-139 -51 -187 1710 0
17 134 -198 1711 0
243 -2 -247 1712 0
185 -485 -355 1713 0
-448 -384 2 1714 0
458 -189 433 1715 0
-330 383 -470 1716 0
-167 330 437 1717 0
21 -375 -126 1718 0
69 368 -100 1719 0
29 -248 -401 1720 0
-39 -50 -143 1721 0
262 -160 -330 1722 0
-177 32 46 1723 0
-432 -107 -85 1724 0
48 409 -212 1725 0
-446 303 59 1726 0
379 404 -447 1727 0
-89 -426 246 1728 0
-384 -473 215 1729 0
-16 -119 236 1730 0
419 397 -468 1731 0
-295 425 -411 1732 0
485 -137 241 1733 0
-478 -64 121 1734 0
403 -100 286 1735 0
-366 472 -130 1736 0
-314 149 104 1737 0
215 -453 -37 1738 0
241 197 -135 1739 0
-390 293 -195 1740 0
-279 -271 241 1741 0
-8 50 439 1742 0
-369 429 375 1743 0
286 -204 391 1744 0
214 -324 308 1745 0
-223 37 425 1746 0
465 -441 -156 1747 0
240 -191 370 1748 0
284 -60 267 1749 0
-472 171 149 1750 0
74 258 122 1751 0
234 110 -431 1752 0
-40 23 121 1753 0
-433 363 197 1754 0
69 -112 78 1755 0
454 -26 -499 1756 0
-365 316 386 1757 0
491 -124 388 1758 0
265 500 54 1759 0
59 -256 490 1760 0
149 -319 -131 1761 0
323 -196 -405 1762 0
-315 273 102 1763 0
-292 101 -112 1764 0
417 243 -44 1765 0
8 207 -457 1766 0
-423 -122 -192 1767 0
34 375 -373 1768 0
-68 389 -107 1769 0
-34 -492 -385 1770 0
-336 318 57 1771 0
287 -30 -76 1772 0
-499 -218 446 1773 0
-465 409 254 1774 0
-309 -2 -467 1775 0
437 -452 33 1776 0
-268 252 466 1777 0
386 -382 200 1778 0
-128 -379 468 1779 0
-106 -56 269 1780 0
-395 -136 362 1781 0
-378 38 -330 1782 0
310 -485 -110 1783 0
38 -378 -75 1784 0
-447 -6 258 1785 0
-398 -191 -97 1786 0
-323 -497 112 1787 0
-190 -54 252 1788 0
392 -351 384 1789 0
146 446 393 1790 0
124 -412 -202 1791 0
497 -295 -489 1792 0
394 54 318 1793 0
351 -404 233 1794 0
296 -99 -258 1795 0
-494 -20 -81 1796 0
-372 277 -82 1797 0
325 207 15 1798 0
-219 -449 -389 1799 0
-222 132 -14 1800 0
302 130 325 1801 0
-169 313 454 1802 0
-189 420 427 1803 0
-81 -57 102 1804 0
450 -140 -374 1805 0
-61 -42 266 1806 0
-337 -191 -267 1807 0
-189 -202 -93 1808 0
116 357 -327 1809 0
49 -424 112 1810 0
242 -196 -284 1811 0
156 304 298 1812 0
-24 -173 -390 1813 0
246 -276 83 1814 0
253 452 -421 1815 0
259 -146 264 1816 0
-252 -499 -259 1817 0
478 -326 -37 1818 0
133 -190 -412 1819 0
301 93 -106 1820 0
-63 106 103 1821 0
293 89 -200 1822 0
-37 -156 469 1823 0
40 132 -290 1824 0
-39 143 195 1825 0
114 1 -144 1826 0
-137 -305 -210 1827 0
149 -488 -444 1828 0
-204 109 -388 1829 0
333 95 304 1830 0
-218 274 300 1831 0
-486 -177 401 1832 0
-298 -426 -169 1833 0
-211 200 462 1834 0
-350 208 390 1835 0
237 -243 185 1836 0
277 -284 -165 1837 0
-305 160 -61 1838 0
162 96 114 1839 0
-49 -296 -327 1840 0
113 381 -34 1841 0
-97 397 342 1842 0
430 134 349 1843 0
-12 -239 -327 1844 0
-449 219 355 1845 0
178 59 -422 1846 0
-36 347 -206 1847 0
-228 414 -106 1848 0
-52 418 -239 1849 0
-383 -222 -302 1850 0
-320 -467 -177 1851 0
306 384 91 1852 0
-4 391 325 1853 0
31 210 109 1854 0
-413 482 493 1855 0
418 -184 227 1856 0
-493 188 -265 1857 0
-134 -336 -314 1858 0
-122 200 70 1859 0
-161 -138 226 1860 0
-500 -351 -63 1861 0
282 -15 -451 1862 0
411 355 492 1863 0
71 86 -364 1864 0
188 -467 181 1865 0
-487 474 -196 1866 0
55 -197 375 1867 0
92 364 163 1868 0
407 -25 486 1869 0
-438 143 267 1870 0
-345 -299 -361 1871 0
358 -33 254 1872 0
-295 439 -243 1873 0
-467 381 229 1874 0
236 -356 140 1875 0
353 -76 -124 1876 0
-56 -360 -206 1877 0
-84 328 -115 1878 0
152 -272 -484 1879 0
363 -19 -374 1880 0
-31 124 463 1881 0
-171 224 -53 1882 0
-269 -495 -256 1883 0
-496 -101 -81 1884 0
-372 304 404 1885 0
251 95 479 1886 0
-11 -196 -175 1887 0
40 -22 -86 1888 0
-242 454 -447 1889 0
472 -52 -436 1890 0
437 187 487 1891 0
-403 -367 271 1892 0
177 -489 487 1893 0
-151 464 297 1894 0
-385 226 198 1895 0
-212 72 314 1896 0
-313 -202 -366 1897 0
-491 426 -156 1898 0
215 175 90 1899 0
-117 -194 -492 1900 0
-1 -224 304 1901 0
298 -456 359 1902 0
462 -120 425 1903 0
226 324 98 1904 0
-261 378 -173 1905 0
-64 282 128 1906 0
-476 241 -380 1907 0
-142 -195 -248 1908 0
-348 -176 33 1909 0
206 217 11 1910 0
442 -444 282 1911 0
295 -447 125 1912 0
412 184 154 1913 0
160 373 367 1914 0
-404 484 190 1915 0
-231 476 39 1916 0
122 -462 281 1917 0
-426 14 -23 1918 0
-104 -154 -8 1919 0
357 -474 -268 1920 0
253 262 63 1921 0
111 341 7 1922 0
-224 423 -57 1923 0
297 -106 304 1924 0
166 -297 -215 1925 0
272 -386 -173 1926 0
153 194 -343 1927 0
-228 -135 -203 1928 0
375 170 -258 1929 0
-391 -355 -291 1930 0
-428 169 -214 1931 0
320 460 -12 1932 0
276 -205 -190 1933 0
-140 330 107 1934 0
357 -498 -164 1935 0
-450 352 -495 1936 0
-392 92 -497 1937 0
411 -340 94 1938 0
-360 335 -88 1939 0
-296 -331 461 1940 0
-155 -391 -234 1941 0
-289 -61 381 1942 0
215 -430 -245 1943 0
11 227 -434 1944 0
-318 -25 258 1945 0
-303 12 -285 1946 0
-208 -119 476 1947 0
-148 -54 500 1948 0
-258 -470 -32 1949 0
92 -420 -496 1950 0
56 344 -437 1951 0
-375 -206 269 1952 0
258 -377 70 1953 0
-38 -127 55 1954 0
-338 -294 216 1955 0
-213 389 269 1956 0
19 310 -172 1957 0
-494 -449 105 1958 0
-43 -186 315 1959 0
184 69 15 1960 0
-232 35 -399 1961 0
33 396 366 1962 0
-16 -481 159 1963 0
-177 -387 -171 1964 0
29 25 423 1965 0
-114 61 489 1966 0
254 -481 -227 1967 0
-252 497 30 1968 0
3 -334 377 1969 0
138 -82 265 1970 0
-456 -431 279 1971 0
196 -62 -113 1972 0
75 174 -114 1973 0
265 232 -294 1974 0
130 -364 80 1975 0
-293 -133 26 1976 0
-499 -88 151 1977 0
84 339 -118 1978 0
-323 217 -138 1979 0
274 -168 336 1980 0
258 120 -465 1981 0
47 -415 -482 1982 0
108 405 77 1983 0
-5 -469 411 1984 0
-274 213 312 1985 0
101 -257 -480 1986 0
-378 54 -62 1987 0
227 44 305 1988 0
-394 467 92 1989 0
467 382 199 1990 0
-299 463 17 1991 0
139 155 429 1992 0
-244 -314 472 1993 0
-233 291 240 1994 0
-391 61 486 1995 0
58 -176 158 1996 0
322 -311 253 1997 0
-152 -440 -332 1998 0
-422 252 -379 1999 0
-296 214 405 2000 0
-100 -426 313 2001 0
498 82 87 2002 0
120 376 43 2003 0
241 447 -38 2004 0
233 -115 -37 2005 0
-371 245 -408 2006 0
258 -447 -267 2007 0
123 -411 223 2008 0
52 -411 -374 2009 0
126 -425 -176 2010 0
315 -211 -486 2011 0
71 -345 426 2012 0
-382 -379 496 2013 0
200 356 -25 2014 0
-61 -366 -494 2015 0
-200 17 68 2016 0
64 214 402 2017 0
-19 -492 485 2018 0
-107 491 -210 2019 0
-155 243 381 2020 0
309 316 -37 2021 0
308 -33 -359 2022 0
-2 -48 -149 2023 0
46 -259 -466 2024 0
-44 385 -488 2025 0
-420 -57 -444 2026 0
130 -71 -182 2027 0
-397 -393 -232 2028 0
-384 349 -168 2029 0
365 188 164 2030 0
-275 -16 -217 2031 0
326 293 -121 2032 0
374 369 -74 2033 0
35 -460 -422 2034 0
225 -451 226 2035 0
254 139 368 2036 0
63 129 -244 2037 0
475 -361 60 2038 0
-151 462 -287 2039 0
455 -156 -19 2040 0
480 -179 -265 2041 0
-70 -359 455 2042 0
-310 -108 248 2043 0
17 -278 -429 2044 0
32 230 323 2045 0
440 286 -486 2046 0
-245 196 -138 2047 0
-446 -159 92 2048 0
36 491 -215 2049 0
-187 423 -6 2050 0
-256 -5 459 2051 0
-79 184 239 2052 0
144 472 -160 2053 0
-76 -81 -216 2054 0
190 -188 389 2055 0
245 360 138 2056 0
-155 216 -493 2057 0
-97 192 -211 2058 0
-476 433 -177 2059 0
363 -88 312 2060 0
231 -458 168 2061 0
-311 -256 247 2062 0
-328 -490 439 2063 0
-139 -102 -197 2064 0
-212 19 345 2065 0
-70 -305 -477 2066 0
225 352 -57 2067 0
484 -84 -5 2068 0
-130 282 -418 2069 0
341 -243 50 2070 0
292 42 228 2071 0
-87 -419 -316 2072 0
-180 476 43 2073 0
-117 484 76 2074 0
233 368 495 2075 0
450 163 284 2076 0
-38 -294 225 2077 0
336 230 -52 2078 0
-35 -446 -313 2079 0
497 -485 -86 2080 0
189 133 127 2081 0
-477 320 276 2082 0
9 108 478 2083 0
-210 339 -444 2084 0
-206 -252 231 2085 0
410 451 444 2086 0
-438 178 35 2087 0
54 -87 160 2088 0
411 -154 -146 2089 0
256 476 246 2090 0
-293 -472 -86 2091 0
-72 396 -445 2092 0
67 -81 334 2093 0
-54 357 -97 2094 0
314 197 67 2095 0
-328 18 -237 2096 0
-215 -225 -42 2097 0
436 78 90 2098 0
-273 126 -58 2099 0
156 -254 -381 2100 0
136 349 -326 2101 0
489 107 -42 2102 0
482 79 226 2103 0
-14 -257 304 2104 0
21 -461 -41 2105 0
-39 -45 -78 2106 0
-75 -206 458 2107 0
302 490 -171 2108 0
200 165 221 2109 0
235 151 -87 2110 0
-184 -269 -374 2111 0
-269 -357 -347 2112 0
31 470 -421 2113 0
242 352 -150 2114 0
-268 44 -225 2115 0
-452 -92 -126 2116 0
399 41 419 2117 0
116 -137 232 2118 0
51 -284 204 2119 0
41 -494 -412 2120 0
-498 -68 285 2121 0
-422 -260 -252 2122 0
402 -96 287 2123 0
-345 498 402 2124 0
126 -488 -338 2125 0
-467 -460 -359 2126 0
-375 154 289 2127 0
-238 -85 333 2128 0
279 -27 -76 2129 0
162 104 466 2130 0
193 -19 -129 2131 0
121 287 440 2132 0
-359 437 24 2133 0
-243 -149 -179 2134 0
-73 -471 302 2135 0
288 259 -12 2136 0
-448 -454 360 2137 0
64 295 496 2138 0
485 -356 1 2139 0
200 326 -306 2140 0
78 155 -351 2141 0
-297 153 -186 2142 0
-246 -50 12 2143 0
166 -28 -132 2144 0
-253 300 -477 2145 0
317 389 -26 2146 0
-216 88 -125 2147 0
-149 126 487 2148 0
-18 -302 -17 2149 0
-275 280 -256 2150 0
399 -258 -139 2151 0
-179 -199 -328 2152 0
-238 -469 432 2153 0
-159 -420 -388 2154 0
252 -395 -323 2155 0
-192 355 -29 2156 0
-402 -9 -81 2157 0
-377 363 -289 2158 0
53 -116 -400 2159 0
301 87 74 2160 0
345 -203 -225 2161 0
-405 -322 -197 2162 0
-91 314 -254 2163 0
-160 32 -355 2164 0
-239 -18 -252 2165 0
249 167 108 2166 0
304 -219 -386 2167 0
-250 233 -260 2168 0
372 -477 260 2169 0
-410 34 -472 2170 0
34 -484 310 2171 0
-382 323 1 2172 0
108 -304 -220 2173 0
-66 285 -392 2174 0
-486 -464 -359 2175 0
161 -431 225 2176 0
358 -50 14 2177 0
-317 91 130 2178 0
-358 -190 -142 2179 0
449 -41 -197 2180 0
-449 -54 8 2181 0
188 330 278 2182 0
-477 12 -386 2183 0
-493 39 -110 2184 0
-407 290 -388 2185 0
-117 85 -209 2186 0
-347 -62 -442 2187 0
116 -151 -349 2188 0
350 -336 -285 2189 0
178 -248 -489 2190 0
-276 -85 319 2191 0
-361 -134 347 2192 0
-180 26 -453 2193 0
-63 162 343 2194 0
384 -334 -350 2195 0
124 3 294 2196 0
-125 -4 187 2197 0
36 160 -95 2198 0
-24 -216 -22 2199 0
471 -218 -177 2200 0
135 -225 -396 2201 0
341 298 -306 2202 0
30 94 390 2203 0
217 479 239 2204 0
-387 -312 -239 2205 0
409 -248 476 2206 0
-241 -317 353 2207 0
-373 127 264 2208 0
-347 -283 468 2209 0
-9 -4 500 2210 0
433 -460 -147 2211 0
-279 165 -21 2212 0
-126 -135 -236 2213 0
-419 460 -211 2214 0
-346 452 200 2215 0
-463 103 204 2216 0
-126 324 34 2217 0
-164 201 128 2218 0
-89 6 336 2219 0
123 480 -24 2220 0
-455 130 -474 2221 0
-347 -297 183 2222 0
38 404 -262 2223 0
-298 -3 346 2224 0
-219 -117 13 2225 0
-9 -343 476 2226 0
396 387 326 2227 0
262 156 -133 2228 0
380 -119 90 2229 0
-110 323 428 2230 0
-482 -341 439 2231 0
310 15 123 2232 0
-358 -442 -429 2233 0
446 -26 494 2234 0
419 -205 43 2235 0
79 -144 258 2236 0
296 487 -488 2237 0
-177 -264 -365 2238 0
248 449 -485 2239 0
299 -15 -89 2240 0
-123 -276 -342 2241 0
-202 352 -267 2242 0
142 365 -217 2243 0
424 399 -166 2244 0
-334 -75 -202 2245 0
183 7 106 2246 0
-72 391 436 2247 0
-139 -414 -173 2248 0
33 -85 -450 2249 0
286 -490 -394 2250 0
-285 -454 -406 2251 0
-133 173 257 2252 0
-139 -348 -497 2253 0
350 -311 469 2254 0
-343 -168 -281 2255 0
-213 -277 -437 2256 0
217 -61 209 2257 0
251 24 -372 2258 0
-62 279 463 2259 0
292 -356 -13 2260 0
-481 130 404 2261 0
224 103 -282 2262 0
-123 -83 -393 2263 0
-21 199 -249 2264 0
-176 490 -412 2265 0
-423 -144 -431 2266 0
-344 -365 274 2267 0
-202 219 -159 2268 0
-339 -237 281 2269 0
480 -26 491 2270 0
491 102 242 2271 0
-487 177 455 2272 0
286 460 -285 2273 0
26 60 -52 2274 0
-241 -3 106 2275 0
31 7 310 2276 0
-9 434 -88 2277 0
-382 -49 164 2278 0
139 -291 -3 2279 0
-83 -125 308 2280 0
-149 -320 -5 2281 0
-384 151 -268 2282 0
432 -412 400 2283 0
-243 -10 -496 2284 0
405 474 -307 2285 0
322 192 -205 2286 0
209 4 -145 2287 0
-36 -452 220 2288 0
92 -85 322 2289 0
-379 -37 -12 2290 0
405 332 -356 2291 0
-295 454 -345 2292 0
355 -466 499 2293 0
312 -445 495 2294 0
-102 316 439 2295 0
-205 -207 146 2296 0
244 -294 144 2297 0
374 360 256 2298 0
-424 -318 310 2299 0
344 390 361 2300 0
-473 163 13 2301 0
-82 -480 407 2302 0
-238 144 191 2303 0
197 -385 369 2304 0
196 -257 -350 2305 0
-155 293 317 2306 0
29 -362 114 2307 0
212 -469 139 2308 0
-80 169 -321 2309 0
40 -281 -55 2310 0
-164 -49 409 2311 0
-451 -297 -128 2312 0
-333 356 93 2313 0
-425 -188 -195 2314 0
-176 -124 -17 2315 0
205 446 -314 2316 0
22 320 456 2317 0
240 281 -386 2318 0
-15 -278 -405 2319 0
-491 -303 -164 2320 0
437 -185 -414 2321 0
302 33 20 2322 0
-17 166 -409 2323 0
187 287 170 2324 0
112 454 -357 2325 0
-117 -149 -2 2326 0
228 -25 353 2327 0
-230 239 -373 2328 0
68 -156 138 2329 0
49 160 -310 2330 0
-301 -282 -310 2331 0
-139 235 420 2332 0
202 193 -371 2333 0
452 -164 427 2334 0
34 -56 -206 2335 0
5 -79 261 2336 0
-227 432 -389 2337 0
-314 -293 393 2338 0
-155 -255 79 2339 0
72 -4 263 2340 0
465 -38 -263 2341 0
-360 -477 93 2342 0
-345 427 -255 2343 0
16 210 166 2344 0
489 -47 182 2345 0
456 -282 -187 2346 0
339 -356 136 2347 0
200 144 17 2348 0
489 417 -234 2349 0
-50 208 169 2350 0
253 82 64 2351 0
-398 59 -465 2352 0
126 -115 305 2353 0
-224 -179 -24 2354 0
-166 146 77 2355 0
-272 354 -305 2356 0
-373 -391 -431 2357 0
151 -354 85 2358 0
74 -56 8 2359 0
82 335 239 2360 0
-455 159 -311 2361 0
-28 275 417 2362 0
187 254 -283 2363 0
-152 -480 172 2364 0
-51 -165 104 2365 0
-93 -468 470 2366 0
-391 -497 -121 2367 0
-151 -462 277 2368 0
411 209 -56 2369 0
262 314 -211 2370 0
-101 -419 73 2371 0
239 -261 -34 2372 0
-290 427 309 2373 0
-43 74 6 2374 0
-102 243 266 2375 0
82 -119 88 2376 0
-396 -401 328 2377 0
355 227 361 2378 0
363 -413 -22 2379 0
-14 125 334 2380 0
490 -214 37 2381 0
345 184 -427 2382 0
409 -413 374 2383 0
-463 283 165 2384 0
-413 -329 -286 2385 0
-25 -424 191 2386 0
314 -142 171 2387 0
330 189 271 2388 0
41 -136 -114 2389 0
221 360 -175 2390 0
139 230 484 2391 0
434 -376 123 2392 0
-298 497 38 2393 0
431 326 -400 2394 0
-399 487 43 2395 0
109 150 40 2396 0
103 -445 212 2397 0
88 -181 -148 2398 0
-356 362 -339 2399 0
312 -344 -284 2400 0
386 191 305 2401 0
129 464 54 2402 0
7 -210 217 2403 0
-368 -459 339 2404 0
233 -342 -213 2405 0
133 311 -120 2406 0
-464 314 -210 2407 0
-8 -61 180 2408 0
-359 -255 -404 2409 0
35 -426 354 2410 0
-285 460 -335 2411 0
15 -338 88 2412 0
469 498 310 2413 0
267 437 -406 2414 0
366 350 -349 2415 0
-393 -17 82 2416 0
4 480 39 2417 0
492 -10 -460 2418 0
165 249 -189 2419 0
-394 9 -201 2420 0
-426 138 47 2421 0
-456 407 44 2422 0
278 -401 52 2423 0
225 81 -439 2424 0
192 -433 -39 2425 0
17 390 212 2426 0
-428 173 -68 2427 0
-103 352 -303 2428 0
-89 -222 -450 2429 0
-101 488 313 2430 0
344 9 -99 2431 0
-111 107 -211 2432 0
-381 287 283 2433 0
-334 460 -19 2434 0
-40 437 -308 2435 0
-267 148 205 2436 0
306 154 109 2437 0
207 -341 -189 2438 0
-101 392 360 2439 0
-166 -41 267 2440 0
-224 246 347 2441 0
-228 361 -390 2442 0
-38 -264 -168 2443 0
174 -419 -315 2444 0
-247 -484 300 2445 0
176 82 -160 2446 0
-116 -63 -243 2447 0
-216 -286 -229 2448 0
462 -455 -381 2449 0
375 -214 -202 2450 0
-336 69 -278 2451 0
394 6 142 2452 0
141 -101 -456 2453 0
-258 -153 -260 2454 0
-268 486 -427 2455 0
-187 -294 96 2456 0
436 36 85 2457 0
-267 298 12 2458 0
-487 21 83 2459 0
-467 422 -185 2460 0
130 -287 414 2461 0
-439 -154 164 2462 0
-93 -143 -251 2463 0
420 456 -97 2464 0
409 -407 -15 2465 0
272 -179 250 2466 0
77 -336 -319 2467 0
-289 266 35 2468 0
225 107 -264 2469 0
-244 -248 16 2470 0
-311 -260 -380 2471 0
-291 399 -422 2472 0
-215 -336 -180 2473 0
179 -19 -69 2474 0
-448 -20 212 2475 0
-427 46 -253 2476 0
-483 188 87 2477 0
344 -139 407 2478 0
-241 -152 -381 2479 0
73 175 179 2480 0
-283 402 -409 2481 0
-138 -380 -494 2482 0
-389 121 287 2483 0
224 392 226 2484 0
214 -328 -210 2485 0
-23 325 73 2486 0
69 -83 260 2487 0
-469 -425 -472 2488 0
462 121 -276 2489 0
-418 -83 390 2490 0
162 -104 312 2491 0
-405 -123 179 2492 0
452 -240 -150 2493 0
199 -327 -8 2494 0
197 468 -445 2495 0
-490 474 -164 2496 0
-250 165 279 2497 0
299 -181 339 2498 0
-384 -253 418 2499 0
372 -208 363 2500 0
157 149 -155 2501 0
-371 -491 461 2502 0
-122 -43 -23 2503 0
-448 149 -230 2504 0
-329 256 -209 2505 0
-445 -315 -8 2506 0
-423 387 -1 2507 0
-313 353 -192 2508 0
-325 -393 412 2509 0
215 -224 -135 2510 0
273 278 -447 2511 0
438 -4 177 2512 0
162 323 73 2513 0
104 32 -51 2514 0
-58 425 437 2515 0
-286 439 235 2516 0
-108 375 -147 2517 0
111 187 -93 2518 0
348 325 169 2519 0
-349 498 422 2520 0
465 41 -474 2521 0
307 336 -314 2522 0
407 -413 -454 2523 0
189 253 276 2524 0
215 138 315 2525 0
-181 -397 -61 2526 0
100 -32 -22 2527 0
83 218 464 2528 0
-359 328 -55 2529 0
367 -359 390 2530 0
293 186 -124 2531 0
-390 -143 318 2532 0
-254 -225 29 2533 0
-46 -96 130 2534 0
485 392 57 2535 0
-44 -311 352 2536 0
52 -72 224 2537 0
135 318 -34 2538 0
-425 -320 -229 2539 0
-208 -118 159 2540 0
-275 -417 -305 2541 0
28 269 397 2542 0
-371 -43 148 2543 0
-210 25 340 2544 0
236 111 67 2545 0
-404 385 -298 2546 0
53 -163 -372 2547 0
305 429 -230 2548 0
-232 7 266 2549 0
377 -379 -476 2550 0
58 -435 -487 2551 0
318 -169 -321 2552 0
383 271 -319 2553 0
470 469 217 2554 0
-64 197 -319 2555 0
-433 455 -151 2556 0
-89 189 8 2557 0
395 22 -24 2558 0
-476 111 -32 2559 0
297 -135 269 2560 0
-94 449 -271 2561 0
-299 411 311 2562 0
-106 -234 44 2563 0
-351 416 -285 2564 0
471 62 189 2565 0
68 295 416 2566 0
460 234 -205 2567 0
84 462 225 2568 0
-4 149 -302 2569 0
142 42 -14 2570 0
-48 382 -217 2571 0
266 -150 430 2572 0
271 453 364 2573 0
160 153 -395 2574 0
-475 -404 469 2575 0
-82 494 150 2576 0
-276 447 52 2577 0
-108 -356 152 2578 0
86 149 347 2579 0
434 -335 -344 2580 0
-451 -251 -460 2581 0
473 347 304 2582 0
58 110 459 2583 0
421 239 -169 2584 0
260 391 -23 2585 0
-258 49 298 2586 0
-332 -71 317 2587 0
75 -428 -54 2588 0
-389 -333 -398 2589 0
162 -271 19 2590 0
98 433 -69 2591 0
22 78 -216 2592 0
-176 300 440 2593 0
94 -436 -287 2594 0
-156 -314 66 2595 0
-496 -72 -351 2596 0
192 -290 46 2597 0
342 -221 -142 2598 0
342 -486 -368 2599 0
-334 -399 20 2600 0
-23 451 177 2601 0
110 -183 -300 2602 0
313 61 272 2603 0
464 365 -139 2604 0
169 -246 -238 2605 0
53 -371 -439 2606 0
27 -391 417 2607 0
-55 -342 456 2608 0
-375 294 246 2609 0
393 336 484 2610 0
-346 377 416 2611 0
373 68 -180 2612 0
-442 473 -368 2613 0
326 103 494 2614 0
-440 -59 425 2615 0
-388 200 392 2616 0
-206 -251 37 2617 0
436 -70 -500 2618 0
230 -319 398 2619 0
-416 -356 229 2620 0
-315 75 201 2621 0
127 144 -325 2622 0
365 248 379 2623 0
-133 109 -404 2624 0
-478 408 92 2625 0
171 264 -43 2626 0
322 476 210 2627 0
421 435 124 2628 0
-86 -203 -378 2629 0
-1 461 -116 2630 0
-350 -376 -497 2631 0
499 390 -300 2632 0
56 -334 264 2633 0
301 88 64 2634 0
474 137 -462 2635 0
-112 -202 -317 2636 0
384 -24 295 2637 0
-160 -389 206 2638 0
342 346 481 2639 0
-8 -294 -325 2640 0
427 105 247 2641 0
-428 19 -61 2642 0
-262 189 417 2643 0
59 -3 -393 2644 0
497 20 -451 2645 0
371 436 93 2646 0
-336 -229 374 2647 0
-305 274 453 2648 0
-14 295 -305 2649 0
-445 -242 56 2650 0
