p cnf 2650 2150
496 -365 -298 501 0
-278 -322 -453 502 0
454 125 -418 503 0
-202 30 75 504 0
-152 331 488 505 0
216 378 -385 506 0
-245 -290 -124 507 0
491 -14 -74 508 0
-259 453 -298 509 0
-241 -442 13 510 0
-20 385 -227 511 0
-242 -112 18 512 0
414 93 129 513 0
-467 -400 -294 514 0
303 419 -9 515 0
286 65 500 516 0
-174 13 -370 517 0
-493 -93 268 518 0
-171 39 120 519 0
-32 229 -474 520 0
57 326 255 521 0
-344 -127 -484 522 0
-74 459 256 523 0
387 318 121 524 0
185 -445 -122 525 0
-451 -107 -411 526 0
174 -455 304 527 0
312 -81 -17 528 0
265 -107 -335 529 0
478 475 423 530 0
-107 395 89 531 0
-270 323 83 532 0
-434 -126 -322 533 0
-169 -196 94 534 0
-467 -91 -396 535 0
-152 156 395 536 0
-457 214 -219 537 0
124 254 497 538 0
-114 -184 477 539 0
-319 472 123 540 0
-394 -145 464 541 0
364 -435 -120 542 0
64 33 224 543 0
-175 -265 -222 544 0
374 -400 316 545 0
-479 268 57 546 0
-475 -10 -395 547 0
-489 157 60 548 0
-460 -77 -57 549 0
312 -316 -93 550 0
138 170 196 551 0
138 -236 -324 552 0
219 489 -129 553 0
404 284 -400 554 0
288 -249 -46 555 0
153 201 -355 556 0
-303 -344 -153 557 0
191 462 217 558 0
-264 378 -65 559 0
-279 -345 392 560 0
56 377 -15 561 0
-275 -413 465 562 0
-443 -234 157 563 0
-160 379 340 564 0
-73 28 240 565 0
401 117 226 566 0
-432 491 441 567 0
-36 -369 239 568 0
-440 -387 38 569 0
181 212 215 570 0
304 -474 -192 571 0
-221 -83 -93 572 0
-421 -400 -486 573 0
-322 264 63 574 0
12 -112 -373 575 0
264 -416 367 576 0
89 -407 357 577 0
-241 48 -389 578 0
63 -275 -122 579 0
19 336 -370 580 0
-111 199 127 581 0
27 -378 304 582 0
-322 -367 -345 583 0
-350 187 -188 584 0
-222 -206 -55 585 0
151 338 -418 586 0
-52 -274 286 587 0
-490 -166 443 588 0
433 409 -288 589 0
164 -121 294 590 0
156 186 311 591 0
132 -100 -11 592 0
147 -134 -12 593 0
461 471 259 594 0
495 -369 482 595 0
-209 -101 250 596 0
-6 147 -258 597 0
7 -270 -302 598 0
91 30 144 599 0
241 227 69 600 0
-295 116 -192 601 0
-35 -372 -121 602 0
323 453 244 603 0
460 119 -52 604 0
194 457 -487 605 0
-295 457 -299 606 0
171 219 134 607 0
-77 161 55 608 0
270 325 -78 609 0
-105 -100 -187 610 0
-300 85 68 611 0
93 -414 461 612 0
382 25 -257 613 0
206 215 69 614 0
189 452 72 615 0
336 -254 -199 616 0
-329 37 -209 617 0
45 137 10 618 0
-30 -164 -79 619 0
-16 279 331 620 0
420 -274 -21 621 0
-399 183 -174 622 0
246 210 -259 623 0
488 183 334 624 0
228 210 415 625 0
449 -240 15 626 0
115 -313 -368 627 0
-317 447 357 628 0
-438 -334 -273 629 0
402 -136 -260 630 0
-342 -279 -434 631 0
57 -351 95 632 0
-31 496 403 633 0
348 -288 -351 634 0
305 -54 53 635 0
177 -407 -285 636 0
93 22 60 637 0
-73 -154 114 638 0
355 233 123 639 0
100 -381 79 640 0
294 -279 487 641 0
214 -56 487 642 0
431 317 -371 643 0
-465 148 -156 644 0
16 -8 -495 645 0
280 -449 200 646 0
-384 -208 327 647 0
307 -420 -24 648 0
220 -236 -453 649 0
408 -63 141 650 0
455 303 -212 651 0
-38 8 270 652 0
267 -428 471 653 0
159 -187 -374 654 0
-428 296 309 655 0
-443 38 -495 656 0
396 -102 -103 657 0
230 431 -147 658 0
-350 -220 -175 659 0
-420 -370 -82 660 0
-234 -155 -280 661 0
334 169 -493 662 0
275 -256 -192 663 0
153 -156 -241 664 0
-475 218 -215 665 0
-82 68 -201 666 0
-387 -178 -4 667 0
464 266 -446 668 0
-99 -302 327 669 0
82 -447 -354 670 0
117 332 -26 671 0
8 136 400 672 0
-345 -74 -491 673 0
-462 -272 -35 674 0
-175 -9 -460 675 0
-92 109 -25 676 0
431 -466 -360 677 0
470 -432 -187 678 0
-376 30 28 679 0
17 32 -382 680 0
-98 -110 -334 681 0
407 -167 -404 682 0
-115 423 -451 683 0
-414 162 157 684 0
422 -162 20 685 0
293 -81 420 686 0
-123 -18 -205 687 0
455 44 -392 688 0
51 152 281 689 0
-116 15 -327 690 0
476 205 -361 691 0
-402 406 -422 692 0
-98 -379 372 693 0
-348 -20 -253 694 0
-50 279 -287 695 0
-390 439 -384 696 0
204 202 97 697 0
313 -258 -114 698 0
-427 386 219 699 0
55 191 -45 700 0
-276 423 167 701 0
402 89 256 702 0
-255 -169 -27 703 0
104 23 -409 704 0
-140 51 405 705 0
-164 -280 -298 706 0
-211 417 316 707 0
-473 -42 -62 708 0
-128 -108 -75 709 0
-412 -18 426 710 0
215 481 245 711 0
-369 -440 -149 712 0
-247 -436 262 713 0
254 113 266 714 0
399 -109 -391 715 0
-487 109 -229 716 0
281 461 -39 717 0
-116 32 -330 718 0
396 -117 54 719 0
-407 27 -24 720 0
409 276 30 721 0
-309 438 112 722 0
117 -399 -111 723 0
-435 117 -219 724 0
2 441 249 725 0
-351 442 280 726 0
-444 233 409 727 0
161 -139 351 728 0
472 455 451 729 0
233 -118 247 730 0
352 178 -498 731 0
325 -445 -262 732 0
-453 417 -407 733 0
456 339 -164 734 0
28 -26 -12 735 0
-442 142 15 736 0
259 270 389 737 0
-439 -411 -492 738 0
-125 500 463 739 0
-217 242 373 740 0
156 431 436 741 0
22 -157 119 742 0
-331 -179 431 743 0
160 -415 24 744 0
272 -337 345 745 0
-123 212 -218 746 0
-131 -53 262 747 0
302 -126 99 748 0
-450 -359 -211 749 0
191 392 297 750 0
365 30 -336 751 0
341 -407 38 752 0
-394 257 367 753 0
157 -272 80 754 0
44 264 -32 755 0
364 -160 234 756 0
356 278 434 757 0
-41 399 97 758 0
-45 -164 400 759 0
178 127 -67 760 0
-88 292 275 761 0
-16 -68 72 762 0
-341 260 -25 763 0
198 -65 -226 764 0
258 447 103 765 0
-427 4 -106 766 0
-473 -235 185 767 0
274 277 -143 768 0
78 -119 -26 769 0
-177 59 116 770 0
-202 75 327 771 0
-431 324 -22 772 0
230 483 369 773 0
83 -387 349 774 0
-60 -82 -264 775 0
-32 -379 -353 776 0
-200 351 61 777 0
447 -245 10 778 0
-52 -273 -88 779 0
338 -27 457 780 0
34 -431 264 781 0
298 -337 468 782 0
-263 -85 3 783 0
-159 -348 -201 784 0
366 105 -372 785 0
309 -478 65 786 0
-181 -360 468 787 0
-355 492 419 788 0
-302 68 406 789 0
-142 446 174 790 0
123 -348 -200 791 0
-97 89 -322 792 0
306 -296 20 793 0
-30 161 211 794 0
-259 190 284 795 0
-312 86 -354 796 0
-138 403 -336 797 0
237 198 -53 798 0
-499 -488 492 799 0
176 -347 94 800 0
239 -223 205 801 0
215 164 482 802 0
-394 -255 363 803 0
-98 -420 -245 804 0
261 142 336 805 0
99 343 450 806 0
18 106 294 807 0
-71 375 -203 808 0
-327 20 435 809 0
-211 -430 208 810 0
-212 -312 287 811 0
-327 -426 47 812 0
226 329 -354 813 0
-306 -48 -494 814 0
-168 188 58 815 0
-221 76 396 816 0
320 47 352 817 0
64 74 315 818 0
-238 -73 210 819 0
469 237 -130 820 0
170 62 -250 821 0
173 -202 -213 822 0
-410 -352 106 823 0
-223 -262 -115 824 0
-315 -478 -329 825 0
488 -417 79 826 0
267 493 -250 827 0
440 483 -77 828 0
228 -245 82 829 0
-483 -404 26 830 0
52 -137 5 831 0
367 253 -263 832 0
204 -270 -198 833 0
-90 -440 332 834 0
418 421 -342 835 0
-169 -282 6 836 0
-197 377 -469 837 0
-4 40 -440 838 0
-472 290 465 839 0
373 -70 -289 840 0
-216 20 280 841 0
-463 172 -244 842 0
328 296 449 843 0
-1 387 44 844 0
441 -349 493 845 0
191 374 -453 846 0
-301 -427 105 847 0
377 58 -352 848 0
178 -265 91 849 0
260 -97 397 850 0
-265 -115 -252 851 0
405 -437 488 852 0
241 90 -30 853 0
-404 469 290 854 0
436 68 63 855 0
-9 399 -469 856 0
-423 134 -118 857 0
375 328 163 858 0
-148 43 -369 859 0
-371 -267 279 860 0
1 -455 201 861 0
481 -368 87 862 0
-474 -219 -314 863 0
155 -324 375 864 0
393 -422 -392 865 0
153 416 -13 866 0
119 -388 84 867 0
161 -227 -24 868 0
325 -472 -15 869 0
423 217 -445 870 0
-370 -308 470 871 0
248 -81 -256 872 0
87 -445 -274 873 0
-394 -495 -341 874 0
-77 -227 318 875 0
421 -394 -125 876 0
432 -430 -380 877 0
-18 301 129 878 0
-54 -498 166 879 0
-205 -251 -171 880 0
-241 250 59 881 0
134 42 69 882 0
343 334 -145 883 0
70 196 117 884 0
-274 198 38 885 0
300 -468 -223 886 0
369 460 415 887 0
215 395 -274 888 0
263 274 -28 889 0
-152 -79 215 890 0
-222 332 353 891 0
-341 437 -415 892 0
-461 -490 362 893 0
182 87 93 894 0
-161 424 284 895 0
-397 321 -246 896 0
-450 -151 -263 897 0
85 -274 22 898 0
374 -271 106 899 0
348 357 -440 900 0
214 209 -156 901 0
-128 -246 -253 902 0
415 45 222 903 0
-413 -453 -346 904 0
-26 -213 464 905 0
107 -282 312 906 0
280 -59 50 907 0
-430 -199 -251 908 0
93 -112 24 909 0
-346 320 -306 910 0
143 -14 489 911 0
38 423 -56 912 0
422 161 126 913 0
-81 360 407 914 0
246 233 102 915 0
122 -101 184 916 0
405 -9 58 917 0
176 223 -329 918 0
143 -174 -133 919 0
-304 210 237 920 0
-388 298 457 921 0
-458 -404 -29 922 0
-56 -235 308 923 0
390 -62 -451 924 0
309 200 -269 925 0
3 274 457 926 0
369 420 7 927 0
-282 -321 -140 928 0
305 -87 -163 929 0
481 -238 34 930 0
483 -305 441 931 0
-261 318 311 932 0
-114 399 -349 933 0
-53 39 -406 934 0
62 220 -184 935 0
404 3 361 936 0
-470 -8 -91 937 0
-210 387 242 938 0
132 -83 -95 939 0
24 460 486 940 0
59 -479 421 941 0
249 -251 -98 942 0
-96 496 132 943 0
-228 39 386 944 0
-170 462 336 945 0
436 495 -447 946 0
109 221 134 947 0
48 255 74 948 0
435 -445 -490 949 0
252 -332 316 950 0
204 97 127 951 0
-81 -366 -472 952 0
245 -381 -499 953 0
382 -211 -302 954 0
67 213 -86 955 0
-158 -313 223 956 0
393 284 -124 957 0
-263 -183 -33 958 0
-445 375 -167 959 0
-239 6 -408 960 0
-472 -409 -202 961 0
256 -267 462 962 0
-331 434 182 963 0
146 176 4 964 0
-451 174 114 965 0
-240 -20 376 966 0
132 -416 74 967 0
178 -465 -291 968 0
-143 -335 -219 969 0
88 -1 -261 970 0
-74 64 430 971 0
-437 -494 291 972 0
-44 140 307 973 0
-401 -337 -128 974 0
-435 148 -107 975 0
-240 -160 164 976 0
335 432 -6 977 0
-448 167 251 978 0
-451 -447 212 979 0
250 322 27 980 0
172 -11 -231 981 0
264 4 -475 982 0
258 -377 244 983 0
-482 116 170 984 0
296 -298 -384 985 0
-295 -370 -18 986 0
-71 -370 -444 987 0
-56 169 472 988 0
-218 -38 -300 989 0
-264 -39 -344 990 0
186 -338 -354 991 0
-117 -26 448 992 0
11 187 31 993 0
9 -315 -288 994 0
-183 440 256 995 0
-475 65 227 996 0
-107 240 -216 997 0
-85 376 -457 998 0
-91 435 -28 999 0
319 123 199 1000 0
280 -179 -111 1001 0
399 111 -296 1002 0
-199 95 196 1003 0
-241 204 76 1004 0
498 420 275 1005 0
102 94 178 1006 0
-261 411 -477 1007 0
-49 65 -477 1008 0
-91 -325 270 1009 0
486 -298 -273 1010 0
225 -487 -274 1011 0
-91 429 411 1012 0
-61 -358 76 1013 0
198 210 460 1014 0
80 -463 373 1015 0
-215 397 353 1016 0
-125 225 -17 1017 0
212 181 -381 1018 0
-91 97 19 1019 0
158 -7 -355 1020 0
-98 -439 -29 1021 0
44 -153 403 1022 0
179 154 -1 1023 0
-57 369 334 1024 0
-363 128 117 1025 0
-43 16 336 1026 0
-201 -203 98 1027 0
-105 -263 470 1028 0
-389 468 -70 1029 0
149 264 374 1030 0
268 345 125 1031 0
447 436 300 1032 0
-421 410 -340 1033 0
39 497 287 1034 0
392 236 336 1035 0
115 277 -128 1036 0
-389 -248 111 1037 0
150 297 4 1038 0
-374 29 -429 1039 0
-398 476 -196 1040 0
471 -258 407 1041 0
49 319 394 1042 0
-354 21 115 1043 0
190 370 -11 1044 0
121 8 -300 1045 0
-488 358 -46 1046 0
-110 146 400 1047 0
-493 -336 -184 1048 0
90 263 -352 1049 0
38 -77 279 1050 0
322 340 -473 1051 0
-310 132 -371 1052 0
-97 430 -280 1053 0
-137 -375 309 1054 0
49 458 -150 1055 0
-108 -445 -300 1056 0
-50 448 264 1057 0
-232 -257 -104 1058 0
-222 217 -433 1059 0
202 185 57 1060 0
107 132 60 1061 0
231 387 -410 1062 0
267 146 150 1063 0
-291 487 -180 1064 0
466 -9 5 1065 0
144 -443 -119 1066 0
8 349 427 1067 0
2 21 -410 1068 0
-262 366 -107 1069 0
37 -81 195 1070 0
27 85 -53 1071 0
288 258 -189 1072 0
341 -342 -466 1073 0
121 -76 59 1074 0
-334 -73 -470 1075 0
363 313 -209 1076 0
110 199 285 1077 0
254 133 -389 1078 0
-13 -197 327 1079 0
-37 346 -74 1080 0
-224 -28 419 1081 0
-456 143 466 1082 0
461 -331 -414 1083 0
-207 -485 305 1084 0
212 -370 -291 1085 0
312 498 93 1086 0
-135 208 -294 1087 0
320 -135 147 1088 0
-469 441 356 1089 0
104 -8 271 1090 0
133 -44 199 1091 0
-57 -193 -317 1092 0
290 -185 -201 1093 0
35 56 286 1094 0
-39 -343 467 1095 0
-118 -250 222 1096 0
48 388 -449 1097 0
62 -453 -148 1098 0
-251 172 448 1099 0
74 86 -473 1100 0
-101 -471 -125 1101 0
268 -292 88 1102 0
-153 381 -229 1103 0
-32 419 -489 1104 0
390 -357 -371 1105 0
-94 -388 488 1106 0
466 46 -417 1107 0
190 296 -242 1108 0
-52 -398 -406 1109 0
316 24 385 1110 0
-211 187 -157 1111 0
-310 -38 -412 1112 0
248 -351 -496 1113 0
329 -458 -110 1114 0
-357 114 415 1115 0
-268 -261 31 1116 0
-147 334 65 1117 0
-435 -133 107 1118 0
-331 -450 262 1119 0
193 -305 241 1120 0
188 447 216 1121 0
302 -418 70 1122 0
-203 -241 -176 1123 0
172 332 -208 1124 0
295 302 -361 1125 0
43 -230 -169 1126 0
-237 -476 188 1127 0
340 -393 -283 1128 0
2 -484 -381 1129 0
-190 29 -459 1130 0
-236 -452 -246 1131 0
-315 381 -288 1132 0
438 421 148 1133 0
150 -404 -69 1134 0
-474 -341 143 1135 0
367 333 38 1136 0
-349 78 -222 1137 0
-368 340 -305 1138 0
288 -206 132 1139 0
-230 -161 -358 1140 0
-136 -18 374 1141 0
-462 -395 10 1142 0
60 56 498 1143 0
-74 -397 -3 1144 0
418 240 397 1145 0
97 492 120 1146 0
6 400 -309 1147 0
-392 -203 -484 1148 0
204 -396 -421 1149 0
-399 428 159 1150 0
57 280 31 1151 0
-241 306 -433 1152 0
198 -321 -75 1153 0
303 -139 425 1154 0
7 -3 272 1155 0
157 -229 -341 1156 0
415 -377 450 1157 0
249 -476 -80 1158 0
38 282 -143 1159 0
-439 349 278 1160 0
215 -299 49 1161 0
82 210 -125 1162 0
26 -148 317 1163 0
381 296 335 1164 0
-14 -434 226 1165 0
-277 283 -290 1166 0
195 -94 -449 1167 0
87 310 -447 1168 0
61 140 364 1169 0
-68 -51 403 1170 0
-182 264 -387 1171 0
108 440 -408 1172 0
-225 58 468 1173 0
230 -117 137 1174 0
-130 428 -227 1175 0
-153 220 -127 1176 0
-473 -300 262 1177 0
301 -9 110 1178 0
410 446 120 1179 0
487 -217 -121 1180 0
63 14 -203 1181 0
-228 -364 189 1182 0
-473 -57 -19 1183 0
-181 -249 389 1184 0
-59 91 362 1185 0
65 -386 -427 1186 0
-449 -281 -344 1187 0
243 423 -123 1188 0
472 -329 148 1189 0
-335 -131 248 1190 0
196 128 349 1191 0
231 63 392 1192 0
-229 268 -426 1193 0
-410 118 479 1194 0
436 -290 221 1195 0
254 393 10 1196 0
-324 358 -297 1197 0
-287 -409 173 1198 0
-119 -315 -137 1199 0
104 482 -70 1200 0
426 -66 -102 1201 0
17 -72 -189 1202 0
217 293 231 1203 0
165 203 -459 1204 0
106 299 333 1205 0
282 290 39 1206 0
-417 -415 -447 1207 0
-169 -415 35 1208 0
167 -154 -383 1209 0
283 -462 408 1210 0
203 -414 -360 1211 0
241 -270 101 1212 0
32 362 204 1213 0
-32 -10 -162 1214 0
191 154 -59 1215 0
-413 183 233 1216 0
66 -363 -302 1217 0
263 -302 -169 1218 0
370 -102 -392 1219 0
44 -79 -233 1220 0
-13 298 285 1221 0
297 197 -482 1222 0
197 -235 -270 1223 0
-277 -476 -257 1224 0
470 196 -465 1225 0
-186 -301 -336 1226 0
181 -266 -289 1227 0
-314 -408 -484 1228 0
199 144 -286 1229 0
85 -56 298 1230 0
-353 226 17 1231 0
-277 -248 -334 1232 0
-63 102 -83 1233 0
24 373 -26 1234 0
-392 -486 -79 1235 0
40 -312 -118 1236 0
-126 259 -489 1237 0
-397 380 -80 1238 0
-212 121 -459 1239 0
382 230 -11 1240 0
-330 126 349 1241 0
-101 450 205 1242 0
289 -104 379 1243 0
283 -480 276 1244 0
187 -466 -452 1245 0
358 -239 342 1246 0
-216 161 167 1247 0
315 160 -486 1248 0
-185 422 -131 1249 0
-89 35 103 1250 0
351 450 231 1251 0
-130 389 -208 1252 0
-272 353 -192 1253 0
429 -117 -290 1254 0
280 -243 27 1255 0
-412 364 413 1256 0
349 182 -251 1257 0
214 -247 -61 1258 0
-499 174 -141 1259 0
-125 -30 -365 1260 0
12 332 -20 1261 0
-383 140 -45 1262 0
135 78 -350 1263 0
36 314 422 1264 0
223 -206 -499 1265 0
-435 -436 459 1266 0
107 163 326 1267 0
81 48 264 1268 0
-161 -294 -191 1269 0
-47 -201 322 1270 0
-188 -20 -276 1271 0
-97 154 223 1272 0
-439 -175 -411 1273 0
-212 -27 213 1274 0
224 328 72 1275 0
78 -116 351 1276 0
321 289 -163 1277 0
486 250 -309 1278 0
22 86 60 1279 0
-41 -496 -75 1280 0
-387 178 468 1281 0
191 -456 -194 1282 0
-323 125 -126 1283 0
-176 430 420 1284 0
390 -250 -183 1285 0
397 -90 -230 1286 0
-471 195 392 1287 0
-171 351 17 1288 0
-72 -497 458 1289 0
-65 220 -14 1290 0
-86 218 -242 1291 0
147 430 40 1292 0
-205 344 -250 1293 0
-79 -378 384 1294 0
-90 149 55 1295 0
366 441 -297 1296 0
-309 -180 -376 1297 0
141 -380 -155 1298 0
-323 186 437 1299 0
-377 155 111 1300 0
46 -397 -379 1301 0
130 -314 -73 1302 0
-304 -183 470 1303 0
251 176 -209 1304 0
-369 424 119 1305 0
-28 -95 -172 1306 0
-460 -41 183 1307 0
-82 -474 377 1308 0
50 -318 334 1309 0
441 -206 350 1310 0
-392 -177 266 1311 0
-24 341 50 1312 0
435 128 -471 1313 0
391 -6 426 1314 0
180 -217 -385 1315 0
98 440 -374 1316 0
-372 106 229 1317 0
186 367 -125 1318 0
223 -229 15 1319 0
385 -228 -268 1320 0
-456 -84 -287 1321 0
354 166 137 1322 0
-336 19 193 1323 0
-230 -326 -262 1324 0
473 -132 358 1325 0
111 239 291 1326 0
-289 -155 5 1327 0
422 489 -481 1328 0
-137 -332 349 1329 0
-335 431 318 1330 0
-414 -317 -451 1331 0
183 108 -220 1332 0
282 463 -217 1333 0
-93 -79 255 1334 0
427 -474 -254 1335 0
-119 98 500 1336 0
-405 395 180 1337 0
-109 -157 221 1338 0
160 -379 -469 1339 0
-51 335 -248 1340 0
-151 137 347 1341 0
304 5 432 1342 0
-400 247 -380 1343 0
108 -233 146 1344 0
160 -470 266 1345 0
182 -131 48 1346 0
-368 -436 -343 1347 0
246 59 -414 1348 0
71 -431 -290 1349 0
18 438 387 1350 0
337 146 219 1351 0
-36 -20 436 1352 0
226 -370 -411 1353 0
-9 -321 44 1354 0
-229 293 -49 1355 0
423 167 -25 1356 0
270 -23 276 1357 0
66 -340 -189 1358 0
-246 137 -243 1359 0
-467 135 357 1360 0
206 -183 323 1361 0
361 -246 -115 1362 0
-374 54 -396 1363 0
374 -480 335 1364 0
305 -351 -212 1365 0
160 238 65 1366 0
107 205 15 1367 0
172 185 -497 1368 0
465 111 -225 1369 0
28 -40 326 1370 0
-25 454 238 1371 0
-365 -176 118 1372 0
468 481 213 1373 0
474 -99 321 1374 0
24 257 6 1375 0
-446 335 -382 1376 0
-33 166 112 1377 0
-67 -63 326 1378 0
-95 -238 -412 1379 0
-177 -147 433 1380 0
-389 -446 374 1381 0
-385 361 350 1382 0
-250 -217 106 1383 0
470 380 420 1384 0
112 -116 249 1385 0
71 -352 488 1386 0
-159 -287 -342 1387 0
6 280 -397 1388 0
144 159 71 1389 0
-212 209 304 1390 0
-435 212 -359 1391 0
344 -110 -289 1392 0
109 -1 -300 1393 0
331 73 70 1394 0
398 39 427 1395 0
-9 10 330 1396 0
-315 -249 500 1397 0
-340 -180 -273 1398 0
114 -124 125 1399 0
-417 -467 -371 1400 0
96 -410 47 1401 0
338 -429 -45 1402 0
242 -409 -329 1403 0
32 51 -222 1404 0
-149 -290 -33 1405 0
-294 -97 312 1406 0
-277 132 -11 1407 0
496 269 -207 1408 0
460 197 -161 1409 0
-375 -212 376 1410 0
-191 96 -435 1411 0
449 -93 -49 1412 0
-135 -266 -262 1413 0
374 210 245 1414 0
-122 230 -430 1415 0
205 -391 143 1416 0
357 -134 190 1417 0
-301 109 338 1418 0
-20 -406 -447 1419 0
-365 166 -30 1420 0
108 383 497 1421 0
441 -100 64 1422 0
-451 -28 219 1423 0
-212 138 231 1424 0
483 -241 -429 1425 0
-444 382 -27 1426 0
-12 146 360 1427 0
108 170 279 1428 0
-217 -133 243 1429 0
295 -171 -401 1430 0
-56 496 203 1431 0
323 -385 388 1432 0
44 60 345 1433 0
173 274 1 1434 0
142 -186 473 1435 0
356 -96 115 1436 0
26 196 166 1437 0
260 -163 -14 1438 0
-59 489 226 1439 0
-10 455 44 1440 0
454 -311 -327 1441 0
-36 259 -337 1442 0
289 243 471 1443 0
-391 -347 130 1444 0
-427 496 -473 1445 0
100 -292 -9 1446 0
106 494 173 1447 0
-481 199 205 1448 0
-137 -16 447 1449 0
-150 253 18 1450 0
459 -374 -421 1451 0
-90 -469 434 1452 0
-428 345 25 1453 0
-132 -422 256 1454 0
266 376 -420 1455 0
-259 -353 -293 1456 0
41 -25 146 1457 0
371 -246 277 1458 0
217 263 370 1459 0
478 -18 -385 1460 0
-171 -64 199 1461 0
-68 298 457 1462 0
-323 -156 16 1463 0
133 449 -338 1464 0
-473 -499 -287 1465 0
-79 40 234 1466 0
-452 447 114 1467 0
374 198 -305 1468 0
-476 -261 382 1469 0
-441 383 -268 1470 0
127 475 -333 1471 0
-285 -177 268 1472 0
111 32 438 1473 0
141 -197 -285 1474 0
-350 -198 -269 1475 0
382 -296 -96 1476 0
8 -347 374 1477 0
431 -314 -276 1478 0
235 -277 428 1479 0
-488 -38 402 1480 0
369 -379 -411 1481 0
476 338 -263 1482 0
157 -8 447 1483 0
188 241 -466 1484 0
250 114 -222 1485 0
-113 -173 -50 1486 0
-379 266 -352 1487 0
427 -380 -492 1488 0
-400 497 -267 1489 0
60 411 499 1490 0
215 275 -485 1491 0
-161 -16 440 1492 0
266 -336 -229 1493 0
340 386 -98 1494 0
260 -393 -265 1495 0
367 -196 -147 1496 0
485 348 230 1497 0
268 -299 262 1498 0
198 100 -144 1499 0
149 392 472 1500 0
-153 472 279 1501 0
-34 -149 -476 1502 0
-205 321 487 1503 0
10 -65 424 1504 0
349 291 -244 1505 0
4 -258 75 1506 0
163 -293 330 1507 0
122 -225 494 1508 0
52 277 -382 1509 0
-90 352 80 1510 0
-282 155 406 1511 0
-55 -70 69 1512 0
166 390 -288 1513 0
223 106 -261 1514 0
204 473 66 1515 0
-360 -290 182 1516 0
-376 132 367 1517 0
-297 -398 496 1518 0
176 443 13 1519 0
142 -270 14 1520 0
236 453 -194 1521 0
253 -385 377 1522 0
217 290 -23 1523 0
61 479 -179 1524 0
308 439 31 1525 0
116 362 227 1526 0
169 334 -158 1527 0
342 -99 364 1528 0
-241 321 140 1529 0
-425 243 -365 1530 0
263 -445 -313 1531 0
49 -371 -433 1532 0
272 -188 238 1533 0
373 -319 -351 1534 0
-121 48 255 1535 0
-479 -412 469 1536 0
-32 454 198 1537 0
-218 -296 389 1538 0
-246 186 120 1539 0
398 -45 277 1540 0
-482 -307 -212 1541 0
144 192 378 1542 0
-476 211 87 1543 0
-469 176 -483 1544 0
-350 470 193 1545 0
-292 289 460 1546 0
453 393 -338 1547 0
233 -345 45 1548 0
474 53 97 1549 0
352 492 -143 1550 0
-332 101 -320 1551 0
-147 -95 10 1552 0
-128 -291 491 1553 0
306 -95 -349 1554 0
-465 116 -366 1555 0
419 -87 384 1556 0
272 361 -310 1557 0
-442 179 -42 1558 0
-278 -460 -247 1559 0
-479 125 -256 1560 0
42 430 -423 1561 0
-67 168 -80 1562 0
171 -312 241 1563 0
453 -403 488 1564 0
-109 120 60 1565 0
-100 102 -41 1566 0
99 -232 332 1567 0
-335 311 -113 1568 0
-487 344 -59 1569 0
-173 115 401 1570 0
210 -360 -47 1571 0
424 243 469 1572 0
249 -347 365 1573 0
-452 -240 59 1574 0
128 276 323 1575 0
173 -247 388 1576 0
-330 -428 395 1577 0
-174 -194 -118 1578 0
-322 -307 -448 1579 0
-88 457 -284 1580 0
-145 -60 266 1581 0
127 400 -178 1582 0
-486 -378 -122 1583 0
487 -234 -279 1584 0
-333 -400 -201 1585 0
338 -405 -131 1586 0
-148 32 119 1587 0
458 40 404 1588 0
325 275 324 1589 0
-212 -374 -434 1590 0
-210 -294 434 1591 0
-408 27 -73 1592 0
404 -499 -1 1593 0
301 470 -203 1594 0
470 -111 33 1595 0
321 -69 -270 1596 0
266 87 342 1597 0
-462 238 271 1598 0
395 -477 -186 1599 0
-398 453 -27 1600 0
-267 -83 203 1601 0
201 -271 -53 1602 0
486 214 -319 1603 0
-263 -123 -379 1604 0
-156 -492 82 1605 0
-151 -322 342 1606 0
339 -58 -36 1607 0
-334 37 381 1608 0
-457 -119 -72 1609 0
-161 -267 -262 1610 0
478 378 248 1611 0
-419 110 -460 1612 0
-369 -488 111 1613 0
-12 -86 -343 1614 0
330 -405 -292 1615 0
233 -96 -374 1616 0
200 -375 21 1617 0
-221 21 -105 1618 0
333 230 -284 1619 0
-34 442 273 1620 0
-212 455 -257 1621 0
120 -286 -445 1622 0
296 170 465 1623 0
-205 -430 346 1624 0
148 218 357 1625 0
356 466 448 1626 0
196 -202 -215 1627 0
398 341 35 1628 0
-30 -156 241 1629 0
427 303 -367 1630 0
308 109 -272 1631 0
101 -450 359 1632 0
-230 -467 -301 1633 0
-354 -410 221 1634 0
193 -351 328 1635 0
321 422 410 1636 0
-193 -170 249 1637 0
-443 153 -180 1638 0
418 235 341 1639 0
294 336 -35 1640 0
-131 375 -170 1641 0
233 -93 -327 1642 0
162 172 -181 1643 0
430 190 90 1644 0
461 -53 418 1645 0
133 -408 400 1646 0
-365 183 -434 1647 0
-352 -269 370 1648 0
28 -6 -453 1649 0
143 318 240 1650 0
356 443 -212 1651 0
-43 336 498 1652 0
484 -48 -377 1653 0
153 392 -442 1654 0
220 384 226 1655 0
-273 -384 -324 1656 0
330 -165 60 1657 0
-433 -99 -204 1658 0
-462 -36 -230 1659 0
-368 265 238 1660 0
474 -18 442 1661 0
392 -388 -322 1662 0
-468 -271 220 1663 0
-2 23 -214 1664 0
-256 259 -173 1665 0
497 201 -152 1666 0
-150 -169 194 1667 0
-267 32 342 1668 0
329 -441 -241 1669 0
427 -304 358 1670 0
258 -441 419 1671 0
-238 -244 241 1672 0
81 25 153 1673 0
260 -308 295 1674 0
-83 423 -427 1675 0
-112 -106 304 1676 0
284 388 -323 1677 0
176 -490 62 1678 0
-87 94 253 1679 0
-411 -236 18 1680 0
-407 -343 394 1681 0
185 -288 484 1682 0
302 223 187 1683 0
-426 -169 315 1684 0
-277 485 137 1685 0
226 308 -123 1686 0
49 -344 429 1687 0
-99 464 253 1688 0
-56 105 -495 1689 0
428 340 411 1690 0
-497 -394 -149 1691 0
-169 -411 167 1692 0
-348 -225 384 1693 0
342 188 -140 1694 0
238 99 -288 1695 0
-388 -281 -145 1696 0
-216 -422 74 1697 0
-327 339 196 1698 0
-499 259 482 1699 0
259 367 405 1700 0
-229 279 -235 1701 0
-266 -90 -152 1702 0
162 152 -416 1703 0
98 -351 -252 1704 0
-99 416 70 1705 0
37 131 410 1706 0
212 -470 -330 1707 0
-67 490 -182 1708 0
258 477 293 1709 0
-160 -244 -162 1710 0
125 336 291 1711 0
-305 -500 -195 1712 0
-266 -414 381 1713 0
439 137 -121 1714 0
-341 42 284 1715 0
-127 -28 -24 1716 0
320 -96 478 1717 0
-216 -332 420 1718 0
488 450 277 1719 0
183 373 -368 1720 0
381 -447 224 1721 0
-345 -31 212 1722 0
379 -146 229 1723 0
-369 360 181 1724 0
106 252 69 1725 0
132 -162 -381 1726 0
116 -432 -300 1727 0
103 23 -236 1728 0
319 -235 -290 1729 0
-98 -102 296 1730 0
-73 -218 386 1731 0
137 -130 -209 1732 0
-370 336 -52 1733 0
63 363 15 1734 0
-304 182 -25 1735 0
-455 -136 341 1736 0
397 -317 450 1737 0
-96 -120 -307 1738 0
-160 123 -447 1739 0
-59 -183 362 1740 0
356 39 -47 1741 0
16 344 -114 1742 0
484 -186 -393 1743 0
-159 224 -431 1744 0
354 445 313 1745 0
354 -192 412 1746 0
-457 -169 -246 1747 0
-465 -40 315 1748 0
374 -146 93 1749 0
339 233 36 1750 0
-456 -172 161 1751 0
467 -335 314 1752 0
-127 -292 25 1753 0
280 -431 -309 1754 0
166 271 -189 1755 0
-199 161 61 1756 0
-96 165 46 1757 0
-6 160 -192 1758 0
353 -312 -444 1759 0
-50 -491 -41 1760 0
48 -372 497 1761 0
244 66 -183 1762 0
-19 146 277 1763 0
-288 259 105 1764 0
-310 261 45 1765 0
-159 231 -105 1766 0
-2 -464 -230 1767 0
489 -434 -461 1768 0
372 -186 500 1769 0
348 -179 -467 1770 0
-431 265 -175 1771 0
-89 -178 -58 1772 0
9 365 205 1773 0
402 135 224 1774 0
105 371 -338 1775 0
-186 -204 419 1776 0
-334 397 -436 1777 0
328 -433 -420 1778 0
112 -30 -252 1779 0
-90 -428 16 1780 0
244 -192 328 1781 0
483 480 -328 1782 0
471 -443 93 1783 0
-255 -63 -97 1784 0
181 -407 -173 1785 0
173 -382 400 1786 0
-232 -451 -255 1787 0
-296 -251 -281 1788 0
150 -141 270 1789 0
-112 -436 408 1790 0
285 400 74 1791 0
147 -55 -314 1792 0
261 27 -434 1793 0
211 473 346 1794 0
-378 -297 379 1795 0
216 155 6 1796 0
190 -468 457 1797 0
-93 260 -179 1798 0
-451 -401 27 1799 0
-25 391 -190 1800 0
-425 -368 -57 1801 0
-209 -475 148 1802 0
-186 183 318 1803 0
207 237 143 1804 0
59 287 354 1805 0
-212 293 -236 1806 0
3 317 381 1807 0
-100 144 394 1808 0
494 17 -395 1809 0
468 -491 -32 1810 0
-395 282 -362 1811 0
221 -50 -487 1812 0
284 22 -382 1813 0
-230 -42 -89 1814 0
-300 355 409 1815 0
321 350 -13 1816 0
8 -241 -403 1817 0
-438 -478 369 1818 0
396 -470 345 1819 0
201 59 57 1820 0
294 -442 107 1821 0
-15 -401 -402 1822 0
51 -2 -35 1823 0
50 -428 362 1824 0
-488 -276 108 1825 0
395 39 330 1826 0
-260 146 -253 1827 0
-110 143 -61 1828 0
429 386 -136 1829 0
77 189 -83 1830 0
-38 -388 -182 1831 0
-373 -492 -70 1832 0
-437 -417 -397 1833 0
-200 -391 -5 1834 0
-346 380 147 1835 0
54 -122 -166 1836 0
266 65 370 1837 0
428 -496 205 1838 0
478 -262 -261 1839 0
-339 325 87 1840 0
-35 -243 280 1841 0
-321 319 348 1842 0
241 155 186 1843 0
-67 -468 -11 1844 0
329 1 172 1845 0
-205 282 -450 1846 0
-162 -66 286 1847 0
-454 -124 52 1848 0
-367 -417 170 1849 0
164 -366 -104 1850 0
498 -126 499 1851 0
7 476 26 1852 0
-277 280 -120 1853 0
-180 133 223 1854 0
149 329 -19 1855 0
295 -90 -218 1856 0
-218 -466 -402 1857 0
-283 -266 -98 1858 0
-130 -366 190 1859 0
132 443 186 1860 0
-472 60 140 1861 0
-93 305 -400 1862 0
-373 -476 -14 1863 0
319 190 286 1864 0
1 309 424 1865 0
-218 -346 240 1866 0
-344 -322 -384 1867 0
-84 -373 -123 1868 0
-356 265 -438 1869 0
-172 35 165 1870 0
-393 -495 -104 1871 0
444 489 469 1872 0
323 -262 -263 1873 0
-335 175 120 1874 0
-241 -396 -298 1875 0
-384 -248 -334 1876 0
159 301 -104 1877 0
-268 -302 -395 1878 0
-149 429 -185 1879 0
60 173 354 1880 0
-5 104 -276 1881 0
-326 71 268 1882 0
-147 87 -157 1883 0
-141 435 -310 1884 0
-152 218 -8 1885 0
89 458 -277 1886 0
478 -406 202 1887 0
171 -492 74 1888 0
-126 258 -418 1889 0
-347 246 156 1890 0
408 333 -154 1891 0
393 -360 215 1892 0
149 270 456 1893 0
-456 -22 -25 1894 0
-86 -401 428 1895 0
311 201 -109 1896 0
269 103 -462 1897 0
-120 159 -154 1898 0
-38 -247 254 1899 0
93 -242 15 1900 0
-387 36 -416 1901 0
325 158 377 1902 0
52 149 86 1903 0
475 168 -444 1904 0
-240 447 270 1905 0
79 -303 -395 1906 0
-448 142 -50 1907 0
-140 -106 280 1908 0
476 -168 -208 1909 0
-195 221 -390 1910 0
477 -318 -276 1911 0
97 100 -464 1912 0
353 270 -482 1913 0
-175 259 211 1914 0
-443 -312 232 1915 0
295 -237 308 1916 0
324 408 328 1917 0
-259 119 333 1918 0
-372 490 478 1919 0
-25 149 101 1920 0
-27 -53 -397 1921 0
420 381 303 1922 0
193 316 85 1923 0
225 48 176 1924 0
418 -472 113 1925 0
17 -493 78 1926 0
150 -308 481 1927 0
-76 193 82 1928 0
404 50 357 1929 0
385 -295 -58 1930 0
439 238 -462 1931 0
47 -352 56 1932 0
234 337 289 1933 0
10 37 -98 1934 0
3 -463 -497 1935 0
266 -340 242 1936 0
360 -107 426 1937 0
495 149 232 1938 0
-462 185 -341 1939 0
-378 -174 224 1940 0
369 66 453 1941 0
-190 -231 395 1942 0
414 200 215 1943 0
-447 -468 18 1944 0
-276 -194 230 1945 0
297 -383 172 1946 0
171 158 -229 1947 0
-184 114 223 1948 0
285 -311 155 1949 0
-467 484 -441 1950 0
-26 217 -30 1951 0
-114 -401 437 1952 0
83 88 -37 1953 0
29 -408 436 1954 0
90 307 -462 1955 0
57 -352 66 1956 0
61 -448 445 1957 0
260 305 55 1958 0
-156 135 -291 1959 0
267 230 146 1960 0
63 198 -466 1961 0
496 389 312 1962 0
-326 39 12 1963 0
496 43 -180 1964 0
-179 79 473 1965 0
16 -9 95 1966 0
254 -461 123 1967 0
-319 243 12 1968 0
-396 -400 -224 1969 0
262 -381 -455 1970 0
-118 -307 289 1971 0
-388 -96 -105 1972 0
151 -450 467 1973 0
-388 492 -36 1974 0
95 40 -5 1975 0
258 -52 243 1976 0
12 428 85 1977 0
75 374 -87 1978 0
409 175 417 1979 0
-442 216 -359 1980 0
304 52 378 1981 0
-394 -285 -185 1982 0
48 93 -240 1983 0
126 -458 286 1984 0
100 280 488 1985 0
166 -121 -24 1986 0
68 297 -15 1987 0
-222 -87 -151 1988 0
371 -362 -386 1989 0
-206 441 -163 1990 0
-194 -478 -115 1991 0
-95 96 -351 1992 0
-406 277 429 1993 0
-223 148 -378 1994 0
93 -37 -97 1995 0
451 197 11 1996 0
313 -171 163 1997 0
94 -401 421 1998 0
404 -136 -207 1999 0
249 445 165 2000 0
118 496 -268 2001 0
415 -376 -19 2002 0
145 -206 467 2003 0
-470 -243 356 2004 0
-228 -83 54 2005 0
378 166 3 2006 0
-226 -67 -19 2007 0
225 -300 -424 2008 0
-476 458 384 2009 0
-190 112 46 2010 0
-141 23 200 2011 0
-275 -261 -208 2012 0
-291 272 397 2013 0
-89 451 -386 2014 0
49 171 397 2015 0
126 7 373 2016 0
332 323 -158 2017 0
-460 104 23 2018 0
-270 -359 -73 2019 0
-19 147 306 2020 0
-185 261 160 2021 0
338 127 -186 2022 0
-112 66 -388 2023 0
-221 -434 226 2024 0
-152 159 -399 2025 0
-160 -56 421 2026 0
52 142 197 2027 0
280 -346 287 2028 0
98 -374 319 2029 0
-261 178 -272 2030 0
-102 427 299 2031 0
385 -343 -493 2032 0
-152 -97 12 2033 0
-104 294 -77 2034 0
198 -339 -471 2035 0
-417 -397 -299 2036 0
-451 356 -230 2037 0
-203 48 253 2038 0
-315 322 168 2039 0
-191 369 -50 2040 0
-168 134 434 2041 0
49 78 424 2042 0
267 23 -413 2043 0
401 -57 -276 2044 0
-32 165 -95 2045 0
404 129 -175 2046 0
485 209 -332 2047 0
-33 367 236 2048 0
-238 108 -352 2049 0
-35 -461 480 2050 0
-315 468 250 2051 0
-151 107 -93 2052 0
146 424 366 2053 0
-315 -339 -62 2054 0
-350 23 -135 2055 0
-19 445 -41 2056 0
479 497 70 2057 0
-494 -260 89 2058 0
334 198 -303 2059 0
52 35 -410 2060 0
150 155 -294 2061 0
-364 -263 437 2062 0
-382 -424 34 2063 0
108 24 465 2064 0
316 332 78 2065 0
-98 -356 -280 2066 0
-224 -255 176 2067 0
-218 147 -136 2068 0
-412 -185 -115 2069 0
287 -323 -107 2070 0
-441 -499 -126 2071 0
410 227 -314 2072 0
-23 -96 -17 2073 0
-91 41 297 2074 0
-375 -416 -198 2075 0
-108 -366 -237 2076 0
66 421 488 2077 0
-362 -285 -449 2078 0
-151 -189 37 2079 0
58 -442 -136 2080 0
-299 395 -136 2081 0
-93 401 -416 2082 0
5 -219 -368 2083 0
-248 -245 96 2084 0
142 304 -465 2085 0
-239 499 -269 2086 0
-416 -324 -308 2087 0
186 -162 -264 2088 0
-9 -242 -63 2089 0
198 -418 -451 2090 0
405 -298 4 2091 0
291 -145 -446 2092 0
-142 434 -110 2093 0
304 55 -371 2094 0
25 158 -201 2095 0
-398 -69 39 2096 0
-143 -394 442 2097 0
-293 -193 180 2098 0
230 -356 -492 2099 0
-442 471 -414 2100 0
-118 342 -185 2101 0
-463 10 171 2102 0
169 465 176 2103 0
-142 -319 -138 2104 0
307 500 366 2105 0
-4 345 -333 2106 0
277 -230 -81 2107 0
-42 -254 -474 2108 0
67 459 -363 2109 0
39 -431 -382 2110 0
-404 -89 71 2111 0
390 140 -353 2112 0
-216 204 -258 2113 0
168 -16 154 2114 0
6 -151 303 2115 0
-394 396 173 2116 0
13 242 -396 2117 0
-464 123 -227 2118 0
38 -122 -231 2119 0
282 110 -139 2120 0
412 -340 477 2121 0
-432 226 -449 2122 0
-133 146 436 2123 0
406 17 29 2124 0
-345 -255 198 2125 0
197 -161 -63 2126 0
221 100 491 2127 0
-317 -403 199 2128 0
169 -195 -35 2129 0
339 166 134 2130 0
318 457 283 2131 0
-118 439 -475 2132 0
-312 -281 -128 2133 0
-99 -453 231 2134 0
-19 -427 470 2135 0
-123 -361 -321 2136 0
-480 -341 358 2137 0
361 373 -123 2138 0
281 -390 439 2139 0
-378 147 275 2140 0
16 -413 448 2141 0
-460 -95 228 2142 0
495 -71 348 2143 0
9 77 -480 2144 0
-273 230 -96 2145 0
-431 163 -140 2146 0
-267 260 355 2147 0
443 164 -414 2148 0
494 422 148 2149 0
200 184 -370 2150 0
-95 500 -459 2151 0
441 75 258 2152 0
-268 -393 173 2153 0
-390 -359 -218 2154 0
-180 198 207 2155 0
-65 -230 400 2156 0
225 484 474 2157 0
-38 146 291 2158 0
337 -355 -248 2159 0
-471 324 -107 2160 0
405 359 -481 2161 0
-138 -145 -106 2162 0
228 -124 -49 2163 0
303 42 -61 2164 0
430 236 444 2165 0
164 337 197 2166 0
-11 258 136 2167 0
8 -138 322 2168 0
188 40 -255 2169 0
76 288 -390 2170 0
-303 -188 79 2171 0
8 360 264 2172 0
-277 154 -52 2173 0
173 372 -327 2174 0
-21 -472 -381 2175 0
349 268 -178 2176 0
-480 -428 -269 2177 0
190 -209 -488 2178 0
-20 -82 -192 2179 0
-356 479 295 2180 0
-66 444 305 2181 0
39 -372 -3 2182 0
-134 8 168 2183 0
360 -280 -88 2184 0
-143 497 23 2185 0
-182 302 -225 2186 0
-342 -61 -433 2187 0
-268 480 420 2188 0
188 143 326 2189 0
-283 -20 328 2190 0
-315 355 -31 2191 0
-200 -402 -357 2192 0
-271 205 -128 2193 0
-23 -60 396 2194 0
-276 -352 42 2195 0
439 -76 -36 2196 0
-374 -149 424 2197 0
-348 159 8 2198 0
371 -410 55 2199 0
379 440 -54 2200 0
-375 58 -119 2201 0
-396 -77 68 2202 0
415 244 90 2203 0
-368 -243 200 2204 0
477 -143 -79 2205 0
-250 157 153 2206 0
-451 192 163 2207 0
-71 26 -451 2208 0
428 -235 28 2209 0
4 -87 -494 2210 0
-296 121 220 2211 0
144 -9 -163 2212 0
422 -480 187 2213 0
417 -324 -151 2214 0
181 -308 -162 2215 0
-375 -134 210 2216 0
46 -257 -221 2217 0
-290 333 139 2218 0
-349 -455 -304 2219 0
-181 -478 -359 2220 0
-218 -23 179 2221 0
7 -257 -302 2222 0
-314 272 -155 2223 0
-258 28 370 2224 0
229 313 -365 2225 0
-322 -298 -201 2226 0
-442 -41 -100 2227 0
27 -135 -399 2228 0
495 287 205 2229 0
231 208 -464 2230 0
250 -134 492 2231 0
-111 485 -290 2232 0
420 -171 -52 2233 0
-127 -211 455 2234 0
27 231 3 2235 0
-181 137 -132 2236 0
-348 480 96 2237 0
-40 -354 -274 2238 0
-479 -92 350 2239 0
295 -113 217 2240 0
221 -281 53 2241 0
-137 -212 -306 2242 0
-295 71 -364 2243 0
199 301 493 2244 0
-12 -198 489 2245 0
143 -277 -488 2246 0
290 -124 -428 2247 0
-221 -301 -193 2248 0
-177 38 -226 2249 0
241 27 98 2250 0
-222 357 289 2251 0
160 -248 69 2252 0
-204 286 160 2253 0
-185 -367 447 2254 0
-331 469 -249 2255 0
437 62 -21 2256 0
-94 -470 150 2257 0
-235 452 67 2258 0
129 96 216 2259 0
377 -281 147 2260 0
-470 -435 423 2261 0
-270 -391 -408 2262 0
407 -77 -391 2263 0
-276 433 -296 2264 0
-244 -302 -8 2265 0
-298 -374 -428 2266 0
26 364 324 2267 0
291 -124 308 2268 0
-40 252 -192 2269 0
356 -276 -43 2270 0
354 -301 -265 2271 0
421 251 445 2272 0
243 -24 63 2273 0
-217 493 -357 2274 0
28 -85 351 2275 0
439 -379 138 2276 0
466 429 -283 2277 0
-214 -319 -15 2278 0
36 398 -219 2279 0
-440 -116 -172 2280 0
98 -62 399 2281 0
496 271 -67 2282 0
-28 293 181 2283 0
158 182 -132 2284 0
220 59 -257 2285 0
304 -335 365 2286 0
5 -162 -123 2287 0
-207 -135 -155 2288 0
-326 89 -128 2289 0
-466 -408 487 2290 0
-22 -144 150 2291 0
-55 340 454 2292 0
165 -261 93 2293 0
99 109 351 2294 0
-461 362 45 2295 0
17 412 -457 2296 0
425 -118 161 2297 0
-2 -49 -130 2298 0
-423 -466 7 2299 0
380 -209 191 2300 0
-304 55 362 2301 0
93 105 -430 2302 0
217 374 102 2303 0
191 170 -59 2304 0
321 -364 66 2305 0
-175 -336 156 2306 0
-200 -134 -193 2307 0
271 316 -439 2308 0
-23 -258 -339 2309 0
333 -295 455 2310 0
463 61 -261 2311 0
-279 386 -74 2312 0
-273 142 264 2313 0
-336 99 -478 2314 0
-157 382 -302 2315 0
43 -299 -397 2316 0
222 -227 290 2317 0
-120 -171 -89 2318 0
134 407 123 2319 0
299 238 399 2320 0
-110 329 450 2321 0
-496 -220 -113 2322 0
87 36 -353 2323 0
461 332 -487 2324 0
241 218 471 2325 0
74 -79 129 2326 0
37 73 -149 2327 0
-46 73 343 2328 0
-378 114 -242 2329 0
-175 223 -190 2330 0
-186 -499 -495 2331 0
418 -441 -329 2332 0
-173 -190 -146 2333 0
303 -500 269 2334 0
391 -456 486 2335 0
96 -62 -297 2336 0
149 276 469 2337 0
-146 64 70 2338 0
383 168 86 2339 0
284 421 336 2340 0
38 -180 483 2341 0
-182 366 365 2342 0
333 -277 313 2343 0
18 -205 -233 2344 0
242 37 26 2345 0
370 400 275 2346 0
-222 279 83 2347 0
-345 433 442 2348 0
216 341 288 2349 0
-369 -104 431 2350 0
368 360 135 2351 0
-5 -36 -46 2352 0
-57 -311 -43 2353 0
-105 75 -422 2354 0
-37 -430 488 2355 0
159 -48 -100 2356 0
479 -232 447 2357 0
-210 147 464 2358 0
10 229 -180 2359 0
-7 29 -387 2360 0
-443 -101 136 2361 0
-311 -488 156 2362 0
-82 -109 -384 2363 0
-16 316 70 2364 0
-130 250 -136 2365 0
-238 193 -472 2366 0
25 183 81 2367 0
-316 124 -24 2368 0
-232 -240 423 2369 0
-228 -265 141 2370 0
-329 -60 211 2371 0
-493 -149 185 2372 0
-487 494 442 2373 0
-66 436 44 2374 0
-393 -460 -27 2375 0
-217 -481 -19 2376 0
-494 -251 -319 2377 0
-476 300 -96 2378 0
396 2 440 2379 0
216 -430 181 2380 0
-391 13 -242 2381 0
-205 -488 -481 2382 0
-217 -214 -269 2383 0
110 -439 243 2384 0
-442 -110 238 2385 0
-149 453 -276 2386 0
120 68 -174 2387 0
33 474 -174 2388 0
453 -437 470 2389 0
228 -281 38 2390 0
-398 8 -284 2391 0
-219 403 -387 2392 0
438 60 -174 2393 0
233 -148 -125 2394 0
-302 152 -340 2395 0
-26 234 -307 2396 0
-312 175 163 2397 0
436 236 237 2398 0
-428 32 225 2399 0
-474 272 170 2400 0
214 454 -163 2401 0
446 185 485 2402 0
279 402 33 2403 0
32 61 -452 2404 0
317 159 453 2405 0
-194 157 247 2406 0
-320 53 -271 2407 0
-400 -135 474 2408 0
-278 -211 -340 2409 0
204 317 -391 2410 0
186 -462 -338 2411 0
42 -117 -439 2412 0
-273 418 208 2413 0
-32 -388 -350 2414 0
-224 426 410 2415 0
-481 126 -377 2416 0
129 -65 -41 2417 0
399 162 -327 2418 0
-455 -173 -449 2419 0
124 -132 45 2420 0
-495 345 47 2421 0
-329 296 -38 2422 0
-468 -428 -223 2423 0
91 252 254 2424 0
207 -233 -208 2425 0
-308 -443 95 2426 0
176 -64 -91 2427 0
-124 495 -53 2428 0
-205 405 193 2429 0
-486 286 -308 2430 0
162 168 -254 2431 0
158 419 -429 2432 0
84 357 -321 2433 0
-401 -312 362 2434 0
-296 325 499 2435 0
492 -97 -341 2436 0
-291 118 -157 2437 0
219 147 -43 2438 0
171 -275 -253 2439 0
-334 -151 107 2440 0
387 -345 -400 2441 0
140 -484 -426 2442 0
-105 -448 53 2443 0
70 157 -417 2444 0
-348 -177 259 2445 0
127 -126 -220 2446 0
-187 224 295 2447 0
-43 480 -194 2448 0
251 -339 -205 2449 0
250 375 169 2450 0
-437 321 -358 2451 0
383 -463 201 2452 0
-151 161 -91 2453 0
-364 304 -192 2454 0
-81 -77 127 2455 0
-392 184 423 2456 0
-159 385 486 2457 0
102 -209 -58 2458 0
92 -348 84 2459 0
-296 101 -4 2460 0
-490 171 291 2461 0
474 54 104 2462 0
-42 22 -15 2463 0
179 6 228 2464 0
-29 451 -169 2465 0
144 311 56 2466 0
-402 64 -363 2467 0
-444 -305 107 2468 0
94 -406 -365 2469 0
238 270 -168 2470 0
-116 464 259 2471 0
97 392 499 2472 0
399 488 -404 2473 0
-28 -48 249 2474 0
445 -75 266 2475 0
-58 83 -237 2476 0
70 -129 200 2477 0
-157 301 113 2478 0
77 -471 190 2479 0
-413 -302 106 2480 0
38 -107 -121 2481 0
175 -71 -206 2482 0
106 252 -439 2483 0
315 90 478 2484 0
-301 -359 135 2485 0
181 260 280 2486 0
383 139 52 2487 0
138 -120 -81 2488 0
134 443 328 2489 0
220 224 -325 2490 0
483 130 296 2491 0
270 -320 -152 2492 0
344 113 214 2493 0
-367 120 18 2494 0
-110 -124 -345 2495 0
393 246 439 2496 0
-380 325 474 2497 0
-123 417 -482 2498 0
-235 111 -159 2499 0
-175 28 448 2500 0
316 -88 138 2501 0
-138 220 -215 2502 0
-1 -86 -136 2503 0
45 103 -460 2504 0
235 228 300 2505 0
31 -76 -131 2506 0
435 -260 -333 2507 0
-173 -319 240 2508 0
216 8 -9 2509 0
182 451 -231 2510 0
190 -31 140 2511 0
-99 176 356 2512 0
54 384 294 2513 0
-222 468 386 2514 0
-457 263 53 2515 0
-343 194 49 2516 0
468 -333 450 2517 0
500 437 74 2518 0
419 65 -165 2519 0
-463 371 -33 2520 0
-170 -12 -169 2521 0
388 -77 -40 2522 0
-375 -183 258 2523 0
-262 286 -263 2524 0
68 -428 154 2525 0
49 -284 -135 2526 0
191 -42 47 2527 0
-433 204 461 2528 0
-27 150 -356 2529 0
427 -436 -94 2530 0
469 377 -119 2531 0
-467 -451 216 2532 0
-197 -141 -383 2533 0
167 -115 204 2534 0
467 -65 347 2535 0
-353 -183 -355 2536 0
-472 416 132 2537 0
-252 186 372 2538 0
-467 -402 -353 2539 0
-377 -329 59 2540 0
444 -404 -166 2541 0
443 500 482 2542 0
96 148 -133 2543 0
8 -253 -384 2544 0
398 -417 -251 2545 0
-216 413 -139 2546 0
353 -78 403 2547 0
376 -457 -338 2548 0
470 -51 -425 2549 0
23 -217 -194 2550 0
62 14 21 2551 0
-431 -266 -246 2552 0
444 -203 189 2553 0
-17 112 227 2554 0
117 260 -126 2555 0
474 -368 -406 2556 0
-48 56 -141 2557 0
-241 -422 -111 2558 0
277 -274 216 2559 0
413 -115 -231 2560 0
161 383 -312 2561 0
264 121 -374 2562 0
-422 -227 -463 2563 0
430 -61 131 2564 0
-412 92 132 2565 0
222 -121 -282 2566 0
-333 75 -340 2567 0
-318 88 -311 2568 0
-138 432 460 2569 0
-235 -267 -313 2570 0
-68 -133 495 2571 0
-135 347 -319 2572 0
41 -249 -285 2573 0
74 303 -370 2574 0
-14 458 408 2575 0
-213 299 -108 2576 0
225 301 -63 2577 0
80 61 -245 2578 0
-442 -411 -343 2579 0
263 -323 -300 2580 0
-235 230 -353 2581 0
-356 -154 -393 2582 0
-277 98 -313 2583 0
-141 -442 -32 2584 0
-176 -82 -382 2585 0
-70 322 218 2586 0
129 -481 -242 2587 0
-79 430 176 2588 0
486 432 -257 2589 0
-217 417 -405 2590 0
95 326 403 2591 0
-340 125 -448 2592 0
126 -488 -22 2593 0
-388 -97 -13 2594 0
-312 -349 -31 2595 0
366 -10 -423 2596 0
149 53 76 2597 0
-231 -168 226 2598 0
-272 -109 -60 2599 0
311 238 282 2600 0
-196 -133 490 2601 0
-302 128 -447 2602 0
393 -123 475 2603 0
187 -339 -447 2604 0
-446 -388 -310 2605 0
-494 411 -401 2606 0
317 262 -359 2607 0
464 -266 -329 2608 0
116 241 -245 2609 0
-259 -366 128 2610 0
-365 -126 -320 2611 0
-128 -365 -117 2612 0
-39 145 72 2613 0
-461 -249 -237 2614 0
-437 386 273 2615 0
-235 -421 -139 2616 0
31 417 -315 2617 0
-324 169 -78 2618 0
339 117 346 2619 0
65 -102 -55 2620 0
320 -45 -194 2621 0
32 46 333 2622 0
15 318 407 2623 0
-91 72 -489 2624 0
-231 240 441 2625 0
57 369 11 2626 0
186 -235 -357 2627 0
-393 -25 -33 2628 0
-141 146 -60 2629 0
-184 5 -298 2630 0
96 -328 -66 2631 0
328 148 223 2632 0
327 -114 172 2633 0
-214 -168 317 2634 0
10 -295 -176 2635 0
-123 -286 440 2636 0
-181 -318 -250 2637 0
-126 -167 -51 2638 0
-468 471 183 2639 0
84 -118 243 2640 0
-497 190 418 2641 0
-247 -460 -304 2642 0
250 -272 -330 2643 0
-477 -271 -414 2644 0
-210 -457 275 2645 0
-16 -131 384 2646 0
-483 164 199 2647 0
-96 68 280 2648 0
-94 -497 -288 2649 0
108 -263 185 2650 0
