p cnf 2650 2150
-184 417 71 501 0
-456 156 385 502 0
-489 137 -189 503 0
-176 437 371 504 0
-67 -289 448 505 0
-24 351 -116 506 0
276 489 179 507 0
86 229 -407 508 0
-42 2 -27 509 0
197 187 310 510 0
-418 463 119 511 0
326 -279 289 512 0
-497 -250 142 513 0
-148 166 379 514 0
58 -163 150 515 0
210 -8 -16 516 0
141 -1 367 517 0
45 264 -275 518 0
-59 212 173 519 0
-194 -257 46 520 0
-478 -141 -460 521 0
-434 124 382 522 0
-491 -385 205 523 0
336 -452 303 524 0
-73 -173 43 525 0
-320 494 286 526 0
162 -102 170 527 0
247 -33 -315 528 0
486 311 178 529 0
-386 194 -466 530 0
24 20 117 531 0
399 449 215 532 0
-151 262 23 533 0
123 27 -296 534 0
404 478 333 535 0
-228 464 -74 536 0
-478 -470 -448 537 0
35 150 -122 538 0
-382 136 -499 539 0
342 -400 158 540 0
-412 77 -456 541 0
188 300 -299 542 0
317 -259 7 543 0
-101 -27 212 544 0
-8 -431 77 545 0
184 136 308 546 0
-256 -199 -406 547 0
-347 344 -232 548 0
-225 -66 -204 549 0
-223 256 -138 550 0
-219 194 -150 551 0
157 -465 -263 552 0
-153 310 230 553 0
-442 -366 61 554 0
307 -101 75 555 0
155 91 19 556 0
382 -298 469 557 0
57 -60 -236 558 0
211 116 78 559 0
176 253 -138 560 0
172 -179 378 561 0
107 -187 -24 562 0
405 -84 232 563 0
275 222 -361 564 0
-160 -187 -152 565 0
-84 -140 -98 566 0
-119 -70 -58 567 0
359 -306 464 568 0
67 -76 237 569 0
346 -70 -228 570 0
-109 335 -372 571 0
180 -59 365 572 0
-408 339 -353 573 0
-212 -306 19 574 0
-457 386 113 575 0
-120 147 -181 576 0
-255 -280 415 577 0
281 -77 -358 578 0
-415 412 -222 579 0
-417 83 -475 580 0
-139 -29 -242 581 0
-475 400 -420 582 0
108 111 -207 583 0
462 -400 -313 584 0
129 247 -451 585 0
-282 477 229 586 0
102 -158 201 587 0
92 -456 207 588 0
-342 337 250 589 0
-140 -79 172 590 0
-493 -308 -131 591 0
-14 239 -338 592 0
-208 209 -391 593 0
269 -91 -42 594 0
-185 -367 -287 595 0
-285 129 -120 596 0
452 -76 -390 597 0
235 -35 318 598 0
-323 94 -378 599 0
-219 61 477 600 0
391 489 367 601 0
77 431 448 602 0
-69 -491 440 603 0
-109 483 13 604 0
-355 28 124 605 0
133 286 4 606 0
-392 -426 -458 607 0
-344 -313 -64 608 0
264 -359 378 609 0
205 379 -191 610 0
-300 -309 -327 611 0
355 450 163 612 0
-461 -263 -149 613 0
-318 -376 -497 614 0
-457 -486 -58 615 0
-326 301 417 616 0
498 -225 162 617 0
149 150 157 618 0
-45 -493 -478 619 0
-78 -356 -235 620 0
251 23 216 621 0
217 237 288 622 0
14 483 481 623 0
-397 180 -500 624 0
410 248 432 625 0
211 -255 -326 626 0
-144 -433 158 627 0
-309 358 -22 628 0
-429 191 -265 629 0
-227 -73 -288 630 0
-480 284 -167 631 0
89 -157 -351 632 0
157 -472 199 633 0
-14 263 325 634 0
152 16 199 635 0
385 56 -51 636 0
-493 42 381 637 0
61 -122 440 638 0
180 -99 -139 639 0
79 15 345 640 0
-171 156 -440 641 0
-381 -133 -8 642 0
-315 431 9 643 0
-12 211 448 644 0
-490 -81 -302 645 0
155 -40 -452 646 0
105 173 -103 647 0
56 70 474 648 0
74 -117 -493 649 0
6 -432 118 650 0
-333 70 393 651 0
-94 333 278 652 0
-391 -423 -224 653 0
253 -413 -2 654 0
-314 -102 146 655 0
-62 52 -87 656 0
-27 172 -92 657 0
296 269 36 658 0
-241 -478 259 659 0
363 -8 -287 660 0
-354 -355 -67 661 0
-450 -394 192 662 0
172 -466 203 663 0
-206 -269 346 664 0
195 -116 168 665 0
55 -51 226 666 0
-217 -226 -321 667 0
58 -362 404 668 0
381 462 452 669 0
-451 -60 403 670 0
332 -22 240 671 0
278 357 229 672 0
-77 -39 285 673 0
335 -286 -361 674 0
-391 153 -175 675 0
-300 147 344 676 0
368 270 255 677 0
-275 -84 -207 678 0
278 -307 -439 679 0
288 262 64 680 0
253 -207 164 681 0
105 -418 -330 682 0
-435 -290 182 683 0
-126 -134 458 684 0
-145 -50 423 685 0
413 396 -245 686 0
-311 132 -348 687 0
-355 361 106 688 0
-390 -436 -147 689 0
-90 -36 -303 690 0
-184 -254 -292 691 0
-50 -176 -316 692 0
406 303 -238 693 0
-100 198 -292 694 0
-119 -143 -362 695 0
443 321 38 696 0
-449 66 47 697 0
-118 67 401 698 0
380 -241 405 699 0
-33 361 -422 700 0
472 312 -290 701 0
205 -29 -130 702 0
-38 -165 -54 703 0
166 -120 200 704 0
-153 -296 287 705 0
-216 437 307 706 0
38 217 -325 707 0
-259 151 -267 708 0
186 84 -410 709 0
449 -51 -267 710 0
484 -195 -261 711 0
-178 135 -170 712 0
-375 -179 433 713 0
-111 316 -195 714 0
277 330 34 715 0
-29 390 162 716 0
349 237 408 717 0
135 -221 353 718 0
-101 484 230 719 0
148 -164 404 720 0
-401 -211 456 721 0
1 332 -59 722 0
125 -242 -14 723 0
-158 94 47 724 0
301 427 -237 725 0
206 -92 229 726 0
-119 -53 -62 727 0
302 468 384 728 0
397 -88 -188 729 0
-353 -355 -219 730 0
-493 384 -198 731 0
318 -190 80 732 0
108 451 -34 733 0
182 494 -418 734 0
-171 -119 248 735 0
323 209 -172 736 0
47 -343 -198 737 0
-108 -90 243 738 0
-240 172 272 739 0
-226 155 218 740 0
-261 -367 306 741 0
-62 -304 201 742 0
-379 -388 -395 743 0
-91 -65 151 744 0
248 -418 92 745 0
-182 -325 479 746 0
346 -484 129 747 0
137 -355 -442 748 0
-376 -102 -59 749 0
131 370 414 750 0
24 425 195 751 0
35 174 359 752 0
491 132 -141 753 0
-255 -72 389 754 0
237 -101 55 755 0
175 -138 135 756 0
-320 -211 440 757 0
76 303 396 758 0
431 477 -264 759 0
-361 358 212 760 0
76 310 95 761 0
215 141 27 762 0
27 415 129 763 0
-73 155 -244 764 0
-384 -295 -242 765 0
360 -363 -159 766 0
238 -4 363 767 0
-440 -426 427 768 0
-306 343 -411 769 0
-334 -19 -299 770 0
1 -178 77 771 0
32 129 -343 772 0
378 67 314 773 0
-332 275 -128 774 0
161 -154 -346 775 0
-48 -272 -8 776 0
439 -357 134 777 0
471 -354 -86 778 0
-307 -9 303 779 0
-249 -26 196 780 0
184 -138 421 781 0
-103 -499 -369 782 0
-382 -346 363 783 0
-255 217 375 784 0
220 -119 45 785 0
364 -114 -277 786 0
-172 -432 -448 787 0
429 -294 391 788 0
-64 -267 -190 789 0
482 77 5 790 0
432 -443 416 791 0
-278 226 90 792 0
431 299 262 793 0
395 -366 -62 794 0
-249 -116 72 795 0
-80 -424 -452 796 0
167 -356 -60 797 0
-186 56 -442 798 0
463 71 60 799 0
-220 396 -498 800 0
-229 249 280 801 0
154 362 145 802 0
-75 469 66 803 0
127 211 119 804 0
289 439 -253 805 0
-315 -408 -22 806 0
150 -366 -358 807 0
-188 140 343 808 0
386 -151 -44 809 0
328 -274 -217 810 0
-406 337 260 811 0
370 73 -232 812 0
68 189 -281 813 0
-469 -147 -114 814 0
227 -181 39 815 0
-454 -343 -125 816 0
172 -421 301 817 0
153 -474 -241 818 0
-333 98 463 819 0
-486 48 353 820 0
423 -26 324 821 0
-227 -7 -124 822 0
400 -148 248 823 0
-154 -461 -497 824 0
88 -44 -349 825 0
58 -206 207 826 0
-495 -152 -311 827 0
-420 -108 95 828 0
-297 426 -292 829 0
448 129 233 830 0
-271 -135 1 831 0
-344 -175 254 832 0
-199 -262 42 833 0
-26 -139 -313 834 0
345 -465 -65 835 0
-300 61 -311 836 0
-465 -356 -68 837 0
-461 468 498 838 0
490 -302 215 839 0
-51 -50 -163 840 0
-238 -389 -460 841 0
-492 -313 284 842 0
-112 -195 -287 843 0
107 -283 -229 844 0
-389 -292 312 845 0
323 -148 149 846 0
265 -237 82 847 0
53 -254 -381 848 0
-188 -91 -242 849 0
187 -399 429 850 0
-414 191 -137 851 0
155 432 -29 852 0
-39 450 40 853 0
179 -99 -93 854 0
352 -153 17 855 0
170 -352 -194 856 0
-277 -231 111 857 0
-300 360 304 858 0
-452 -257 14 859 0
299 -205 -399 860 0
-422 126 -247 861 0
-211 -123 -192 862 0
-169 -60 282 863 0
110 -173 -265 864 0
-40 355 363 865 0
-122 424 312 866 0
394 211 183 867 0
303 174 -75 868 0
-47 -308 464 869 0
332 -317 111 870 0
-195 -325 -45 871 0
-36 238 417 872 0
-334 94 -382 873 0
317 22 73 874 0
-484 347 -62 875 0
496 -310 -138 876 0
463 -342 53 877 0
-247 -487 -442 878 0
-445 173 -388 879 0
128 -239 -288 880 0
-111 -176 -186 881 0
-357 -127 -446 882 0
-61 349 438 883 0
309 -68 272 884 0
-175 415 406 885 0
149 -468 -114 886 0
4 -111 -474 887 0
-430 214 216 888 0
-92 -460 181 889 0
-299 441 105 890 0
-252 120 -310 891 0
484 377 389 892 0
-303 496 473 893 0
454 -455 -338 894 0
-499 -343 -189 895 0
392 53 -90 896 0
271 230 -466 897 0
-173 168 -28 898 0
-360 -462 -335 899 0
-295 56 -248 900 0
-219 -93 62 901 0
9 395 -418 902 0
-137 -249 284 903 0
-363 72 364 904 0
432 214 6 905 0
-360 -148 99 906 0
-244 213 -207 907 0
-9 326 -215 908 0
-167 -147 4 909 0
-314 12 -155 910 0
129 -20 -325 911 0
-141 32 -373 912 0
-44 285 362 913 0
410 184 -270 914 0
-64 -116 -144 915 0
17 -72 47 916 0
-253 -135 -185 917 0
-85 -202 320 918 0
415 458 -403 919 0
-89 -214 119 920 0
278 393 162 921 0
97 -338 -396 922 0
382 -333 248 923 0
-420 90 120 924 0
351 -13 -84 925 0
488 67 37 926 0
474 439 -14 927 0
-492 -268 180 928 0
102 301 404 929 0
255 81 -337 930 0
55 -294 -327 931 0
-96 393 244 932 0
381 365 286 933 0
85 276 -460 934 0
343 170 433 935 0
266 460 -218 936 0
-419 327 -93 937 0
-290 201 -153 938 0
293 449 -219 939 0
32 -30 -87 940 0
98 -348 -185 941 0
-393 -113 274 942 0
-88 -95 -117 943 0
122 124 -473 944 0
377 151 277 945 0
-317 411 436 946 0
-141 -169 -375 947 0
-465 -349 258 948 0
-342 -416 496 949 0
-253 118 14 950 0
33 384 168 951 0
-325 339 -178 952 0
204 -170 267 953 0
-145 371 -381 954 0
385 -254 -359 955 0
-180 164 107 956 0
208 -93 -219 957 0
81 -360 -280 958 0
-119 -339 -47 959 0
-67 489 -327 960 0
453 -412 466 961 0
376 447 -397 962 0
215 -126 -102 963 0
95 -266 91 964 0
285 83 60 965 0
123 -452 -385 966 0
102 290 307 967 0
-233 -131 8 968 0
-448 -210 345 969 0
-176 374 48 970 0
-253 237 -387 971 0
-290 -228 153 972 0
96 -112 89 973 0
367 493 305 974 0
103 -483 -13 975 0
269 264 284 976 0
156 498 98 977 0
-21 101 22 978 0
-38 -470 -307 979 0
-496 194 -138 980 0
-461 387 -300 981 0
69 -231 126 982 0
-153 116 -267 983 0
-261 -385 -64 984 0
-349 -158 -317 985 0
-285 -72 69 986 0
-250 -225 64 987 0
-178 -359 118 988 0
141 270 272 989 0
250 265 -169 990 0
-489 -194 -384 991 0
333 175 -205 992 0
61 -294 -141 993 0
310 395 149 994 0
369 382 72 995 0
-103 -483 -267 996 0
306 134 -246 997 0
-226 487 222 998 0
68 -221 -230 999 0
487 213 138 1000 0
-409 443 240 1001 0
282 328 270 1002 0
-238 -315 -497 1003 0
126 46 465 1004 0
59 -47 62 1005 0
30 292 462 1006 0
306 -355 86 1007 0
180 25 -237 1008 0
-168 -315 -219 1009 0
185 -372 73 1010 0
-79 -471 -473 1011 0
472 221 306 1012 0
42 426 -126 1013 0
-427 293 -235 1014 0
-207 -219 351 1015 0
461 118 -460 1016 0
-323 115 -61 1017 0
-182 397 373 1018 0
-89 4 29 1019 0
-462 -277 -498 1020 0
-308 353 104 1021 0
281 277 -378 1022 0
373 -493 -365 1023 0
-455 452 -15 1024 0
490 -483 88 1025 0
-361 -461 -112 1026 0
197 53 94 1027 0
-189 -196 57 1028 0
168 -41 364 1029 0
-360 -400 499 1030 0
492 181 346 1031 0
-74 136 -312 1032 0
48 -412 401 1033 0
326 -478 -40 1034 0
345 273 401 1035 0
464 -292 -249 1036 0
30 -124 177 1037 0
239 -310 194 1038 0
351 -419 9 1039 0
353 363 298 1040 0
-238 499 -413 1041 0
-159 -232 -58 1042 0
276 -357 -375 1043 0
-141 -311 231 1044 0
-440 407 -273 1045 0
302 243 31 1046 0
-327 109 -284 1047 0
127 -421 -342 1048 0
-341 291 457 1049 0
492 155 -468 1050 0
-468 438 335 1051 0
-390 -18 -146 1052 0
228 483 -199 1053 0
-311 -40 -198 1054 0
-301 447 353 1055 0
-35 360 188 1056 0
145 33 -232 1057 0
219 -287 229 1058 0
48 -128 193 1059 0
401 -359 -43 1060 0
-205 343 -199 1061 0
198 91 -349 1062 0
-431 -294 -194 1063 0
-10 464 164 1064 0
123 -190 -268 1065 0
156 157 -378 1066 0
-349 -122 104 1067 0
-268 78 -128 1068 0
103 -158 -46 1069 0
438 -114 467 1070 0
12 -473 173 1071 0
-154 367 269 1072 0
-415 191 98 1073 0
11 367 -335 1074 0
231 188 -460 1075 0
-441 -298 -398 1076 0
174 488 -446 1077 0
237 143 -451 1078 0
-339 -208 -355 1079 0
268 -363 402 1080 0
438 241 -243 1081 0
-361 -187 -71 1082 0
-423 -129 211 1083 0
133 -84 -358 1084 0
473 3 -318 1085 0
142 -342 -461 1086 0
-45 378 6 1087 0
328 26 -406 1088 0
314 -183 -372 1089 0
-223 -94 -190 1090 0
-173 -11 298 1091 0
50 446 -227 1092 0
-216 83 -334 1093 0
-253 -456 -347 1094 0
191 -223 169 1095 0
-81 -202 434 1096 0
355 214 -378 1097 0
278 -105 -91 1098 0
-176 303 -41 1099 0
-459 308 -172 1100 0
183 73 89 1101 0
-339 492 277 1102 0
355 -422 217 1103 0
492 381 -411 1104 0
-209 220 -366 1105 0
-179 -320 326 1106 0
-214 -411 -285 1107 0
-23 -344 8 1108 0
5 -179 -465 1109 0
13 107 427 1110 0
497 -85 -452 1111 0
-234 -270 325 1112 0
-149 -60 350 1113 0
-399 -32 -359 1114 0
-148 -221 -50 1115 0
330 287 390 1116 0
28 -69 411 1117 0
-30 91 -269 1118 0
-463 -13 382 1119 0
490 -152 -280 1120 0
-351 -276 -418 1121 0
322 87 314 1122 0
119 123 141 1123 0
-448 -346 106 1124 0
14 87 -474 1125 0
403 289 -70 1126 0
-218 420 -414 1127 0
-369 -289 245 1128 0
-379 -241 -34 1129 0
241 179 -309 1130 0
-271 495 -66 1131 0
106 -47 447 1132 0
96 -46 -57 1133 0
229 -84 -488 1134 0
-394 -7 488 1135 0
-338 15 365 1136 0
78 409 331 1137 0
-94 390 -453 1138 0
355 447 -72 1139 0
490 -477 -453 1140 0
-308 -349 -33 1141 0
325 449 -337 1142 0
255 372 1 1143 0
245 404 -177 1144 0
-327 398 -15 1145 0
247 -114 223 1146 0
-102 467 156 1147 0
-367 -170 119 1148 0
-48 359 -334 1149 0
127 477 -211 1150 0
-452 216 -225 1151 0
-235 -281 337 1152 0
-204 310 38 1153 0
-153 -493 308 1154 0
165 174 -222 1155 0
99 -24 -131 1156 0
-64 -111 -354 1157 0
-185 352 -337 1158 0
-449 -393 4 1159 0
-32 158 -100 1160 0
-42 191 351 1161 0
1 275 342 1162 0
24 -324 -398 1163 0
-222 -110 -256 1164 0
275 -420 217 1165 0
338 -491 260 1166 0
186 -68 -330 1167 0
135 -272 472 1168 0
-121 -228 -23 1169 0
-13 127 87 1170 0
170 112 -493 1171 0
261 -135 317 1172 0
-302 -261 -454 1173 0
-379 -333 -51 1174 0
313 -325 -297 1175 0
455 135 -184 1176 0
-233 -88 -82 1177 0
138 -159 431 1178 0
-471 330 122 1179 0
13 -363 -165 1180 0
-391 500 145 1181 0
340 206 -66 1182 0
98 70 -344 1183 0
102 -169 262 1184 0
193 -222 -326 1185 0
146 71 -469 1186 0
401 -249 283 1187 0
-419 -122 -359 1188 0
442 360 397 1189 0
27 459 -116 1190 0
115 219 263 1191 0
224 324 -190 1192 0
62 -365 -448 1193 0
-296 392 -139 1194 0
-500 -195 -443 1195 0
-35 349 -428 1196 0
414 72 269 1197 0
284 -396 -123 1198 0
-48 126 291 1199 0
25 263 49 1200 0
5 -57 -382 1201 0
-174 -430 -438 1202 0
446 -423 -107 1203 0
391 274 373 1204 0
-173 189 78 1205 0
-96 -258 392 1206 0
55 -393 401 1207 0
-247 285 437 1208 0
-362 22 182 1209 0
444 -54 76 1210 0
-33 -13 268 1211 0
-51 -241 433 1212 0
370 495 -372 1213 0
430 -86 -378 1214 0
143 -437 -331 1215 0
-430 -67 431 1216 0
389 -295 11 1217 0
-233 -232 437 1218 0
454 301 -158 1219 0
-282 -188 79 1220 0
-377 230 71 1221 0
153 -69 184 1222 0
-105 -469 495 1223 0
-170 -334 -8 1224 0
281 -280 89 1225 0
-95 115 -128 1226 0
107 -56 -443 1227 0
-218 -226 -472 1228 0
-110 -417 361 1229 0
315 -85 -90 1230 0
19 -436 -393 1231 0
128 160 224 1232 0
29 -293 -385 1233 0
-117 431 468 1234 0
-106 -355 200 1235 0
-185 165 -451 1236 0
114 119 144 1237 0
126 45 -413 1238 0
274 -92 -419 1239 0
-335 -292 -71 1240 0
247 -486 -132 1241 0
-144 -105 355 1242 0
289 182 -416 1243 0
-252 177 431 1244 0
103 -12 -197 1245 0
119 -134 98 1246 0
409 -180 20 1247 0
73 -458 231 1248 0
440 -32 268 1249 0
-387 215 47 1250 0
362 -237 -202 1251 0
-249 -352 -191 1252 0
54 267 -344 1253 0
191 228 138 1254 0
-325 401 -198 1255 0
-63 410 -64 1256 0
-8 -250 405 1257 0
481 319 394 1258 0
-389 -216 -319 1259 0
170 -362 28 1260 0
495 105 -55 1261 0
146 -242 314 1262 0
81 -192 -24 1263 0
13 135 -425 1264 0
-419 -368 347 1265 0
-97 -154 -368 1266 0
343 30 127 1267 0
426 -311 317 1268 0
132 97 -38 1269 0
-313 235 352 1270 0
183 281 338 1271 0
-216 176 490 1272 0
-2 -452 -54 1273 0
262 207 495 1274 0
-449 -418 -387 1275 0
-366 138 27 1276 0
-418 415 186 1277 0
-174 123 -77 1278 0
477 142 458 1279 0
2 -272 -63 1280 0
260 -383 -242 1281 0
262 290 -147 1282 0
-222 -440 -269 1283 0
118 466 489 1284 0
-280 242 160 1285 0
-448 -216 143 1286 0
360 202 134 1287 0
-388 -250 22 1288 0
145 178 310 1289 0
156 -319 -7 1290 0
-129 -362 -9 1291 0
-246 -54 385 1292 0
186 -422 479 1293 0
178 -202 -353 1294 0
-173 -41 294 1295 0
411 -178 -470 1296 0
-163 412 379 1297 0
-143 375 298 1298 0
-236 183 207 1299 0
236 202 145 1300 0
133 276 -456 1301 0
-439 -285 -252 1302 0
-150 148 223 1303 0
133 191 -77 1304 0
-404 -440 -85 1305 0
46 -86 -464 1306 0
-57 -109 -307 1307 0
-81 42 24 1308 0
-38 260 65 1309 0
-40 -26 -434 1310 0
-85 390 -45 1311 0
-88 457 -19 1312 0
-474 -363 -83 1313 0
423 -44 -330 1314 0
471 251 -88 1315 0
25 -95 -421 1316 0
-22 205 262 1317 0
320 141 -390 1318 0
-131 132 -499 1319 0
-304 -253 259 1320 0
-286 42 -67 1321 0
-481 255 222 1322 0
-246 -283 -339 1323 0
-179 480 -384 1324 0
288 -33 -311 1325 0
-259 184 -83 1326 0
63 -314 182 1327 0
404 -423 -497 1328 0
-118 -110 496 1329 0
240 435 311 1330 0
348 -480 -3 1331 0
-133 -131 -27 1332 0
47 -250 159 1333 0
-205 32 -187 1334 0
-226 -393 -57 1335 0
-484 -367 44 1336 0
343 366 373 1337 0
94 239 -221 1338 0
151 425 315 1339 0
355 -192 298 1340 0
336 -123 122 1341 0
463 -406 71 1342 0
419 -260 -91 1343 0
-191 489 75 1344 0
-320 -423 -325 1345 0
425 -372 239 1346 0
-306 224 -247 1347 0
-47 -74 -299 1348 0
220 -211 -157 1349 0
-176 -185 103 1350 0
-428 191 322 1351 0
-494 213 225 1352 0
-438 263 -381 1353 0
-251 -341 5 1354 0
447 271 -162 1355 0
104 125 -132 1356 0
417 378 312 1357 0
387 -354 499 1358 0
445 112 -415 1359 0
-123 40 304 1360 0
421 496 462 1361 0
442 -348 31 1362 0
-397 493 -141 1363 0
-386 402 -249 1364 0
-129 -480 272 1365 0
434 -399 -307 1366 0
166 -429 2 1367 0
-29 -9 -414 1368 0
-56 -10 313 1369 0
-285 -244 318 1370 0
-185 429 438 1371 0
-433 75 -271 1372 0
-100 491 -250 1373 0
-439 62 -454 1374 0
-459 -221 301 1375 0
46 -467 62 1376 0
-111 66 -248 1377 0
-472 397 -467 1378 0
-279 -426 -470 1379 0
-457 71 -230 1380 0
-395 -238 326 1381 0
-20 -440 -188 1382 0
-72 -82 -462 1383 0
153 -190 -3 1384 0
-46 -236 -344 1385 0
241 -268 -352 1386 0
-274 271 -260 1387 0
293 58 -285 1388 0
263 375 -214 1389 0
-340 -158 -377 1390 0
-199 -152 -396 1391 0
128 374 318 1392 0
180 448 -474 1393 0
52 153 238 1394 0
264 -445 -218 1395 0
-380 -459 492 1396 0
-114 -27 -422 1397 0
370 440 -404 1398 0
-221 54 -156 1399 0
-295 -169 31 1400 0
-370 -488 -289 1401 0
165 -225 -280 1402 0
-103 -92 395 1403 0
-157 -95 408 1404 0
408 -466 118 1405 0
51 -433 266 1406 0
-39 -473 113 1407 0
-2 -9 -31 1408 0
-336 136 363 1409 0
-453 -70 -476 1410 0
346 215 -413 1411 0
-439 286 256 1412 0
-89 -467 -195 1413 0
-114 495 -265 1414 0
-214 -1 -48 1415 0
-410 217 493 1416 0
-22 -71 -165 1417 0
500 189 -445 1418 0
86 108 -341 1419 0
-499 -273 83 1420 0
-485 -7 -398 1421 0
-312 -204 -434 1422 0
-283 491 -209 1423 0
-218 141 195 1424 0
193 260 491 1425 0
-100 -93 431 1426 0
338 -396 385 1427 0
353 -115 291 1428 0
326 -481 -165 1429 0
-284 -478 -143 1430 0
364 -79 147 1431 0
-314 183 471 1432 0
421 284 70 1433 0
-8 -33 -174 1434 0
176 -382 90 1435 0
223 -392 -59 1436 0
428 -365 134 1437 0
-162 432 342 1438 0
459 -249 271 1439 0
412 -383 449 1440 0
193 -233 434 1441 0
231 -369 -43 1442 0
485 338 62 1443 0
336 -183 191 1444 0
151 57 -96 1445 0
32 315 -34 1446 0
-324 -454 -140 1447 0
-343 323 -350 1448 0
-392 17 -474 1449 0
-379 89 -55 1450 0
-112 406 302 1451 0
336 348 -43 1452 0
57 223 -65 1453 0
495 -417 -296 1454 0
441 180 -120 1455 0
-23 -193 118 1456 0
360 -166 -443 1457 0
-424 -286 154 1458 0
-456 109 -269 1459 0
159 353 382 1460 0
332 189 -313 1461 0
-5 -495 -470 1462 0
-365 -7 -494 1463 0
240 -48 14 1464 0
-326 -228 -152 1465 0
-171 284 -437 1466 0
102 -76 17 1467 0
30 -393 -478 1468 0
-449 -376 495 1469 0
255 184 -462 1470 0
-224 255 232 1471 0
103 195 -296 1472 0
-390 -234 487 1473 0
-331 131 325 1474 0
245 -386 11 1475 0
-183 144 -115 1476 0
341 175 456 1477 0
467 372 182 1478 0
-220 -263 -401 1479 0
256 210 98 1480 0
54 -213 220 1481 0
37 351 175 1482 0
-461 -31 -304 1483 0
250 -208 341 1484 0
-304 -465 40 1485 0
-226 -119 -2 1486 0
-479 234 -128 1487 0
-414 37 -104 1488 0
-202 -118 -61 1489 0
-491 274 284 1490 0
-313 454 -345 1491 0
294 -346 26 1492 0
416 273 312 1493 0
-317 423 13 1494 0
-372 -146 328 1495 0
75 259 188 1496 0
250 -331 112 1497 0
298 -118 83 1498 0
-230 -266 -410 1499 0
64 271 -486 1500 0
158 422 -386 1501 0
-385 220 350 1502 0
8 -238 -114 1503 0
-228 -308 -245 1504 0
59 390 116 1505 0
-494 -394 254 1506 0
-388 -407 -174 1507 0
-471 429 135 1508 0
-157 59 45 1509 0
-457 55 -1 1510 0
-402 -386 -153 1511 0
230 -241 -315 1512 0
-334 -287 -373 1513 0
-288 370 328 1514 0
-394 -462 -236 1515 0
352 -357 491 1516 0
297 -450 -134 1517 0
-24 -457 -45 1518 0
277 -294 -257 1519 0
-458 98 -180 1520 0
-66 -148 175 1521 0
443 267 422 1522 0
397 23 325 1523 0
251 -177 -471 1524 0
-66 128 -240 1525 0
301 -217 81 1526 0
377 339 110 1527 0
88 198 -211 1528 0
397 -329 -445 1529 0
19 182 311 1530 0
121 314 95 1531 0
-216 -13 195 1532 0
-207 172 -97 1533 0
-154 190 -19 1534 0
-39 -86 355 1535 0
-487 -36 334 1536 0
-235 219 -311 1537 0
-108 -25 280 1538 0
343 318 323 1539 0
325 -315 -316 1540 0
-360 231 451 1541 0
36 -108 -400 1542 0
469 88 -329 1543 0
-61 -236 89 1544 0
-122 471 69 1545 0
31 -134 -58 1546 0
79 -138 -441 1547 0
-412 -280 -463 1548 0
-222 -351 -409 1549 0
-260 411 -250 1550 0
33 59 -341 1551 0
-356 -468 -282 1552 0
424 84 187 1553 0
-6 56 430 1554 0
313 -469 -171 1555 0
-397 24 -160 1556 0
332 412 -289 1557 0
215 112 44 1558 0
16 262 -395 1559 0
-498 416 348 1560 0
495 472 34 1561 0
491 -186 -429 1562 0
455 276 -71 1563 0
391 -326 -146 1564 0
-159 -246 -312 1565 0
-360 -449 -365 1566 0
137 121 461 1567 0
238 478 214 1568 0
-300 370 -498 1569 0
64 386 10 1570 0
-366 27 -334 1571 0
373 -492 298 1572 0
269 71 -376 1573 0
238 -141 -5 1574 0
-222 -474 -307 1575 0
79 310 235 1576 0
471 -376 259 1577 0
-174 227 -353 1578 0
-111 4 132 1579 0
-404 -142 268 1580 0
82 -450 219 1581 0
297 259 -255 1582 0
123 204 114 1583 0
386 -466 290 1584 0
-212 -137 163 1585 0
-294 -185 -88 1586 0
-255 326 -18 1587 0
-433 321 161 1588 0
166 -40 449 1589 0
331 133 -449 1590 0
19 278 -116 1591 0
233 -161 182 1592 0
265 160 185 1593 0
-307 -216 114 1594 0
370 118 -95 1595 0
-40 -60 236 1596 0
269 67 -120 1597 0
-452 -368 -315 1598 0
-89 406 -113 1599 0
-289 266 -120 1600 0
-476 20 208 1601 0
488 351 -152 1602 0
346 -431 141 1603 0
-150 -401 -414 1604 0
463 -94 -24 1605 0
180 -355 483 1606 0
-174 -335 67 1607 0
347 -413 -427 1608 0
268 485 25 1609 0
-29 88 481 1610 0
-29 -131 240 1611 0
-415 371 5 1612 0
310 -228 -333 1613 0
73 325 208 1614 0
132 -157 371 1615 0
220 -388 -463 1616 0
374 141 412 1617 0
155 -194 -498 1618 0
-335 215 -74 1619 0
414 -398 437 1620 0
266 -36 380 1621 0
-386 323 -324 1622 0
497 13 -434 1623 0
-324 -7 77 1624 0
30 135 -40 1625 0
415 409 112 1626 0
158 302 289 1627 0
130 124 -135 1628 0
-428 317 -133 1629 0
-490 -212 245 1630 0
330 75 267 1631 0
-197 -458 -166 1632 0
251 272 237 1633 0
-131 -182 -440 1634 0
21 -145 476 1635 0
418 -347 467 1636 0
-448 -237 -429 1637 0
169 -147 78 1638 0
74 348 -249 1639 0
202 134 -440 1640 0
385 235 -73 1641 0
186 243 82 1642 0
55 -51 -224 1643 0
306 -334 305 1644 0
375 140 191 1645 0
184 -127 -42 1646 0
-75 83 -380 1647 0
-206 126 136 1648 0
168 -24 191 1649 0
-139 -464 177 1650 0
437 115 144 1651 0
-456 89 -153 1652 0
30 488 108 1653 0
-451 466 -422 1654 0
79 383 270 1655 0
-130 -397 32 1656 0
415 -14 319 1657 0
34 -274 441 1658 0
-23 -293 146 1659 0
105 170 -224 1660 0
-416 -84 214 1661 0
-407 -94 -55 1662 0
468 301 -267 1663 0
-350 -158 -162 1664 0
-284 -37 -488 1665 0
185 427 346 1666 0
-483 -455 189 1667 0
155 5 119 1668 0
69 -320 -289 1669 0
-228 -399 -100 1670 0
-87 493 -435 1671 0
-36 198 -422 1672 0
106 463 -248 1673 0
-42 -46 103 1674 0
-316 -78 431 1675 0
260 111 397 1676 0
-78 -95 -486 1677 0
57 -53 -56 1678 0
399 40 440 1679 0
-231 -163 -344 1680 0
319 -106 38 1681 0
-194 -219 -59 1682 0
-453 230 168 1683 0
374 -297 225 1684 0
-209 427 -497 1685 0
-482 326 105 1686 0
-340 368 -411 1687 0
315 -301 108 1688 0
-379 388 450 1689 0
-192 -37 380 1690 0
-142 -309 -243 1691 0
312 11 89 1692 0
355 -294 -182 1693 0
94 175 -199 1694 0
-216 89 319 1695 0
205 193 -278 1696 0
-431 359 305 1697 0
395 469 -496 1698 0
59 492 -173 1699 0
247 -448 32 1700 0
15 304 -3 1701 0
288 -180 430 1702 0
-333 -296 -105 1703 0
-169 -234 27 1704 0
450 230 2 1705 0
329 26 396 1706 0
-355 -391 -116 1707 0
295 -451 -7 1708 0
-123 -46 308 1709 0
265 19 -119 1710 0
-71 456 477 1711 0
-466 304 497 1712 0
-379 -500 -396 1713 0
-109 -207 214 1714 0
-491 -406 215 1715 0
177 359 202 1716 0
-28 496 -481 1717 0
-33 -161 321 1718 0
53 -137 -488 1719 0
-42 407 -238 1720 0
-3 -242 256 1721 0
71 -160 -186 1722 0
-112 12 62 1723 0
-315 -92 -499 1724 0
-21 -220 -458 1725 0
39 8 14 1726 0
217 -327 400 1727 0
-315 194 429 1728 0
-102 462 59 1729 0
376 -367 -395 1730 0
357 -395 128 1731 0
-243 -134 -165 1732 0
-307 -431 228 1733 0
446 -458 -23 1734 0
-273 -21 -109 1735 0
-201 107 323 1736 0
437 109 -269 1737 0
-105 493 245 1738 0
161 -305 23 1739 0
-18 -287 -443 1740 0
-84 -476 -312 1741 0
357 -156 -498 1742 0
381 154 322 1743 0
-46 -149 -235 1744 0
74 -299 -176 1745 0
-8 -396 -83 1746 0
-144 180 323 1747 0
333 167 -48 1748 0
-58 4 265 1749 0
-436 -410 -230 1750 0
-459 154 5 1751 0
90 -346 -130 1752 0
-430 36 -182 1753 0
237 -69 484 1754 0
-84 279 199 1755 0
-126 58 -219 1756 0
383 257 -425 1757 0
-302 -452 237 1758 0
28 -480 197 1759 0
-401 113 -143 1760 0
153 -418 246 1761 0
422 473 -65 1762 0
232 170 -426 1763 0
499 408 -47 1764 0
-250 106 -48 1765 0
-120 269 -483 1766 0
-452 -447 -149 1767 0
-332 -181 245 1768 0
493 -47 454 1769 0
-471 355 373 1770 0
236 -463 12 1771 0
393 -188 -305 1772 0
357 -366 299 1773 0
219 -141 -471 1774 0
351 318 418 1775 0
245 270 -149 1776 0
187 -169 173 1777 0
-370 -106 43 1778 0
-425 404 -9 1779 0
331 -77 465 1780 0
-31 -227 -389 1781 0
-381 397 128 1782 0
144 -268 -166 1783 0
-97 457 -409 1784 0
26 -39 -269 1785 0
475 -130 -34 1786 0
-260 -72 440 1787 0
-267 194 -445 1788 0
308 467 -497 1789 0
-173 481 177 1790 0
75 373 464 1791 0
-14 182 107 1792 0
173 -104 483 1793 0
-366 -436 -174 1794 0
311 -53 -271 1795 0
-155 288 -70 1796 0
-198 -384 395 1797 0
50 410 -221 1798 0
258 331 260 1799 0
-66 464 153 1800 0
493 -70 -434 1801 0
226 102 341 1802 0
-128 366 -29 1803 0
-224 -201 356 1804 0
-329 -337 -399 1805 0
-367 255 -240 1806 0
-170 340 -384 1807 0
141 198 -400 1808 0
-289 383 441 1809 0
467 -282 459 1810 0
244 470 -86 1811 0
218 -447 -342 1812 0
-279 -89 229 1813 0
298 338 -52 1814 0
365 -211 149 1815 0
131 163 206 1816 0
360 -56 190 1817 0
138 330 -62 1818 0
290 -12 -53 1819 0
199 108 57 1820 0
-466 456 -214 1821 0
-339 -144 130 1822 0
59 -141 100 1823 0
-336 269 332 1824 0
-13 -406 110 1825 0
-397 -443 -84 1826 0
422 203 -353 1827 0
-154 -164 11 1828 0
288 244 -181 1829 0
-205 -497 -476 1830 0
-184 -91 -493 1831 0
472 16 -214 1832 0
-89 480 450 1833 0
-336 174 496 1834 0
-6 216 93 1835 0
-294 -55 22 1836 0
353 -438 324 1837 0
367 113 157 1838 0
-488 240 -290 1839 0
-440 51 465 1840 0
358 124 -299 1841 0
342 -466 -6 1842 0
182 -469 -190 1843 0
-150 40 -28 1844 0
-443 429 -367 1845 0
397 -416 150 1846 0
459 -271 211 1847 0
-466 -14 36 1848 0
-316 285 -437 1849 0
42 238 98 1850 0
-54 79 -220 1851 0
-188 370 -165 1852 0
-250 -277 -243 1853 0
-150 355 31 1854 0
-369 460 359 1855 0
-332 157 305 1856 0
-43 -108 -307 1857 0
-119 -107 147 1858 0
172 -118 -32 1859 0
-368 -238 487 1860 0
109 -40 140 1861 0
417 -33 -245 1862 0
-50 460 -228 1863 0
-64 -275 -153 1864 0
-311 474 -228 1865 0
-388 -244 -198 1866 0
-58 -388 -409 1867 0
44 -361 -12 1868 0
-169 345 281 1869 0
142 260 376 1870 0
-412 466 -46 1871 0
319 -234 -228 1872 0
472 192 -395 1873 0
300 -290 94 1874 0
-418 431 398 1875 0
379 -478 156 1876 0
218 -353 125 1877 0
124 -74 -8 1878 0
313 -454 -18 1879 0
90 -317 -366 1880 0
-178 -138 -306 1881 0
-326 -27 -21 1882 0
292 370 -442 1883 0
-86 -245 180 1884 0
224 236 3 1885 0
-73 380 102 1886 0
35 105 -205 1887 0
500 -394 -261 1888 0
214 298 334 1889 0
-496 11 92 1890 0
-251 231 499 1891 0
370 -461 37 1892 0
470 -204 -247 1893 0
-497 -127 89 1894 0
410 399 -333 1895 0
76 131 -293 1896 0
173 109 -23 1897 0
286 -464 467 1898 0
-355 -83 -147 1899 0
-437 211 485 1900 0
238 25 333 1901 0
361 233 -313 1902 0
425 247 238 1903 0
221 68 -24 1904 0
238 117 68 1905 0
391 74 201 1906 0
-1 -428 168 1907 0
-243 17 -479 1908 0
-182 450 187 1909 0
-269 195 -181 1910 0
-365 249 -93 1911 0
270 214 -60 1912 0
300 46 284 1913 0
-487 176 -33 1914 0
430 -209 -376 1915 0
265 425 -411 1916 0
35 -313 272 1917 0
348 -409 -430 1918 0
179 -243 145 1919 0
109 -440 -414 1920 0
358 -106 -330 1921 0
-364 455 470 1922 0
499 -74 -161 1923 0
-386 257 -233 1924 0
202 138 286 1925 0
56 186 253 1926 0
-160 305 339 1927 0
357 69 96 1928 0
85 -264 -190 1929 0
295 123 421 1930 0
1 89 -249 1931 0
134 464 -133 1932 0
129 -161 -488 1933 0
453 -151 -464 1934 0
-247 -484 -408 1935 0
260 -243 -237 1936 0
391 225 -449 1937 0
312 138 -164 1938 0
35 -362 -272 1939 0
-153 285 -397 1940 0
-309 435 162 1941 0
30 158 -476 1942 0
-193 302 58 1943 0
-397 427 -236 1944 0
-165 -425 -256 1945 0
68 83 420 1946 0
-105 -115 422 1947 0
-437 -22 -365 1948 0
114 277 358 1949 0
265 -278 135 1950 0
198 127 -346 1951 0
-457 -456 343 1952 0
-267 185 77 1953 0
156 -173 -274 1954 0
-7 -494 -110 1955 0
-25 -67 -45 1956 0
462 -200 -61 1957 0
-440 485 -164 1958 0
59 393 -135 1959 0
-382 -205 -298 1960 0
274 -50 -469 1961 0
-317 -439 300 1962 0
-116 -32 343 1963 0
236 100 297 1964 0
-273 -184 248 1965 0
-182 294 -218 1966 0
-230 489 -246 1967 0
-56 -235 -15 1968 0
-200 -464 312 1969 0
-114 275 126 1970 0
-58 -359 -6 1971 0
-17 380 151 1972 0
106 -495 373 1973 0
-382 123 -239 1974 0
-96 -278 -102 1975 0
270 -114 -265 1976 0
-147 180 -179 1977 0
393 -346 -180 1978 0
-412 397 -218 1979 0
-331 55 -15 1980 0
-18 128 -106 1981 0
-216 -32 -197 1982 0
-354 -333 -499 1983 0
-72 21 99 1984 0
349 294 -328 1985 0
-265 -385 143 1986 0
267 -194 315 1987 0
-129 -204 456 1988 0
-26 -344 -170 1989 0
-442 44 208 1990 0
83 463 -140 1991 0
-415 -402 -123 1992 0
119 -415 312 1993 0
332 -10 -421 1994 0
-364 258 164 1995 0
170 -337 435 1996 0
25 -145 134 1997 0
-484 -461 407 1998 0
273 11 241 1999 0
256 288 -162 2000 0
358 368 -394 2001 0
354 227 425 2002 0
181 -20 -312 2003 0
201 330 309 2004 0
488 -83 -111 2005 0
451 435 459 2006 0
207 184 178 2007 0
-415 223 -240 2008 0
441 -8 252 2009 0
-290 -338 -265 2010 0
-289 82 268 2011 0
-31 113 -128 2012 0
-317 355 124 2013 0
-177 463 154 2014 0
-107 -434 389 2015 0
306 -180 -383 2016 0
-124 -159 -406 2017 0
-282 -205 307 2018 0
-416 480 285 2019 0
-466 444 438 2020 0
268 -238 -15 2021 0
-25 253 -157 2022 0
10 -92 402 2023 0
-43 4 -83 2024 0
411 -428 -218 2025 0
126 358 344 2026 0
-250 355 15 2027 0
16 323 -312 2028 0
167 57 432 2029 0
30 -415 -223 2030 0
-317 258 91 2031 0
112 -460 170 2032 0
223 31 -94 2033 0
267 -212 -274 2034 0
379 -189 -232 2035 0
483 302 -458 2036 0
-3 241 476 2037 0
221 -448 388 2038 0
-361 -206 390 2039 0
-406 194 439 2040 0
-345 -355 -149 2041 0
238 -98 -133 2042 0
-1 -184 -333 2043 0
245 159 429 2044 0
442 -14 420 2045 0
-485 -461 400 2046 0
-70 465 -469 2047 0
-343 65 -288 2048 0
-401 -151 -238 2049 0
56 -368 -93 2050 0
416 -59 -409 2051 0
-493 386 444 2052 0
477 -150 226 2053 0
-40 111 366 2054 0
-103 362 304 2055 0
-331 -494 449 2056 0
188 400 264 2057 0
-390 304 -72 2058 0
-305 161 195 2059 0
-114 -491 -218 2060 0
51 138 -292 2061 0
39 402 232 2062 0
-479 288 131 2063 0
91 -77 -98 2064 0
359 438 426 2065 0
197 -5 -322 2066 0
-195 414 361 2067 0
-317 -360 486 2068 0
28 177 -369 2069 0
-242 -27 44 2070 0
199 221 20 2071 0
-117 349 40 2072 0
389 348 193 2073 0
171 -72 229 2074 0
49 -268 322 2075 0
204 -125 -435 2076 0
438 315 222 2077 0
35 -460 -295 2078 0
456 130 17 2079 0
-13 405 -148 2080 0
299 38 -290 2081 0
444 -383 179 2082 0
-450 499 -277 2083 0
-72 -5 -205 2084 0
-49 423 -167 2085 0
-383 -281 -353 2086 0
-269 -179 93 2087 0
470 410 398 2088 0
-209 -370 169 2089 0
493 -250 47 2090 0
-218 174 262 2091 0
317 360 -38 2092 0
460 183 428 2093 0
195 57 440 2094 0
-52 -217 437 2095 0
-128 -219 -241 2096 0
4 -182 -379 2097 0
437 460 -199 2098 0
211 -401 -232 2099 0
118 -279 351 2100 0
18 265 153 2101 0
41 211 273 2102 0
-252 -428 44 2103 0
456 350 142 2104 0
224 472 -465 2105 0
417 269 410 2106 0
-240 -450 -151 2107 0
-179 -369 -198 2108 0
262 -486 -293 2109 0
493 341 209 2110 0
365 54 444 2111 0
192 95 41 2112 0
454 -100 203 2113 0
-180 -211 293 2114 0
-408 -453 454 2115 0
-259 82 -141 2116 0
-78 59 -72 2117 0
173 105 -187 2118 0
379 -135 -46 2119 0
211 363 410 2120 0
61 -155 462 2121 0
-235 416 333 2122 0
354 -444 124 2123 0
-273 -118 -8 2124 0
75 21 174 2125 0
-40 389 236 2126 0
-344 -343 398 2127 0
472 204 -298 2128 0
-281 -221 430 2129 0
-56 417 -396 2130 0
-330 487 319 2131 0
436 173 363 2132 0
-483 38 461 2133 0
94 -72 -279 2134 0
251 274 -382 2135 0
-70 482 421 2136 0
122 -425 483 2137 0
-428 373 -176 2138 0
144 -161 -336 2139 0
86 -29 387 2140 0
45 276 -57 2141 0
-359 16 -304 2142 0
-291 -158 84 2143 0
166 -178 -356 2144 0
372 306 -417 2145 0
-138 497 258 2146 0
208 -190 175 2147 0
342 -153 -447 2148 0
348 23 379 2149 0
-119 107 326 2150 0
-2 -492 493 2151 0
93 -113 129 2152 0
165 47 -114 2153 0
470 -269 53 2154 0
436 -80 -91 2155 0
-453 355 311 2156 0
49 212 -13 2157 0
-337 -414 -382 2158 0
181 -260 244 2159 0
-191 478 -189 2160 0
-309 19 -264 2161 0
369 -440 111 2162 0
-248 -406 332 2163 0
329 -323 301 2164 0
-280 260 -24 2165 0
190 146 -320 2166 0
178 99 155 2167 0
205 207 -240 2168 0
142 -298 305 2169 0
90 -287 465 2170 0
-390 111 -178 2171 0
-289 -347 279 2172 0
-29 352 -14 2173 0
260 27 32 2174 0
-347 -146 325 2175 0
335 95 214 2176 0
385 -486 425 2177 0
-364 -443 -185 2178 0
116 12 79 2179 0
136 174 -380 2180 0
-361 -128 24 2181 0
219 -384 382 2182 0
80 318 245 2183 0
-214 372 -305 2184 0
-199 -214 -393 2185 0
26 405 99 2186 0
126 -350 70 2187 0
40 456 426 2188 0
62 114 18 2189 0
-232 -258 -375 2190 0
-143 400 -449 2191 0
-225 24 -423 2192 0
207 -241 -269 2193 0
-378 106 357 2194 0
80 315 -257 2195 0
-335 -243 449 2196 0
187 138 -383 2197 0
-281 -442 -89 2198 0
425 -249 100 2199 0
-378 -94 495 2200 0
487 -46 -434 2201 0
-201 161 -98 2202 0
-172 -302 389 2203 0
-109 -12 -173 2204 0
-50 110 -290 2205 0
194 -343 -332 2206 0
-108 139 -401 2207 0
170 175 -404 2208 0
-24 324 5 2209 0
-151 -40 -237 2210 0
392 273 -301 2211 0
486 -480 -494 2212 0
225 452 35 2213 0
436 420 491 2214 0
358 478 217 2215 0
-288 455 -194 2216 0
-76 393 -394 2217 0
451 -210 280 2218 0
-320 247 -175 2219 0
225 -429 -122 2220 0
-347 -97 221 2221 0
-276 173 -412 2222 0
57 -174 281 2223 0
-95 -85 -34 2224 0
-182 -438 -251 2225 0
-242 362 -400 2226 0
-398 107 342 2227 0
-32 -217 -205 2228 0
-76 203 293 2229 0
-88 131 -311 2230 0
45 220 -452 2231 0
-360 217 29 2232 0
-152 -352 63 2233 0
-224 -302 -471 2234 0
-213 479 194 2235 0
167 -20 415 2236 0
108 351 -252 2237 0
443 467 208 2238 0
-151 -21 -314 2239 0
-367 -352 446 2240 0
176 468 31 2241 0
-104 29 -35 2242 0
165 -292 285 2243 0
-48 -6 244 2244 0
109 140 -425 2245 0
498 445 246 2246 0
-475 200 -316 2247 0
-322 224 112 2248 0
399 130 431 2249 0
111 -214 200 2250 0
78 -336 69 2251 0
137 -36 297 2252 0
-256 -286 -281 2253 0
353 242 9 2254 0
420 -311 -129 2255 0
-201 -381 24 2256 0
415 -419 494 2257 0
-111 277 -180 2258 0
-107 -11 -414 2259 0
94 1 -149 2260 0
405 202 19 2261 0
331 212 89 2262 0
-68 496 -232 2263 0
155 285 32 2264 0
-109 455 -296 2265 0
-202 404 217 2266 0
189 420 265 2267 0
-15 -291 364 2268 0
115 -89 331 2269 0
-316 -67 116 2270 0
278 -126 -406 2271 0
-137 481 9 2272 0
84 -492 485 2273 0
-39 380 354 2274 0
-152 1 -175 2275 0
346 -353 172 2276 0
-318 -93 270 2277 0
238 25 236 2278 0
-451 267 -432 2279 0
398 -316 -27 2280 0
-458 -36 -256 2281 0
410 90 -428 2282 0
209 -424 -61 2283 0
19 250 -34 2284 0
494 -158 457 2285 0
-12 -158 -244 2286 0
-266 -275 -477 2287 0
-4 -219 427 2288 0
273 387 362 2289 0
-347 -59 382 2290 0
228 -2 -495 2291 0
-485 153 388 2292 0
320 73 -375 2293 0
411 -113 -375 2294 0
-136 -437 -79 2295 0
448 313 13 2296 0
398 -133 -150 2297 0
299 -110 325 2298 0
458 -166 -251 2299 0
9 40 11 2300 0
464 -472 277 2301 0
294 493 94 2302 0
-460 319 -392 2303 0
373 293 152 2304 0
67 -129 -288 2305 0
-38 372 79 2306 0
216 -428 370 2307 0
451 -296 -499 2308 0
-179 208 -102 2309 0
-124 229 -43 2310 0
-491 -395 470 2311 0
-222 307 -406 2312 0
-150 -161 -163 2313 0
-281 -304 168 2314 0
292 309 -178 2315 0
467 -441 199 2316 0
-223 -271 490 2317 0
290 93 -221 2318 0
461 -320 -261 2319 0
-466 -390 -369 2320 0
484 -137 205 2321 0
102 106 336 2322 0
-109 281 36 2323 0
-112 139 -340 2324 0
-81 498 318 2325 0
-178 185 -322 2326 0
-469 127 96 2327 0
-190 -223 -21 2328 0
-195 -36 307 2329 0
66 158 68 2330 0
421 424 338 2331 0
441 151 395 2332 0
93 -478 -240 2333 0
164 28 -313 2334 0
262 256 175 2335 0
-392 255 -77 2336 0
48 139 -19 2337 0
144 -129 307 2338 0
187 -349 306 2339 0
42 -67 321 2340 0
-110 -445 -12 2341 0
-132 -322 459 2342 0
80 202 302 2343 0
-407 -169 -432 2344 0
-480 -167 116 2345 0
-69 -21 -249 2346 0
-403 -459 332 2347 0
-37 -473 -413 2348 0
-274 51 -474 2349 0
81 446 -173 2350 0
238 -308 137 2351 0
-31 454 41 2352 0
430 280 -180 2353 0
-137 -56 -217 2354 0
-194 -147 364 2355 0
-33 -319 -109 2356 0
133 -119 217 2357 0
-311 -19 -53 2358 0
415 -252 180 2359 0
38 267 390 2360 0
63 32 -128 2361 0
187 -421 370 2362 0
108 34 360 2363 0
-195 433 -87 2364 0
-83 -456 244 2365 0
82 32 -210 2366 0
-208 -442 -296 2367 0
-373 -262 -268 2368 0
-262 -401 -224 2369 0
46 479 -371 2370 0
-107 213 52 2371 0
-131 -330 -94 2372 0
132 282 -256 2373 0
187 433 160 2374 0
312 -28 -432 2375 0
262 85 -348 2376 0
359 -288 85 2377 0
44 -406 -344 2378 0
456 -198 411 2379 0
199 114 -336 2380 0
388 16 -471 2381 0
-474 -394 352 2382 0
-70 -4 377 2383 0
-75 418 -155 2384 0
-146 85 173 2385 0
-489 -448 323 2386 0
-39 342 -484 2387 0
275 -21 468 2388 0
275 -421 303 2389 0
-290 3 -304 2390 0
260 400 -429 2391 0
-146 -490 9 2392 0
-294 -120 -447 2393 0
-440 -339 146 2394 0
-74 -27 259 2395 0
249 -153 -266 2396 0
360 -412 -152 2397 0
50 320 -198 2398 0
-408 -34 -243 2399 0
434 173 -370 2400 0
-28 -278 -397 2401 0
225 -249 133 2402 0
441 111 369 2403 0
-390 -277 321 2404 0
376 -180 -363 2405 0
-67 -33 -31 2406 0
181 -276 -267 2407 0
347 -114 74 2408 0
55 -464 -329 2409 0
365 477 -394 2410 0
-157 -470 273 2411 0
354 -335 213 2412 0
149 178 -354 2413 0
396 56 234 2414 0
312 47 61 2415 0
-192 169 55 2416 0
-191 83 287 2417 0
-315 249 494 2418 0
403 354 -20 2419 0
367 69 -195 2420 0
211 -417 -229 2421 0
401 85 256 2422 0
276 399 -198 2423 0
-229 276 155 2424 0
-443 -451 265 2425 0
170 -344 -151 2426 0
239 -259 123 2427 0
-272 405 -263 2428 0
-369 -330 -418 2429 0
-148 176 -315 2430 0
83 56 -228 2431 0
-14 -368 -438 2432 0
-49 -450 222 2433 0
-479 337 24 2434 0
-276 -444 497 2435 0
328 398 -242 2436 0
339 31 -238 2437 0
31 -300 413 2438 0
314 7 169 2439 0
-84 127 -93 2440 0
-379 8 226 2441 0
405 -121 25 2442 0
414 169 215 2443 0
59 -160 482 2444 0
339 489 259 2445 0
435 116 -315 2446 0
-179 12 -275 2447 0
-233 -276 -282 2448 0
-64 449 288 2449 0
-181 35 -267 2450 0
305 -492 391 2451 0
-68 71 255 2452 0
181 -472 -84 2453 0
-272 185 390 2454 0
122 114 381 2455 0
-184 -378 -474 2456 0
-427 -437 -445 2457 0
-299 -426 344 2458 0
-285 232 -6 2459 0
-91 463 -446 2460 0
-78 -138 168 2461 0
206 -427 -346 2462 0
-498 209 -475 2463 0
476 -384 -268 2464 0
-493 381 73 2465 0
414 -204 -75 2466 0
-8 148 -392 2467 0
-236 119 -368 2468 0
-450 377 146 2469 0
-54 33 -497 2470 0
-213 -212 -73 2471 0
-37 331 434 2472 0
-282 84 1 2473 0
458 225 78 2474 0
217 -170 193 2475 0
192 -39 -423 2476 0
83 223 271 2477 0
1 -307 -322 2478 0
-209 137 -481 2479 0
-100 233 -82 2480 0
-416 -85 -497 2481 0
-300 283 -234 2482 0
407 -115 -141 2483 0
292 19 -159 2484 0
93 -171 330 2485 0
397 -178 -236 2486 0
-167 8 -183 2487 0
182 -319 -84 2488 0
422 -487 482 2489 0
306 -358 -172 2490 0
-13 178 352 2491 0
-320 15 -314 2492 0
104 224 181 2493 0
66 -252 -267 2494 0
-390 -376 -90 2495 0
-142 -59 101 2496 0
406 -205 -105 2497 0
-350 132 -331 2498 0
-425 -441 307 2499 0
489 -392 -73 2500 0
-107 -451 484 2501 0
-100 181 32 2502 0
379 -174 404 2503 0
-80 -164 -426 2504 0
-485 -158 8 2505 0
-105 -216 174 2506 0
-94 -222 -8 2507 0
497 316 21 2508 0
53 -378 118 2509 0
374 142 -298 2510 0
-192 379 -114 2511 0
442 38 76 2512 0
-446 -306 26 2513 0
-352 239 -480 2514 0
393 65 396 2515 0
-68 411 -255 2516 0
-398 -42 -28 2517 0
-227 70 -303 2518 0
456 359 -27 2519 0
336 172 248 2520 0
-288 85 -87 2521 0
-218 79 488 2522 0
146 86 316 2523 0
-119 -344 197 2524 0
29 101 430 2525 0
-259 -143 106 2526 0
66 151 -463 2527 0
245 141 -472 2528 0
185 -123 156 2529 0
162 -350 -177 2530 0
36 -31 58 2531 0
410 136 -414 2532 0
-146 218 -300 2533 0
-181 62 399 2534 0
48 99 -443 2535 0
-306 213 141 2536 0
348 -289 203 2537 0
-283 406 -334 2538 0
-428 -228 133 2539 0
15 -51 225 2540 0
375 437 -491 2541 0
-115 176 -206 2542 0
192 -462 33 2543 0
319 363 -163 2544 0
22 92 -126 2545 0
-113 -32 -226 2546 0
180 -384 -42 2547 0
273 -268 138 2548 0
239 -3 -146 2549 0
191 -187 -197 2550 0
196 172 -473 2551 0
13 -128 468 2552 0
-96 -402 -185 2553 0
403 37 -81 2554 0
226 -76 -387 2555 0
211 334 -77 2556 0
-384 -424 454 2557 0
-250 152 394 2558 0
251 -83 208 2559 0
324 -191 -220 2560 0
428 492 -49 2561 0
-464 284 -277 2562 0
314 245 98 2563 0
135 -475 113 2564 0
-262 148 137 2565 0
-404 -300 -207 2566 0
244 399 -147 2567 0
216 -35 -440 2568 0
-217 -99 -454 2569 0
-309 -189 122 2570 0
235 34 -475 2571 0
-491 -126 -98 2572 0
-354 56 49 2573 0
-486 -42 22 2574 0
50 422 -484 2575 0
-362 -429 -249 2576 0
-42 -362 110 2577 0
249 -325 -10 2578 0
280 124 267 2579 0
-424 199 119 2580 0
-106 -196 -260 2581 0
-473 -440 145 2582 0
226 104 149 2583 0
-346 286 495 2584 0
-50 -282 431 2585 0
-82 -318 -175 2586 0
70 21 204 2587 0
72 -379 293 2588 0
145 -71 -96 2589 0
278 54 -256 2590 0
-365 -423 327 2591 0
232 -228 -368 2592 0
-293 158 -172 2593 0
142 -487 328 2594 0
462 463 490 2595 0
-44 113 -260 2596 0
-143 408 -440 2597 0
-273 -137 154 2598 0
305 -230 -379 2599 0
153 40 478 2600 0
-50 115 467 2601 0
369 -500 -234 2602 0
-170 212 103 2603 0
-73 -425 -102 2604 0
464 52 124 2605 0
54 280 387 2606 0
236 228 -9 2607 0
44 -134 -178 2608 0
-292 216 -14 2609 0
-154 63 -61 2610 0
189 -42 -14 2611 0
-457 -443 -276 2612 0
-327 344 -365 2613 0
221 459 2 2614 0
100 435 312 2615 0
-27 -231 -63 2616 0
-251 57 -303 2617 0
69 -103 -379 2618 0
472 356 -435 2619 0
440 397 -160 2620 0
-377 -238 68 2621 0
-401 -128 -125 2622 0
-436 190 -106 2623 0
443 -404 -435 2624 0
-285 209 -214 2625 0
260 19 34 2626 0
-114 -177 -293 2627 0
482 -262 368 2628 0
-415 -464 -159 2629 0
-464 131 424 2630 0
-458 135 341 2631 0
-359 -123 -146 2632 0
-242 265 -64 2633 0
-453 465 -345 2634 0
280 372 497 2635 0
350 130 81 2636 0
-441 -355 -142 2637 0
-304 -447 408 2638 0
-60 -79 -116 2639 0
331 91 -239 2640 0
-102 -177 291 2641 0
-437 -43 -260 2642 0
-443 -2 -397 2643 0
-90 -214 438 2644 0
-379 -245 -230 2645 0
-425 -117 -355 2646 0
82 141 -196 2647 0
335 107 467 2648 0
-282 372 -171 2649 0
-423 -209 -41 2650 0
