p cnf 2650 2150
-334 126 -39 501 0
285 238 -480 502 0
-403 -85 296 503 0
288 -275 329 504 0
185 33 357 505 0
123 -415 166 506 0
119 -314 185 507 0
404 -373 469 508 0
379 -305 205 509 0
-173 145 319 510 0
370 44 -221 511 0
-69 391 294 512 0
-240 362 -210 513 0
347 -127 -254 514 0
-466 -337 455 515 0
479 14 388 516 0
-130 -337 -363 517 0
-228 345 207 518 0
-427 231 74 519 0
-443 -212 355 520 0
-178 -417 -149 521 0
-127 -51 -96 522 0
-86 414 -259 523 0
217 134 434 524 0
247 217 461 525 0
-194 253 -435 526 0
218 9 -316 527 0
225 64 274 528 0
-9 408 325 529 0
-274 -427 159 530 0
196 310 -81 531 0
181 79 -153 532 0
-134 188 -23 533 0
-456 -69 70 534 0
423 -298 -19 535 0
283 -495 -153 536 0
221 467 -208 537 0
458 111 -227 538 0
110 176 -438 539 0
-486 63 458 540 0
-112 124 -211 541 0
-399 416 -77 542 0
-53 146 -141 543 0
-240 441 -203 544 0
-85 45 -167 545 0
-360 180 -80 546 0
234 -499 346 547 0
16 217 -191 548 0
-127 11 240 549 0
242 412 -43 550 0
-75 -362 443 551 0
333 -379 -273 552 0
-331 -66 205 553 0
241 278 277 554 0
-298 -402 -47 555 0
-72 -330 -292 556 0
-346 -448 66 557 0
156 265 -403 558 0
170 22 477 559 0
392 418 117 560 0
-492 402 311 561 0
229 -21 257 562 0
85 66 -29 563 0
489 460 -307 564 0
207 104 484 565 0
-442 227 -374 566 0
19 349 390 567 0
244 -188 -330 568 0
300 -252 -101 569 0
-219 405 100 570 0
-323 247 304 571 0
369 -30 -404 572 0
420 69 -24 573 0
-171 -486 -303 574 0
-407 229 137 575 0
-226 221 466 576 0
379 -158 314 577 0
333 223 457 578 0
39 231 -235 579 0
214 -257 -297 580 0
344 -293 -471 581 0
401 91 234 582 0
497 -81 -447 583 0
484 -283 194 584 0
357 117 -419 585 0
-97 -229 -406 586 0
-366 -173 448 587 0
185 -357 29 588 0
309 442 -202 589 0
-84 469 169 590 0
-287 -24 74 591 0
-63 -187 -460 592 0
-322 -352 12 593 0
6 492 286 594 0
-48 -37 492 595 0
340 -112 131 596 0
358 488 -168 597 0
396 39 -13 598 0
101 70 453 599 0
-472 274 -395 600 0
-185 454 256 601 0
306 292 132 602 0
-101 -413 192 603 0
243 -279 285 604 0
312 330 -17 605 0
473 -382 -98 606 0
221 -237 -41 607 0
192 -436 -407 608 0
451 -67 -361 609 0
-178 -484 332 610 0
-223 347 -225 611 0
189 286 77 612 0
273 469 61 613 0
187 -491 287 614 0
-66 -246 217 615 0
38 -5 -320 616 0
-240 356 -65 617 0
498 215 -481 618 0
-77 260 197 619 0
-340 -494 -51 620 0
41 318 -14 621 0
-167 -247 216 622 0
213 256 -466 623 0
96 53 -228 624 0
-28 59 295 625 0
-328 315 109 626 0
308 -67 -500 627 0
258 310 -222 628 0
-236 -266 357 629 0
479 -191 -445 630 0
367 -302 -189 631 0
-207 -422 -141 632 0
10 -237 183 633 0
431 315 -489 634 0
321 -320 483 635 0
450 -356 133 636 0
-2 334 -413 637 0
-93 -393 157 638 0
434 -353 222 639 0
33 174 -154 640 0
372 -491 -298 641 0
-485 -438 -268 642 0
-437 -337 -430 643 0
265 -363 113 644 0
215 127 -270 645 0
309 110 -463 646 0
-378 21 70 647 0
-7 476 -145 648 0
174 210 -91 649 0
-40 -70 107 650 0
398 486 282 651 0
-68 289 -191 652 0
-77 152 478 653 0
-90 269 -149 654 0
109 -343 -115 655 0
279 452 207 656 0
407 100 248 657 0
326 344 46 658 0
370 450 -457 659 0
-291 487 -342 660 0
-271 -60 470 661 0
-146 365 28 662 0
453 213 3 663 0
106 -4 -84 664 0
254 61 25 665 0
-354 153 -315 666 0
-355 457 6 667 0
-414 60 -411 668 0
285 -361 392 669 0
-32 55 -113 670 0
321 -16 10 671 0
-297 47 107 672 0
-266 141 -404 673 0
-258 425 380 674 0
-375 -53 -296 675 0
288 -95 401 676 0
122 394 -134 677 0
-70 22 -9 678 0
-328 119 -262 679 0
-267 334 -485 680 0
407 126 185 681 0
-326 -250 155 682 0
483 279 -292 683 0
-54 119 117 684 0
-345 -272 -314 685 0
-51 -38 382 686 0
-254 -110 81 687 0
-184 29 452 688 0
389 -443 453 689 0
-429 352 390 690 0
185 -318 -354 691 0
239 264 398 692 0
-450 -472 -27 693 0
-4 -409 -58 694 0
-150 -210 -285 695 0
75 266 -427 696 0
78 199 -154 697 0
-133 290 -456 698 0
-453 -396 304 699 0
-294 348 -199 700 0
-358 -282 -352 701 0
-2 -333 -473 702 0
69 59 -498 703 0
205 464 341 704 0
64 44 475 705 0
-265 446 -465 706 0
347 365 -239 707 0
-104 347 -169 708 0
-484 453 463 709 0
174 25 -268 710 0
-140 458 14 711 0
-324 434 -110 712 0
200 152 466 713 0
-264 408 -42 714 0
-68 488 498 715 0
347 -176 405 716 0
-339 -410 -83 717 0
83 -256 429 718 0
324 -308 -86 719 0
-461 275 277 720 0
-146 350 379 721 0
374 -159 -221 722 0
152 -46 -335 723 0
-441 330 -98 724 0
147 453 345 725 0
-459 -66 -124 726 0
305 -335 13 727 0
-104 -447 201 728 0
-297 -245 -427 729 0
-232 -137 -393 730 0
464 -368 468 731 0
102 -444 332 732 0
357 -200 117 733 0
-49 387 -54 734 0
345 -88 361 735 0
329 -41 -220 736 0
256 -197 349 737 0
266 -280 223 738 0
-469 404 104 739 0
230 -359 364 740 0
152 25 391 741 0
-358 -206 -321 742 0
496 214 -129 743 0
12 -121 373 744 0
-302 -498 258 745 0
-155 200 -411 746 0
-490 290 -287 747 0
-235 -278 -471 748 0
-210 -58 -124 749 0
110 -299 -119 750 0
-65 74 -258 751 0
-356 -430 -58 752 0
-213 -312 375 753 0
56 462 -122 754 0
-73 421 200 755 0
-168 27 -486 756 0
-146 398 13 757 0
-351 -206 -173 758 0
-467 351 -250 759 0
428 300 364 760 0
-176 -199 317 761 0
310 125 -361 762 0
162 128 472 763 0
-98 247 -3 764 0
-415 417 15 765 0
496 284 -315 766 0
481 -374 227 767 0
477 166 7 768 0
237 57 494 769 0
170 246 267 770 0
-202 80 320 771 0
61 -135 284 772 0
-55 -49 153 773 0
-435 -304 244 774 0
491 156 -214 775 0
-415 124 168 776 0
48 -446 475 777 0
-376 -373 -12 778 0
47 -372 422 779 0
62 233 152 780 0
-384 -193 32 781 0
-257 -213 335 782 0
352 -275 197 783 0
-201 90 -63 784 0
-283 112 55 785 0
134 -133 -423 786 0
64 395 -339 787 0
440 -237 -78 788 0
-297 -184 -28 789 0
201 -155 406 790 0
362 -164 -488 791 0
1 -361 -33 792 0
206 -375 -286 793 0
463 124 358 794 0
-332 -38 126 795 0
-414 -406 289 796 0
-362 -51 483 797 0
458 -152 -8 798 0
11 -317 -211 799 0
153 -276 428 800 0
272 -143 -419 801 0
257 249 -380 802 0
-88 -325 2 803 0
-2 -376 -328 804 0
-410 456 -441 805 0
289 -63 -294 806 0
249 159 106 807 0
472 -139 324 808 0
-314 395 342 809 0
-47 -265 312 810 0
15 -244 -202 811 0
-7 -453 416 812 0
-314 -317 417 813 0
321 240 -136 814 0
452 -373 -43 815 0
-131 -321 456 816 0
-308 -461 -443 817 0
-9 408 -476 818 0
312 -484 -188 819 0
-361 -281 -439 820 0
-423 15 305 821 0
-4 448 -499 822 0
163 -56 483 823 0
379 -13 -208 824 0
-256 -243 474 825 0
441 -458 -238 826 0
-443 92 306 827 0
-101 -366 -260 828 0
27 -13 45 829 0
-477 -145 9 830 0
402 -10 -372 831 0
-342 -41 -309 832 0
-383 -439 380 833 0
304 -133 397 834 0
63 130 -475 835 0
490 349 464 836 0
-15 355 42 837 0
2 105 465 838 0
461 124 439 839 0
82 457 -26 840 0
-39 -371 -277 841 0
-437 477 -27 842 0
12 282 -166 843 0
-372 203 481 844 0
-350 -14 -114 845 0
-429 387 80 846 0
445 303 421 847 0
61 237 -164 848 0
263 342 -27 849 0
275 305 -45 850 0
490 -492 296 851 0
471 -349 401 852 0
335 -297 385 853 0
-184 -168 217 854 0
-185 -89 117 855 0
224 229 206 856 0
177 43 301 857 0
-108 -92 402 858 0
-314 226 -42 859 0
78 92 57 860 0
-366 334 481 861 0
-356 286 -210 862 0
414 -264 -497 863 0
273 270 429 864 0
272 248 150 865 0
495 -57 59 866 0
-150 -260 -348 867 0
146 -168 -381 868 0
-133 312 168 869 0
-445 -217 485 870 0
216 378 362 871 0
-292 322 46 872 0
362 379 -208 873 0
320 245 143 874 0
-348 -257 -282 875 0
153 211 -441 876 0
481 -233 88 877 0
-392 180 -41 878 0
114 259 406 879 0
139 -474 488 880 0
112 -58 -176 881 0
-478 -172 -401 882 0
210 -250 -79 883 0
-70 -24 155 884 0
40 -78 -233 885 0
281 -382 6 886 0
363 -67 -125 887 0
257 196 92 888 0
13 21 19 889 0
-325 -462 369 890 0
316 -115 201 891 0
5 80 467 892 0
-246 128 199 893 0
-302 45 477 894 0
339 289 -394 895 0
-340 -461 -24 896 0
155 234 -181 897 0
-129 63 -107 898 0
476 -133 -259 899 0
269 -241 203 900 0
410 -447 85 901 0
-187 -379 14 902 0
-479 -353 67 903 0
327 -244 -234 904 0
-267 189 -372 905 0
429 239 -222 906 0
-172 -256 -22 907 0
-325 103 -213 908 0
126 31 -281 909 0
-8 130 -498 910 0
-261 -121 -230 911 0
54 -175 31 912 0
262 313 -16 913 0
-206 -453 -351 914 0
-200 -48 236 915 0
259 457 -399 916 0
375 -227 450 917 0
-284 -361 255 918 0
-97 -392 3 919 0
-327 370 238 920 0
-246 213 389 921 0
151 210 -138 922 0
389 -395 410 923 0
-281 -408 489 924 0
-342 -314 -458 925 0
-28 231 141 926 0
-392 -369 -81 927 0
123 194 -311 928 0
313 -331 -362 929 0
179 -254 -157 930 0
-217 61 163 931 0
414 1 -11 932 0
-33 15 -337 933 0
-223 -307 -121 934 0
459 8 -279 935 0
-33 170 -64 936 0
-395 -196 -129 937 0
-33 -211 279 938 0
-307 230 254 939 0
471 464 450 940 0
41 -233 408 941 0
339 54 -372 942 0
194 183 -16 943 0
339 -152 485 944 0
-261 345 -269 945 0
-50 280 -55 946 0
259 388 -38 947 0
385 451 158 948 0
-95 256 16 949 0
-220 -270 -423 950 0
-258 -365 119 951 0
178 180 -120 952 0
275 -168 98 953 0
153 475 20 954 0
248 -284 497 955 0
-173 299 347 956 0
-102 -381 232 957 0
369 254 -446 958 0
-101 45 -338 959 0
325 -407 292 960 0
341 -2 67 961 0
89 458 -469 962 0
-130 124 151 963 0
42 100 90 964 0
146 458 -189 965 0
-430 365 -310 966 0
-314 -361 -78 967 0
213 107 396 968 0
-390 -354 50 969 0
327 -342 -13 970 0
267 -312 -66 971 0
473 21 235 972 0
111 -192 -295 973 0
-82 -338 -222 974 0
499 330 332 975 0
-476 -357 -311 976 0
-462 115 209 977 0
-331 237 114 978 0
-60 464 -152 979 0
194 258 -415 980 0
-7 464 -168 981 0
-478 448 -437 982 0
241 -317 15 983 0
-439 236 -323 984 0
-242 481 3 985 0
169 -171 234 986 0
388 295 -30 987 0
314 -107 406 988 0
-109 -346 203 989 0
-373 498 88 990 0
490 268 29 991 0
-246 -317 152 992 0
428 206 485 993 0
-159 367 -443 994 0
372 -160 74 995 0
-190 106 -318 996 0
379 398 -495 997 0
-430 348 423 998 0
-255 14 -7 999 0
77 -255 292 1000 0
422 -138 45 1001 0
-264 -381 -492 1002 0
-244 -168 472 1003 0
314 -279 -256 1004 0
-281 -283 -432 1005 0
-51 8 -498 1006 0
-363 -282 -403 1007 0
-370 337 42 1008 0
-455 -410 295 1009 0
-346 83 -417 1010 0
397 -99 240 1011 0
251 -67 268 1012 0
-2 101 390 1013 0
106 294 190 1014 0
-365 -148 301 1015 0
-96 215 286 1016 0
-277 -226 341 1017 0
-74 284 -317 1018 0
42 137 106 1019 0
-350 247 -244 1020 0
-186 -302 34 1021 0
-14 -412 140 1022 0
-77 17 -115 1023 0
188 -435 325 1024 0
60 -44 141 1025 0
-134 -232 261 1026 0
301 89 249 1027 0
84 -283 154 1028 0
-318 -288 393 1029 0
446 -412 -448 1030 0
232 158 -318 1031 0
329 -264 83 1032 0
380 -272 -33 1033 0
-435 -498 302 1034 0
465 -48 410 1035 0
-472 -144 396 1036 0
-82 209 -68 1037 0
126 -451 -97 1038 0
362 -76 -1 1039 0
127 -361 -415 1040 0
253 -402 5 1041 0
-310 -292 180 1042 0
-254 -437 255 1043 0
-376 190 -471 1044 0
238 115 353 1045 0
488 -95 199 1046 0
473 328 -477 1047 0
363 158 449 1048 0
-312 120 364 1049 0
-280 -166 -364 1050 0
-481 -160 -346 1051 0
-417 46 -476 1052 0
426 210 448 1053 0
-385 -330 -41 1054 0
99 -117 217 1055 0
246 336 -214 1056 0
399 57 16 1057 0
189 121 411 1058 0
-187 -214 -155 1059 0
-152 -383 -44 1060 0
187 25 -499 1061 0
-417 -410 -315 1062 0
259 -441 415 1063 0
335 -69 498 1064 0
168 -119 -377 1065 0
217 486 495 1066 0
-402 -94 314 1067 0
494 236 -181 1068 0
39 -195 -421 1069 0
407 293 261 1070 0
-287 -259 -12 1071 0
494 -277 -436 1072 0
-498 149 -195 1073 0
-358 -377 -205 1074 0
189 171 330 1075 0
-237 -248 334 1076 0
269 -309 168 1077 0
-407 124 -189 1078 0
316 -20 -381 1079 0
250 -358 -209 1080 0
-60 -137 199 1081 0
206 -266 -54 1082 0
268 75 -226 1083 0
-183 478 -321 1084 0
380 -369 124 1085 0
-260 -488 43 1086 0
-156 105 -190 1087 0
-286 490 -265 1088 0
152 477 -289 1089 0
-348 477 310 1090 0
-7 432 -412 1091 0
-358 -418 302 1092 0
-310 475 -95 1093 0
420 -239 -178 1094 0
226 -9 11 1095 0
389 9 -192 1096 0
348 495 408 1097 0
427 465 169 1098 0
281 -131 -419 1099 0
-280 75 -398 1100 0
382 314 -81 1101 0
-262 313 349 1102 0
70 144 195 1103 0
-475 -294 -70 1104 0
-128 225 330 1105 0
-22 200 258 1106 0
-476 -356 128 1107 0
-331 -443 -58 1108 0
256 -230 417 1109 0
315 64 156 1110 0
-43 244 -330 1111 0
-159 353 95 1112 0
156 8 132 1113 0
-432 -182 -443 1114 0
-287 -36 -307 1115 0
368 161 -343 1116 0
-40 -386 37 1117 0
-412 439 -75 1118 0
353 -183 -263 1119 0
333 -83 -21 1120 0
368 297 140 1121 0
115 302 -357 1122 0
-37 -53 -437 1123 0
202 -289 232 1124 0
-232 -86 236 1125 0
305 -324 -275 1126 0
234 62 -188 1127 0
14 -383 86 1128 0
188 -165 152 1129 0
153 -247 -451 1130 0
280 450 195 1131 0
-495 -133 -347 1132 0
16 45 -293 1133 0
189 377 -125 1134 0
-106 465 58 1135 0
405 -179 -135 1136 0
193 -332 344 1137 0
-59 -43 -81 1138 0
402 -309 269 1139 0
408 -31 310 1140 0
-77 -235 -303 1141 0
-248 223 -259 1142 0
35 -262 -161 1143 0
-315 7 357 1144 0
255 -459 -232 1145 0
-448 75 497 1146 0
-335 280 378 1147 0
-10 182 -73 1148 0
-330 -40 -153 1149 0
27 -228 349 1150 0
-28 340 -446 1151 0
-133 102 76 1152 0
414 -496 -56 1153 0
74 369 -294 1154 0
-51 121 203 1155 0
-133 -165 396 1156 0
-495 137 16 1157 0
437 -14 -29 1158 0
-163 255 306 1159 0
-424 66 392 1160 0
-166 -298 456 1161 0
314 -8 -20 1162 0
12 389 280 1163 0
296 -330 -83 1164 0
-500 317 -146 1165 0
-19 -337 -11 1166 0
-3 -302 359 1167 0
87 304 -360 1168 0
118 -151 -314 1169 0
-166 -292 279 1170 0
-465 -42 429 1171 0
63 -95 316 1172 0
398 47 -211 1173 0
-459 34 48 1174 0
-231 424 288 1175 0
-162 88 96 1176 0
27 -146 -206 1177 0
77 432 -332 1178 0
355 -341 135 1179 0
82 -417 -392 1180 0
-7 24 -236 1181 0
354 -454 322 1182 0
-469 63 224 1183 0
-321 -183 -198 1184 0
278 -293 -18 1185 0
195 -444 -323 1186 0
432 -8 26 1187 0
-453 -404 -117 1188 0
-301 64 155 1189 0
-101 -51 271 1190 0
315 310 -55 1191 0
-28 65 -58 1192 0
180 -355 216 1193 0
-328 137 298 1194 0
-85 182 462 1195 0
-474 -144 -284 1196 0
441 -470 338 1197 0
-9 -406 -113 1198 0
476 -200 -122 1199 0
112 -431 -386 1200 0
240 52 360 1201 0
393 117 -410 1202 0
224 339 -500 1203 0
-468 349 -152 1204 0
-336 -68 -414 1205 0
94 -479 327 1206 0
-234 483 -103 1207 0
38 252 90 1208 0
22 -147 -289 1209 0
423 52 265 1210 0
49 394 85 1211 0
175 -401 280 1212 0
-199 371 -322 1213 0
-472 -77 -246 1214 0
-427 -333 -343 1215 0
71 472 276 1216 0
-8 85 -226 1217 0
-229 2 270 1218 0
-4 347 -183 1219 0
-6 156 -203 1220 0
419 -67 -131 1221 0
320 -489 -90 1222 0
-122 466 -250 1223 0
-485 81 211 1224 0
146 313 -468 1225 0
-458 -363 -432 1226 0
-54 170 -50 1227 0
-81 -222 75 1228 0
222 -357 -344 1229 0
358 31 -369 1230 0
23 68 51 1231 0
194 -425 -146 1232 0
147 12 315 1233 0
334 -5 -460 1234 0
-468 -172 -29 1235 0
34 78 -298 1236 0
402 264 106 1237 0
98 405 132 1238 0
-238 273 -105 1239 0
493 145 375 1240 0
-269 264 60 1241 0
-90 -101 -444 1242 0
-464 365 62 1243 0
128 487 -175 1244 0
-140 309 34 1245 0
-4 149 -491 1246 0
-484 453 482 1247 0
130 -146 354 1248 0
275 283 -321 1249 0
-289 -273 286 1250 0
176 52 483 1251 0
421 191 -342 1252 0
-230 361 344 1253 0
-431 -108 -293 1254 0
-467 -60 49 1255 0
-100 297 499 1256 0
-349 289 -434 1257 0
-389 -56 334 1258 0
-264 -183 173 1259 0
222 183 -308 1260 0
75 -442 444 1261 0
432 -3 -23 1262 0
340 -88 -367 1263 0
16 -169 -123 1264 0
-319 50 -329 1265 0
487 -130 -305 1266 0
-147 186 -311 1267 0
2 221 -387 1268 0
411 175 -224 1269 0
-424 -105 231 1270 0
103 -263 340 1271 0
14 -434 -71 1272 0
199 331 -315 1273 0
-127 -64 43 1274 0
-445 -287 -320 1275 0
-34 392 35 1276 0
-165 39 277 1277 0
-490 -371 -455 1278 0
275 -194 494 1279 0
-140 6 -220 1280 0
364 450 -122 1281 0
377 -160 -456 1282 0
367 -200 -443 1283 0
411 -7 -350 1284 0
256 -168 481 1285 0
-247 -286 494 1286 0
98 -361 15 1287 0
-23 -194 -342 1288 0
-122 257 -467 1289 0
-481 245 315 1290 0
-195 -280 -217 1291 0
-104 -167 500 1292 0
-224 -413 -290 1293 0
207 -131 -417 1294 0
-332 -3 357 1295 0
-228 168 -149 1296 0
62 -318 471 1297 0
371 -328 -25 1298 0
-347 127 -477 1299 0
-74 122 365 1300 0
-265 429 253 1301 0
-321 -150 84 1302 0
-299 341 -39 1303 0
-8 300 212 1304 0
224 422 198 1305 0
428 -308 -275 1306 0
411 16 174 1307 0
104 -157 13 1308 0
-316 376 -160 1309 0
143 -215 403 1310 0
295 85 -241 1311 0
333 -5 81 1312 0
-14 -236 428 1313 0
-448 249 -433 1314 0
97 135 389 1315 0
202 -436 195 1316 0
-142 450 -184 1317 0
242 -170 -148 1318 0
446 -195 393 1319 0
-333 -53 -2 1320 0
-329 -188 -448 1321 0
438 415 222 1322 0
-49 -222 -191 1323 0
259 465 -21 1324 0
122 143 -95 1325 0
310 16 -109 1326 0
-265 -216 390 1327 0
250 329 455 1328 0
400 -227 -193 1329 0
-125 -341 77 1330 0
-397 419 -332 1331 0
231 -499 -335 1332 0
-270 70 309 1333 0
32 461 -97 1334 0
78 -207 -314 1335 0
-451 -186 263 1336 0
-173 -328 -264 1337 0
-232 -81 -306 1338 0
-186 -262 141 1339 0
-142 -198 4 1340 0
1 32 21 1341 0
236 463 -320 1342 0
168 -490 135 1343 0
-143 -212 -458 1344 0
282 461 272 1345 0
81 -45 72 1346 0
-416 -242 447 1347 0
-487 127 -21 1348 0
-20 296 -475 1349 0
398 319 166 1350 0
-170 -113 -340 1351 0
59 4 -94 1352 0
-381 11 -405 1353 0
-9 435 -74 1354 0
-233 -288 41 1355 0
-351 -276 -479 1356 0
-3 90 309 1357 0
-216 -486 -115 1358 0
-142 146 482 1359 0
-83 154 176 1360 0
333 -306 423 1361 0
115 201 -379 1362 0
273 -106 -147 1363 0
207 157 122 1364 0
254 -274 -251 1365 0
181 -18 219 1366 0
459 279 230 1367 0
231 246 380 1368 0
-120 176 203 1369 0
182 100 -463 1370 0
-397 232 -422 1371 0
-338 282 156 1372 0
348 -45 291 1373 0
339 -305 -46 1374 0
-77 342 -44 1375 0
-448 176 431 1376 0
-482 63 344 1377 0
330 -280 94 1378 0
137 115 434 1379 0
216 -103 486 1380 0
401 -395 -440 1381 0
260 -210 398 1382 0
-267 -118 -455 1383 0
196 -114 362 1384 0
-43 -11 264 1385 0
-394 265 18 1386 0
173 -69 -251 1387 0
307 103 -447 1388 0
462 385 -249 1389 0
-367 -191 -355 1390 0
369 434 -281 1391 0
39 -404 108 1392 0
479 296 327 1393 0
64 -39 -288 1394 0
-6 -484 -114 1395 0
-254 54 127 1396 0
285 -465 -49 1397 0
-14 -188 126 1398 0
-176 -358 359 1399 0
-221 443 -485 1400 0
-289 316 355 1401 0
272 240 412 1402 0
396 216 -417 1403 0
369 220 491 1404 0
-471 383 487 1405 0
-322 390 174 1406 0
-186 83 126 1407 0
298 3 412 1408 0
315 -268 -239 1409 0
299 375 56 1410 0
-324 458 35 1411 0
-360 103 -345 1412 0
291 495 144 1413 0
415 -207 -326 1414 0
-181 228 326 1415 0
-439 337 441 1416 0
190 -279 27 1417 0
-337 495 372 1418 0
-500 -360 265 1419 0
233 -273 263 1420 0
395 261 -413 1421 0
221 -139 -355 1422 0
155 -188 405 1423 0
-115 9 466 1424 0
259 268 172 1425 0
-321 147 26 1426 0
-486 -398 57 1427 0
120 -249 56 1428 0
-384 -401 -14 1429 0
-380 -238 -359 1430 0
-47 478 -18 1431 0
249 -371 -231 1432 0
417 -262 -18 1433 0
-68 -458 250 1434 0
-107 -265 -120 1435 0
-259 330 52 1436 0
-256 18 -134 1437 0
-76 251 -469 1438 0
-4 313 -374 1439 0
187 -217 -235 1440 0
-304 -183 -324 1441 0
-9 -484 -359 1442 0
226 274 -66 1443 0
-309 299 -281 1444 0
154 415 211 1445 0
39 -298 396 1446 0
75 27 50 1447 0
491 357 -344 1448 0
42 308 424 1449 0
64 -77 -168 1450 0
-256 279 -310 1451 0
-303 119 122 1452 0
442 -476 -10 1453 0
-75 -456 299 1454 0
218 408 482 1455 0
143 198 -447 1456 0
217 -186 301 1457 0
-191 181 135 1458 0
-378 111 350 1459 0
130 -98 461 1460 0
-42 -122 9 1461 0
423 457 -172 1462 0
460 -231 106 1463 0
-443 87 -431 1464 0
299 -440 246 1465 0
302 -410 -100 1466 0
342 -486 53 1467 0
-470 412 164 1468 0
-375 -348 -458 1469 0
195 -480 -5 1470 0
478 22 149 1471 0
31 -168 -96 1472 0
266 -236 448 1473 0
140 -495 -453 1474 0
224 371 -202 1475 0
-420 -113 -453 1476 0
241 -218 -315 1477 0
424 -146 -423 1478 0
-404 -267 -359 1479 0
-307 -194 -97 1480 0
-195 65 236 1481 0
-110 349 475 1482 0
219 157 61 1483 0
-343 251 113 1484 0
-237 145 191 1485 0
-451 371 329 1486 0
219 -183 -96 1487 0
426 -411 172 1488 0
-166 -367 305 1489 0
269 -206 -317 1490 0
277 152 -473 1491 0
313 -49 -254 1492 0
-4 281 -81 1493 0
268 353 -337 1494 0
47 422 311 1495 0
87 -99 -415 1496 0
179 331 299 1497 0
-376 -450 242 1498 0
-476 450 60 1499 0
-236 -362 -208 1500 0
35 430 404 1501 0
348 -456 425 1502 0
-150 -82 -453 1503 0
-468 -198 451 1504 0
488 -397 444 1505 0
-139 61 63 1506 0
-385 261 -40 1507 0
-7 -350 88 1508 0
-100 479 185 1509 0
88 357 281 1510 0
288 -83 -270 1511 0
460 -93 -178 1512 0
-246 374 90 1513 0
-242 420 32 1514 0
-104 366 359 1515 0
336 409 -406 1516 0
-130 312 445 1517 0
86 368 -379 1518 0
-286 -77 -92 1519 0
257 397 118 1520 0
-164 -432 -178 1521 0
452 323 480 1522 0
342 -160 -138 1523 0
-100 227 82 1524 0
171 -456 287 1525 0
-260 -364 457 1526 0
-135 -21 202 1527 0
-398 -116 56 1528 0
252 492 19 1529 0
-319 -167 -398 1530 0
-468 -50 7 1531 0
-267 45 351 1532 0
491 406 96 1533 0
9 172 335 1534 0
322 456 -27 1535 0
277 377 -120 1536 0
-66 -162 38 1537 0
128 -210 -60 1538 0
327 287 300 1539 0
-212 213 -114 1540 0
-194 -326 -60 1541 0
-184 -480 -496 1542 0
153 423 -467 1543 0
-409 13 -404 1544 0
-272 -263 477 1545 0
201 281 -233 1546 0
294 -309 -263 1547 0
179 -454 -500 1548 0
-425 37 10 1549 0
-194 451 63 1550 0
78 59 -61 1551 0
403 -335 -368 1552 0
-409 -89 -28 1553 0
214 -172 436 1554 0
288 377 114 1555 0
436 462 33 1556 0
-278 -134 68 1557 0
187 491 -46 1558 0
-417 270 27 1559 0
-10 -250 243 1560 0
130 -228 167 1561 0
-11 276 -458 1562 0
226 54 -259 1563 0
-285 58 -212 1564 0
229 -65 461 1565 0
-32 -11 164 1566 0
-324 -303 164 1567 0
-402 -377 24 1568 0
-97 -393 237 1569 0
-460 271 -256 1570 0
-18 161 54 1571 0
-353 -360 -103 1572 0
-139 -118 269 1573 0
-58 450 -236 1574 0
-110 -208 -30 1575 0
-231 140 370 1576 0
494 69 -261 1577 0
373 427 -143 1578 0
203 -356 369 1579 0
-38 339 460 1580 0
405 15 239 1581 0
-399 -216 -398 1582 0
370 466 448 1583 0
453 195 -390 1584 0
81 116 492 1585 0
-411 -22 66 1586 0
-184 20 292 1587 0
-360 -464 -245 1588 0
246 -430 -247 1589 0
376 98 281 1590 0
-43 428 6 1591 0
-316 18 -328 1592 0
347 367 -133 1593 0
110 442 -129 1594 0
-75 -372 88 1595 0
-79 -160 -237 1596 0
177 343 -270 1597 0
65 -465 -28 1598 0
329 210 -40 1599 0
-440 -32 272 1600 0
-76 -381 393 1601 0
-156 -2 492 1602 0
-247 279 152 1603 0
-219 245 -363 1604 0
-276 466 -443 1605 0
-258 -327 -469 1606 0
313 141 -441 1607 0
238 485 33 1608 0
-408 -214 135 1609 0
-435 74 -289 1610 0
-462 -279 1 1611 0
394 229 468 1612 0
-94 -467 106 1613 0
-451 387 -320 1614 0
-312 400 -164 1615 0
170 -265 379 1616 0
143 56 -97 1617 0
52 492 330 1618 0
-198 -254 -243 1619 0
-299 67 -298 1620 0
366 334 -262 1621 0
-192 125 -120 1622 0
-234 459 -331 1623 0
-47 91 21 1624 0
452 403 29 1625 0
-169 147 -334 1626 0
206 482 478 1627 0
-248 -462 -370 1628 0
115 66 54 1629 0
309 39 -52 1630 0
-408 -50 -181 1631 0
73 172 -181 1632 0
-373 -273 -241 1633 0
-247 402 202 1634 0
-345 -478 37 1635 0
363 -287 -307 1636 0
-382 28 22 1637 0
-144 161 -6 1638 0
281 -419 -391 1639 0
248 -395 24 1640 0
-482 396 470 1641 0
-193 106 -72 1642 0
26 193 435 1643 0
-31 -211 452 1644 0
179 -307 367 1645 0
474 457 375 1646 0
-84 355 316 1647 0
128 475 453 1648 0
-314 -394 -390 1649 0
-489 480 385 1650 0
-90 182 -456 1651 0
445 -236 436 1652 0
-249 -495 -184 1653 0
-260 -416 -244 1654 0
-308 -18 323 1655 0
-337 67 -58 1656 0
-352 -49 -444 1657 0
-406 443 440 1658 0
-323 -259 -473 1659 0
-465 481 43 1660 0
-36 -273 183 1661 0
87 44 390 1662 0
470 326 344 1663 0
202 362 240 1664 0
144 -292 -249 1665 0
-430 -184 497 1666 0
-9 -455 438 1667 0
-203 61 173 1668 0
432 290 491 1669 0
331 -77 296 1670 0
96 -459 209 1671 0
-461 112 -17 1672 0
-420 -260 299 1673 0
53 -487 76 1674 0
-41 283 -9 1675 0
-284 223 -379 1676 0
294 -465 -103 1677 0
393 -418 419 1678 0
398 -168 -116 1679 0
-268 489 74 1680 0
-121 -141 -376 1681 0
44 222 -102 1682 0
465 -271 -454 1683 0
485 -480 182 1684 0
424 -325 -457 1685 0
347 -281 -43 1686 0
-108 205 277 1687 0
-181 -425 -146 1688 0
-249 -320 -59 1689 0
322 -336 -235 1690 0
180 67 -95 1691 0
472 47 498 1692 0
288 268 -326 1693 0
-431 -399 -359 1694 0
-496 273 414 1695 0
404 388 245 1696 0
-418 -83 -31 1697 0
-193 120 -244 1698 0
119 -497 -180 1699 0
447 -391 -145 1700 0
-230 207 143 1701 0
-77 -400 -431 1702 0
92 185 365 1703 0
-394 325 39 1704 0
53 -417 -319 1705 0
48 -114 -80 1706 0
-415 437 251 1707 0
-197 -139 -392 1708 0
28 450 47 1709 0
-257 -132 -69 1710 0
-241 -88 456 1711 0
430 162 66 1712 0
255 354 213 1713 0
-91 -500 302 1714 0
88 415 249 1715 0
-475 295 194 1716 0
-118 329 324 1717 0
-208 460 -291 1718 0
127 -450 -232 1719 0
-487 -293 -453 1720 0
479 313 133 1721 0
-284 108 210 1722 0
-231 425 -337 1723 0
82 -223 205 1724 0
-304 271 331 1725 0
203 -42 110 1726 0
340 427 -247 1727 0
9 230 -104 1728 0
193 -265 -171 1729 0
142 -271 -375 1730 0
254 -487 -174 1731 0
-192 444 347 1732 0
330 -239 399 1733 0
-105 327 28 1734 0
372 -363 -324 1735 0
-113 -265 76 1736 0
-256 -61 418 1737 0
184 -341 227 1738 0
124 267 -443 1739 0
363 -198 469 1740 0
-130 -467 152 1741 0
64 -19 -38 1742 0
251 158 452 1743 0
-419 -141 -358 1744 0
-92 -494 -197 1745 0
-22 164 -306 1746 0
-312 -452 196 1747 0
40 137 -109 1748 0
-458 -250 181 1749 0
83 -360 351 1750 0
156 389 -203 1751 0
-395 126 408 1752 0
253 434 323 1753 0
179 -12 -205 1754 0
260 -154 99 1755 0
444 110 -311 1756 0
-89 59 8 1757 0
303 455 198 1758 0
-364 -212 -498 1759 0
-447 -235 1 1760 0
-368 118 19 1761 0
-75 136 194 1762 0
-404 -410 408 1763 0
-435 218 132 1764 0
14 -414 -234 1765 0
377 217 294 1766 0
253 -353 -345 1767 0
446 -268 -68 1768 0
115 481 -252 1769 0
-199 24 222 1770 0
64 -284 -192 1771 0
202 -279 -395 1772 0
-49 148 -317 1773 0
-409 -106 -57 1774 0
155 -450 369 1775 0
322 -347 27 1776 0
-312 -177 190 1777 0
192 23 -460 1778 0
229 387 -149 1779 0
307 -380 278 1780 0
250 -26 -74 1781 0
-484 -80 57 1782 0
268 274 -238 1783 0
289 430 -50 1784 0
-228 174 167 1785 0
469 -102 -198 1786 0
-325 445 424 1787 0
144 328 330 1788 0
361 456 289 1789 0
-375 -31 11 1790 0
-171 -91 -145 1791 0
276 -175 243 1792 0
315 152 -267 1793 0
249 257 94 1794 0
57 -390 292 1795 0
-422 -12 -229 1796 0
-266 87 397 1797 0
-439 -111 -451 1798 0
-115 361 51 1799 0
-11 -114 -10 1800 0
470 -351 -491 1801 0
-336 -369 -486 1802 0
-311 -421 -135 1803 0
-306 307 -326 1804 0
-10 141 -35 1805 0
456 -103 -423 1806 0
490 -393 -72 1807 0
-26 -97 -248 1808 0
184 -124 155 1809 0
209 -398 -1 1810 0
452 231 485 1811 0
-14 16 206 1812 0
151 479 177 1813 0
209 214 -239 1814 0
-498 230 -458 1815 0
-235 438 109 1816 0
-213 469 440 1817 0
440 124 494 1818 0
-333 367 163 1819 0
175 -317 429 1820 0
-158 433 -229 1821 0
-420 -487 96 1822 0
-230 -331 -324 1823 0
-137 -306 -1 1824 0
64 3 429 1825 0
355 366 -299 1826 0
-143 -463 -473 1827 0
-133 18 -38 1828 0
83 375 -116 1829 0
-411 -256 -310 1830 0
-275 -234 -229 1831 0
469 232 -362 1832 0
-232 -289 78 1833 0
-257 31 -181 1834 0
339 -316 423 1835 0
-98 135 230 1836 0
-497 -214 -409 1837 0
428 422 -74 1838 0
194 -357 492 1839 0
-87 -457 275 1840 0
140 -495 -69 1841 0
435 445 -70 1842 0
-66 173 -172 1843 0
268 384 418 1844 0
26 -202 -441 1845 0
-251 -35 101 1846 0
-16 37 159 1847 0
392 433 42 1848 0
312 -283 -458 1849 0
-176 -189 -306 1850 0
470 -82 358 1851 0
-215 134 -349 1852 0
156 -221 -432 1853 0
266 -429 -336 1854 0
25 -188 -78 1855 0
-364 403 -70 1856 0
-260 439 223 1857 0
-174 -449 -97 1858 0
82 -383 125 1859 0
125 177 -143 1860 0
-361 498 -76 1861 0
498 470 414 1862 0
-108 -73 378 1863 0
-125 -301 -265 1864 0
-121 -173 -112 1865 0
-140 439 -400 1866 0
213 243 56 1867 0
334 209 464 1868 0
397 207 -189 1869 0
-87 -391 30 1870 0
126 -485 -188 1871 0
146 -357 -490 1872 0
-327 -216 -429 1873 0
377 -219 10 1874 0
-355 394 -86 1875 0
-216 -93 -203 1876 0
135 3 -50 1877 0
302 305 -268 1878 0
139 -129 460 1879 0
-230 142 -76 1880 0
275 470 333 1881 0
-186 -31 -269 1882 0
-172 -278 371 1883 0
-473 -291 411 1884 0
429 -270 11 1885 0
234 -228 -34 1886 0
-331 -110 -161 1887 0
106 -237 -228 1888 0
-303 -492 -285 1889 0
314 -297 -369 1890 0
431 145 -288 1891 0
-202 484 -32 1892 0
-252 -135 291 1893 0
385 -245 -413 1894 0
364 386 -49 1895 0
-249 -70 -238 1896 0
-148 275 92 1897 0
-463 -345 -290 1898 0
97 104 342 1899 0
128 238 333 1900 0
-407 -153 104 1901 0
359 -141 379 1902 0
184 27 200 1903 0
229 -246 453 1904 0
-443 -164 -292 1905 0
155 -237 440 1906 0
253 -377 -220 1907 0
-438 -402 437 1908 0
274 -323 332 1909 0
396 251 -476 1910 0
201 -280 -382 1911 0
437 322 -388 1912 0
167 -237 165 1913 0
385 -212 -186 1914 0
-373 -215 445 1915 0
207 -447 -201 1916 0
153 370 145 1917 0
376 431 339 1918 0
142 491 70 1919 0
-353 94 -210 1920 0
17 -85 -25 1921 0
-215 -194 -124 1922 0
-280 -215 486 1923 0
379 -271 -185 1924 0
455 -405 372 1925 0
-465 -106 77 1926 0
376 464 79 1927 0
469 -16 318 1928 0
320 484 191 1929 0
29 -171 477 1930 0
334 -418 15 1931 0
364 236 -491 1932 0
382 -303 277 1933 0
284 -217 -245 1934 0
-80 133 -357 1935 0
9 -357 -31 1936 0
420 126 128 1937 0
-168 -154 23 1938 0
244 20 11 1939 0
-12 450 -410 1940 0
251 152 131 1941 0
382 438 -261 1942 0
-194 354 221 1943 0
338 309 -181 1944 0
257 110 -398 1945 0
460 347 -206 1946 0
228 -421 -268 1947 0
391 232 188 1948 0
300 -32 143 1949 0
-49 -328 -97 1950 0
-394 324 411 1951 0
334 -250 110 1952 0
277 421 452 1953 0
-262 -278 -216 1954 0
187 161 -395 1955 0
-69 -383 280 1956 0
-424 -486 452 1957 0
379 -15 249 1958 0
-87 372 223 1959 0
-176 55 -135 1960 0
165 -153 348 1961 0
58 -264 -231 1962 0
-285 335 -433 1963 0
179 115 348 1964 0
-7 457 -313 1965 0
-219 220 81 1966 0
-368 116 -190 1967 0
-130 466 -87 1968 0
-282 284 -134 1969 0
-253 -14 116 1970 0
-114 -262 -19 1971 0
-471 -94 -332 1972 0
243 248 114 1973 0
-111 -255 35 1974 0
-105 179 112 1975 0
-459 45 141 1976 0
-202 421 -254 1977 0
-407 -357 80 1978 0
-235 -30 -126 1979 0
-230 -100 116 1980 0
89 -239 -440 1981 0
414 382 156 1982 0
105 315 -383 1983 0
245 -31 342 1984 0
-357 -414 -383 1985 0
163 -442 -494 1986 0
-21 48 -23 1987 0
461 -183 429 1988 0
386 64 -99 1989 0
266 489 175 1990 0
-222 69 -407 1991 0
-35 13 -108 1992 0
-45 -297 399 1993 0
-277 -31 415 1994 0
400 -500 425 1995 0
340 40 43 1996 0
150 191 -13 1997 0
167 224 -329 1998 0
493 477 143 1999 0
-53 188 -103 2000 0
298 -41 -222 2001 0
106 392 -134 2002 0
20 -26 -262 2003 0
158 237 419 2004 0
-381 329 158 2005 0
443 241 -80 2006 0
-352 137 -329 2007 0
183 341 -109 2008 0
-151 -218 -259 2009 0
470 -110 -292 2010 0
112 -27 -417 2011 0
190 -273 44 2012 0
286 122 391 2013 0
168 327 411 2014 0
385 490 149 2015 0
-136 -452 -21 2016 0
179 273 490 2017 0
492 -463 -55 2018 0
-6 274 -128 2019 0
-461 334 -353 2020 0
-141 -496 -387 2021 0
219 339 -455 2022 0
228 62 -9 2023 0
-245 -26 258 2024 0
-148 -73 -436 2025 0
101 -117 467 2026 0
322 430 21 2027 0
-256 259 -478 2028 0
-96 -297 140 2029 0
339 -468 474 2030 0
95 211 -189 2031 0
-140 262 -246 2032 0
93 -213 -153 2033 0
59 344 -405 2034 0
-87 417 -352 2035 0
-469 -495 -106 2036 0
309 -139 -35 2037 0
-456 -36 -118 2038 0
-441 -291 416 2039 0
-424 -431 330 2040 0
-105 444 -230 2041 0
413 -416 -472 2042 0
36 452 196 2043 0
145 -394 -251 2044 0
-55 -112 -144 2045 0
460 -291 263 2046 0
-398 -91 -466 2047 0
-294 423 -419 2048 0
-283 -139 47 2049 0
-241 -190 231 2050 0
383 -424 324 2051 0
-422 -195 31 2052 0
-72 463 -312 2053 0
219 -203 -479 2054 0
-130 -68 -334 2055 0
484 -119 493 2056 0
-470 -31 401 2057 0
-432 307 -214 2058 0
148 474 -300 2059 0
-372 -461 487 2060 0
-462 -290 -479 2061 0
-446 -381 -319 2062 0
248 463 261 2063 0
166 -64 -301 2064 0
11 23 -1 2065 0
190 237 176 2066 0
235 280 304 2067 0
-407 -224 -337 2068 0
-303 215 149 2069 0
-291 60 -92 2070 0
124 -360 -27 2071 0
-100 390 -72 2072 0
-182 227 403 2073 0
-51 -134 258 2074 0
7 -232 -192 2075 0
218 -461 5 2076 0
-307 313 -450 2077 0
-487 -35 -105 2078 0
185 234 364 2079 0
-337 77 -206 2080 0
281 -249 200 2081 0
-92 -373 315 2082 0
310 325 -491 2083 0
382 -146 277 2084 0
352 -202 76 2085 0
339 181 179 2086 0
65 -295 -481 2087 0
-190 -371 -167 2088 0
228 -308 108 2089 0
405 349 427 2090 0
299 317 -408 2091 0
157 -138 44 2092 0
-10 121 -359 2093 0
442 -243 265 2094 0
-122 227 -210 2095 0
88 499 314 2096 0
11 301 205 2097 0
309 -345 265 2098 0
-380 -7 141 2099 0
-278 -429 469 2100 0
464 -477 -400 2101 0
-469 282 -35 2102 0
-326 440 -424 2103 0
-372 437 355 2104 0
-3 -456 -199 2105 0
-257 -28 99 2106 0
-380 338 4 2107 0
395 333 -239 2108 0
-369 -397 -500 2109 0
-48 346 188 2110 0
298 -484 408 2111 0
-481 113 298 2112 0
164 204 170 2113 0
-298 -107 -281 2114 0
158 -85 -423 2115 0
-153 309 -198 2116 0
386 168 479 2117 0
-358 336 245 2118 0
489 -136 -95 2119 0
-279 189 307 2120 0
162 243 -185 2121 0
-450 -491 -26 2122 0
290 70 261 2123 0
111 -464 -289 2124 0
360 1 -470 2125 0
313 34 -493 2126 0
282 170 387 2127 0
-38 11 468 2128 0
-112 -218 136 2129 0
-289 -54 -290 2130 0
-149 345 -398 2131 0
-393 89 294 2132 0
-75 306 116 2133 0
-101 -231 -348 2134 0
359 -28 210 2135 0
-106 -67 -179 2136 0
263 -323 49 2137 0
430 452 382 2138 0
419 -401 -240 2139 0
498 -457 207 2140 0
-412 -493 141 2141 0
353 -331 68 2142 0
86 -244 157 2143 0
227 455 -16 2144 0
-281 315 -113 2145 0
173 -381 473 2146 0
481 -37 -218 2147 0
-224 -56 427 2148 0
-398 -74 -500 2149 0
-47 -457 298 2150 0
348 122 108 2151 0
318 -3 -54 2152 0
120 232 496 2153 0
97 -364 -23 2154 0
456 -349 64 2155 0
-240 -354 198 2156 0
-255 -52 -141 2157 0
-75 198 -112 2158 0
52 12 51 2159 0
-314 -247 46 2160 0
-9 -175 -437 2161 0
452 -84 -87 2162 0
181 -383 -278 2163 0
-421 -6 351 2164 0
-28 -43 -60 2165 0
-450 388 492 2166 0
-285 -163 374 2167 0
5 -154 -458 2168 0
350 -379 -22 2169 0
-79 359 428 2170 0
364 -445 -26 2171 0
-3 190 -21 2172 0
215 376 -347 2173 0
54 -316 314 2174 0
-149 -115 -405 2175 0
74 -468 -43 2176 0
280 310 336 2177 0
491 -329 287 2178 0
217 -380 119 2179 0
-417 -288 367 2180 0
-53 196 -447 2181 0
-180 315 -37 2182 0
257 209 -330 2183 0
269 11 426 2184 0
118 -224 425 2185 0
-460 -172 -247 2186 0
-321 193 112 2187 0
-108 -231 420 2188 0
-94 -281 445 2189 0
119 -353 226 2190 0
-285 128 -433 2191 0
-193 454 -105 2192 0
-58 -85 -489 2193 0
279 -282 290 2194 0
85 -44 347 2195 0
244 -334 430 2196 0
41 190 -175 2197 0
114 236 291 2198 0
394 258 -389 2199 0
220 -172 -325 2200 0
376 -201 235 2201 0
-61 165 339 2202 0
-10 -473 366 2203 0
20 -75 -304 2204 0
114 332 -481 2205 0
468 -51 183 2206 0
-240 195 -122 2207 0
-428 -49 -292 2208 0
230 -495 -85 2209 0
26 101 368 2210 0
7 123 -461 2211 0
-388 86 447 2212 0
-376 -174 -481 2213 0
-500 73 -319 2214 0
-464 200 -322 2215 0
380 -238 480 2216 0
-233 344 -81 2217 0
257 -231 338 2218 0
-272 -199 -457 2219 0
-118 -421 307 2220 0
39 -202 187 2221 0
346 484 -342 2222 0
-95 22 -104 2223 0
-36 -447 -45 2224 0
437 -363 -325 2225 0
292 134 472 2226 0
-213 -311 340 2227 0
306 -394 434 2228 0
-98 -189 -222 2229 0
-132 389 178 2230 0
-147 365 286 2231 0
-221 -423 357 2232 0
443 -134 -444 2233 0
396 365 487 2234 0
-357 111 -484 2235 0
126 165 -306 2236 0
-412 4 -172 2237 0
150 286 484 2238 0
-64 -473 -61 2239 0
-94 -155 -158 2240 0
-80 -434 -432 2241 0
39 182 276 2242 0
-21 92 169 2243 0
-234 -77 -96 2244 0
266 459 -97 2245 0
-42 152 495 2246 0
390 17 79 2247 0
-129 356 -235 2248 0
221 -389 127 2249 0
336 -36 421 2250 0
-82 90 -76 2251 0
81 213 362 2252 0
-116 414 117 2253 0
-282 -18 -69 2254 0
404 65 17 2255 0
-414 114 -203 2256 0
145 300 325 2257 0
193 264 373 2258 0
-348 -205 291 2259 0
-352 -418 -377 2260 0
23 43 245 2261 0
491 -463 390 2262 0
85 -70 -410 2263 0
-25 -278 -111 2264 0
-204 -129 -141 2265 0
151 76 421 2266 0
382 396 -112 2267 0
382 -404 -90 2268 0
-161 -436 17 2269 0
281 418 258 2270 0
315 310 -256 2271 0
-209 -5 -283 2272 0
187 -283 -432 2273 0
382 -257 109 2274 0
343 295 428 2275 0
-97 42 -500 2276 0
-339 -113 32 2277 0
-332 -428 290 2278 0
323 -97 -433 2279 0
-350 -366 7 2280 0
36 -157 459 2281 0
-298 -330 -355 2282 0
169 186 476 2283 0
95 471 54 2284 0
193 -359 -430 2285 0
199 242 114 2286 0
-293 -34 -29 2287 0
487 -300 -449 2288 0
-384 -451 -441 2289 0
45 -356 -234 2290 0
-338 369 -389 2291 0
-465 -163 2 2292 0
-489 159 207 2293 0
288 -404 238 2294 0
118 -392 -337 2295 0
-97 -145 214 2296 0
-219 197 -73 2297 0
-327 -439 300 2298 0
-478 266 -289 2299 0
163 -102 -334 2300 0
-117 302 -71 2301 0
446 -135 -156 2302 0
-409 318 -69 2303 0
-372 -486 -47 2304 0
87 -279 355 2305 0
-56 -196 458 2306 0
245 264 146 2307 0
109 247 -131 2308 0
166 201 87 2309 0
124 219 284 2310 0
-483 -99 182 2311 0
175 -47 89 2312 0
-1 -197 65 2313 0
460 -290 -130 2314 0
414 134 -282 2315 0
-452 279 280 2316 0
145 60 -92 2317 0
-337 123 494 2318 0
-338 -422 -53 2319 0
-499 -205 401 2320 0
135 499 -190 2321 0
-307 -322 468 2322 0
392 -455 -393 2323 0
-269 -199 122 2324 0
313 -371 -369 2325 0
-424 453 -169 2326 0
133 36 -138 2327 0
-173 -76 140 2328 0
-231 -398 259 2329 0
406 -163 452 2330 0
-430 54 -154 2331 0
500 -272 449 2332 0
291 -472 466 2333 0
11 67 74 2334 0
-397 -260 6 2335 0
-141 -365 -35 2336 0
-128 -15 -229 2337 0
205 363 -398 2338 0
-104 -318 323 2339 0
51 -337 -372 2340 0
-418 462 -111 2341 0
-224 -301 199 2342 0
-164 4 -152 2343 0
216 320 140 2344 0
229 -284 -410 2345 0
-111 -146 115 2346 0
-313 353 -168 2347 0
-377 198 -119 2348 0
427 27 97 2349 0
16 -379 -292 2350 0
302 310 -411 2351 0
446 210 -329 2352 0
477 278 -233 2353 0
-289 -40 156 2354 0
-331 82 -242 2355 0
55 408 -265 2356 0
279 -363 -105 2357 0
-365 -303 -234 2358 0
-362 -178 -468 2359 0
-46 284 207 2360 0
-482 -322 -216 2361 0
-232 -412 141 2362 0
-474 -217 3 2363 0
-72 61 -443 2364 0
-193 368 -228 2365 0
-189 -163 -170 2366 0
-51 -413 124 2367 0
-33 -20 -339 2368 0
-326 -77 10 2369 0
-29 436 -335 2370 0
-178 -136 -80 2371 0
416 96 199 2372 0
382 490 -182 2373 0
136 275 -227 2374 0
-341 288 193 2375 0
-5 -349 -477 2376 0
453 97 -19 2377 0
-305 343 -327 2378 0
-164 -318 371 2379 0
116 270 -90 2380 0
-270 -484 -14 2381 0
496 -321 -298 2382 0
95 214 315 2383 0
53 -45 281 2384 0
131 -124 357 2385 0
-400 -111 -424 2386 0
500 -354 -249 2387 0
68 -465 -263 2388 0
-389 -138 -444 2389 0
-104 -116 -119 2390 0
-143 441 -80 2391 0
-41 -350 450 2392 0
302 -206 365 2393 0
296 199 126 2394 0
483 -19 -372 2395 0
-32 -29 471 2396 0
-354 -307 342 2397 0
466 100 185 2398 0
-388 -192 157 2399 0
192 380 -435 2400 0
-45 123 399 2401 0
-51 327 378 2402 0
8 -462 264 2403 0
-443 -437 352 2404 0
-150 -144 449 2405 0
21 495 453 2406 0
322 -273 78 2407 0
214 68 -96 2408 0
-89 487 165 2409 0
154 -128 -377 2410 0
17 -190 -168 2411 0
-285 -443 50 2412 0
294 107 128 2413 0
-294 482 -392 2414 0
33 -108 3 2415 0
-81 -149 -491 2416 0
-474 497 150 2417 0
-24 298 -294 2418 0
463 -106 -331 2419 0
497 -11 189 2420 0
-210 452 8 2421 0
232 167 -187 2422 0
211 -1 -73 2423 0
-355 -174 -338 2424 0
-146 205 -181 2425 0
-243 -28 -233 2426 0
-95 241 -242 2427 0
-412 -211 165 2428 0
216 327 -12 2429 0
-446 59 -153 2430 0
361 33 497 2431 0
186 174 -445 2432 0
-37 -40 -260 2433 0
135 -153 353 2434 0
-94 463 148 2435 0
224 265 7 2436 0
-49 -160 -10 2437 0
211 113 -73 2438 0
-438 197 -189 2439 0
-233 396 73 2440 0
278 415 310 2441 0
-182 -382 422 2442 0
-133 459 -34 2443 0
-429 249 -451 2444 0
-264 182 398 2445 0
404 66 -472 2446 0
65 -429 -15 2447 0
418 347 200 2448 0
138 418 -141 2449 0
486 -444 391 2450 0
-304 343 226 2451 0
463 -95 367 2452 0
-327 -461 362 2453 0
-494 24 431 2454 0
490 91 411 2455 0
-381 266 -261 2456 0
311 -152 124 2457 0
187 -106 -451 2458 0
-320 -234 -152 2459 0
-223 157 4 2460 0
-103 -97 -369 2461 0
-228 -231 8 2462 0
-474 61 -47 2463 0
497 428 372 2464 0
-261 -428 -65 2465 0
-491 52 -21 2466 0
301 81 -224 2467 0
-241 -31 368 2468 0
231 -358 -72 2469 0
368 -462 -345 2470 0
-49 -96 375 2471 0
-467 252 89 2472 0
120 -376 -453 2473 0
353 -304 246 2474 0
-110 420 42 2475 0
74 -211 22 2476 0
124 -205 -366 2477 0
407 12 -103 2478 0
-59 -481 158 2479 0
-252 97 173 2480 0
405 -124 -287 2481 0
301 -466 -14 2482 0
223 -283 496 2483 0
489 -87 453 2484 0
398 64 96 2485 0
5 -242 205 2486 0
-246 -385 -270 2487 0
-312 -473 -179 2488 0
-376 161 330 2489 0
-123 31 -98 2490 0
-374 225 -441 2491 0
108 129 190 2492 0
-49 -33 493 2493 0
260 362 -107 2494 0
147 372 -154 2495 0
407 191 -377 2496 0
-54 -340 78 2497 0
-408 301 458 2498 0
323 -10 321 2499 0
-483 412 -139 2500 0
358 409 180 2501 0
474 172 137 2502 0
-290 385 -418 2503 0
-328 323 324 2504 0
459 -388 280 2505 0
480 233 -460 2506 0
-170 328 -8 2507 0
-94 -197 249 2508 0
430 126 449 2509 0
-495 -119 -325 2510 0
159 418 -153 2511 0
180 -23 -388 2512 0
15 -424 448 2513 0
-388 -477 492 2514 0
-429 -289 -65 2515 0
286 -308 -358 2516 0
122 188 -348 2517 0
-242 -185 -360 2518 0
472 194 48 2519 0
-214 -382 -279 2520 0
65 -493 444 2521 0
-324 -258 -239 2522 0
-226 -127 426 2523 0
477 -475 208 2524 0
-110 -416 274 2525 0
103 15 -281 2526 0
-89 -428 197 2527 0
-370 -341 -349 2528 0
236 476 -10 2529 0
429 265 -237 2530 0
-451 -436 -274 2531 0
204 -479 78 2532 0
-257 332 -143 2533 0
-442 6 168 2534 0
68 69 -166 2535 0
209 -373 -177 2536 0
-482 -229 20 2537 0
-254 356 377 2538 0
-131 -372 -323 2539 0
329 -317 91 2540 0
-171 438 -104 2541 0
-48 242 -21 2542 0
-207 -279 493 2543 0
-464 138 406 2544 0
245 -282 -326 2545 0
108 -118 -486 2546 0
210 -164 54 2547 0
387 -27 104 2548 0
-96 245 -202 2549 0
434 66 -16 2550 0
-343 -235 144 2551 0
-221 216 139 2552 0
-50 -266 32 2553 0
223 -396 -14 2554 0
207 393 -425 2555 0
-459 329 226 2556 0
209 483 -214 2557 0
52 -46 293 2558 0
360 -58 -338 2559 0
364 241 334 2560 0
346 87 484 2561 0
239 404 270 2562 0
-65 -345 -417 2563 0
-360 164 335 2564 0
-62 -61 299 2565 0
-284 -266 -296 2566 0
-449 -362 -475 2567 0
92 153 362 2568 0
71 331 72 2569 0
-391 217 30 2570 0
275 482 -468 2571 0
-406 -261 422 2572 0
-81 -85 95 2573 0
-483 59 -33 2574 0
-354 367 -53 2575 0
430 459 -148 2576 0
-349 462 -425 2577 0
-250 -375 -150 2578 0
-303 -38 389 2579 0
100 21 183 2580 0
133 -17 297 2581 0
350 309 -482 2582 0
-434 404 -85 2583 0
-187 -441 -180 2584 0
99 293 486 2585 0
31 153 74 2586 0
369 286 -303 2587 0
386 -375 -487 2588 0
464 -61 453 2589 0
437 -195 -433 2590 0
398 -320 -230 2591 0
-416 -387 120 2592 0
-108 153 -421 2593 0
-152 99 -440 2594 0
-233 -8 199 2595 0
-86 -392 62 2596 0
268 -243 -401 2597 0
-191 -111 -269 2598 0
10 -18 17 2599 0
277 121 475 2600 0
-320 9 89 2601 0
-192 365 147 2602 0
139 -311 90 2603 0
-308 489 210 2604 0
107 236 37 2605 0
410 -111 -424 2606 0
-33 -158 -192 2607 0
-349 -46 -316 2608 0
17 -183 333 2609 0
300 -184 -174 2610 0
-298 150 -314 2611 0
-26 479 31 2612 0
-177 156 -63 2613 0
-65 -246 85 2614 0
152 346 -414 2615 0
95 154 361 2616 0
-329 245 367 2617 0
223 -58 -103 2618 0
484 96 315 2619 0
-425 251 -158 2620 0
-246 -11 -185 2621 0
-68 277 -349 2622 0
372 -275 185 2623 0
223 94 -175 2624 0
-258 -360 -482 2625 0
210 -281 -32 2626 0
169 119 368 2627 0
316 485 432 2628 0
380 51 -194 2629 0
-410 -87 -290 2630 0
443 -236 432 2631 0
403 93 -269 2632 0
-448 -352 -291 2633 0
-40 417 -304 2634 0
-259 30 187 2635 0
-293 371 312 2636 0
-466 14 132 2637 0
178 240 321 2638 0
124 -41 -455 2639 0
126 -7 -53 2640 0
278 -413 307 2641 0
298 -339 -279 2642 0
-497 -420 -155 2643 0
-455 -368 245 2644 0
-2 263 -316 2645 0
-117 140 -58 2646 0
-358 -165 -104 2647 0
-76 5 249 2648 0
483 107 -225 2649 0
489 400 -463 2650 0
