p cnf 2650 2150
89 67 -266 501 0
-330 -242 -367 502 0
290 -148 -409 503 0
489 138 -321 504 0
239 -200 492 505 0
-437 -416 -256 506 0
328 438 410 507 0
106 -431 380 508 0
441 330 146 509 0
-449 -303 -216 510 0
282 -201 399 511 0
75 -240 -323 512 0
362 172 -170 513 0
-480 264 -489 514 0
405 -421 188 515 0
204 218 27 516 0
-164 -91 -45 517 0
255 222 452 518 0
386 25 -248 519 0
-125 -103 -188 520 0
-63 -170 -349 521 0
-191 -67 -161 522 0
-357 314 -167 523 0
-352 -479 293 524 0
362 -464 -137 525 0
448 417 24 526 0
-215 252 -234 527 0
374 -202 177 528 0
301 492 -398 529 0
-167 126 -328 530 0
83 189 -324 531 0
407 -203 336 532 0
279 432 -407 533 0
149 -49 -292 534 0
406 -291 -334 535 0
-173 97 458 536 0
126 -164 355 537 0
-286 240 -128 538 0
-340 -290 -212 539 0
59 -320 -64 540 0
267 -299 -84 541 0
-119 -366 100 542 0
-51 -442 -54 543 0
45 -454 -274 544 0
267 -465 247 545 0
-179 -409 -423 546 0
366 -425 287 547 0
-279 456 431 548 0
317 -47 -326 549 0
387 144 98 550 0
84 8 116 551 0
-382 -471 -139 552 0
464 -152 -72 553 0
-112 -441 16 554 0
-343 -33 -476 555 0
-196 227 485 556 0
-153 -376 266 557 0
397 -307 467 558 0
-102 181 219 559 0
373 -487 89 560 0
-448 5 269 561 0
2 282 -424 562 0
486 -8 -254 563 0
40 42 -264 564 0
405 -3 69 565 0
338 192 446 566 0
-345 -363 81 567 0
261 15 58 568 0
406 473 -32 569 0
173 -208 -101 570 0
173 369 69 571 0
386 -488 -45 572 0
-416 465 -111 573 0
-474 283 -328 574 0
119 163 328 575 0
-203 -282 -430 576 0
494 471 -94 577 0
-496 126 -492 578 0
454 -476 205 579 0
8 41 -428 580 0
260 -417 -73 581 0
366 -330 -72 582 0
-74 -34 65 583 0
221 -458 -468 584 0
84 65 461 585 0
436 -299 -51 586 0
396 289 158 587 0
65 29 140 588 0
-297 -383 -146 589 0
-499 311 391 590 0
-408 -379 -196 591 0
-141 256 -483 592 0
-247 -279 334 593 0
-435 -240 3 594 0
190 298 120 595 0
221 -438 -89 596 0
-188 -388 -51 597 0
234 -437 -13 598 0
333 -296 186 599 0
320 146 -24 600 0
-81 -124 54 601 0
-495 171 400 602 0
-41 -55 263 603 0
262 -78 193 604 0
-63 183 137 605 0
-100 454 319 606 0
55 -202 71 607 0
-94 -285 -52 608 0
45 -18 -328 609 0
314 -311 -43 610 0
404 -467 27 611 0
312 -437 272 612 0
-450 391 458 613 0
-312 -457 -275 614 0
-96 212 -314 615 0
36 -438 -417 616 0
345 330 29 617 0
-388 387 -27 618 0
340 -332 160 619 0
138 -436 -328 620 0
-430 -317 -31 621 0
121 -26 107 622 0
140 -144 -361 623 0
-492 -354 -420 624 0
358 -431 -97 625 0
440 152 191 626 0
-420 -207 -60 627 0
-324 -3 393 628 0
191 275 20 629 0
-482 -478 -36 630 0
-376 -215 236 631 0
364 346 -404 632 0
4 7 -352 633 0
242 -119 -347 634 0
133 174 -107 635 0
366 62 -214 636 0
149 -430 -248 637 0
-86 -163 346 638 0
4 499 121 639 0
-479 -359 -161 640 0
183 -471 497 641 0
182 65 103 642 0
-404 493 14 643 0
474 163 451 644 0
158 229 -381 645 0
495 -424 410 646 0
153 60 -406 647 0
378 421 100 648 0
-334 -349 -24 649 0
-472 181 -401 650 0
281 -270 -296 651 0
-264 500 -123 652 0
275 30 452 653 0
-177 24 -337 654 0
59 431 -142 655 0
278 -289 351 656 0
468 171 -90 657 0
488 -420 -381 658 0
42 345 395 659 0
-71 26 331 660 0
-161 404 449 661 0
-307 -21 19 662 0
416 -151 265 663 0
-314 -8 -231 664 0
-185 223 447 665 0
399 347 -209 666 0
426 -418 -487 667 0
-236 444 -226 668 0
281 483 -69 669 0
231 -402 -293 670 0
-77 -170 255 671 0
183 -360 249 672 0
-135 -355 -160 673 0
-325 -282 420 674 0
-448 184 -144 675 0
-253 307 -270 676 0
-86 -408 368 677 0
-179 201 363 678 0
-203 -378 343 679 0
-479 -165 338 680 0
214 183 -85 681 0
1 -449 -469 682 0
-475 27 160 683 0
458 286 451 684 0
190 -57 -476 685 0
171 -485 -364 686 0
-86 -48 -115 687 0
-85 154 205 688 0
254 -162 -53 689 0
175 -53 19 690 0
160 6 229 691 0
366 400 -164 692 0
360 -213 5 693 0
80 407 192 694 0
85 -483 418 695 0
240 273 -16 696 0
-380 484 -115 697 0
-213 -307 218 698 0
375 393 -479 699 0
274 452 -192 700 0
359 -384 -259 701 0
217 230 -321 702 0
-401 6 220 703 0
430 -49 -299 704 0
466 291 -140 705 0
90 428 -400 706 0
-222 408 58 707 0
457 -150 -6 708 0
268 421 193 709 0
315 -197 -278 710 0
-357 -68 292 711 0
112 -43 -45 712 0
384 -281 -347 713 0
-249 -481 -318 714 0
231 -345 325 715 0
265 332 483 716 0
352 -229 -296 717 0
-56 -121 -239 718 0
-115 -457 198 719 0
-95 -84 499 720 0
294 334 -34 721 0
-198 -327 -291 722 0
195 85 137 723 0
178 -173 390 724 0
410 -407 327 725 0
-214 -262 51 726 0
468 -477 -202 727 0
-261 -118 249 728 0
-141 -423 -273 729 0
-209 -454 -338 730 0
59 308 331 731 0
175 -269 306 732 0
-362 72 -486 733 0
-344 -288 343 734 0
-148 294 -331 735 0
-19 -392 -73 736 0
133 -305 -113 737 0
-368 436 317 738 0
-230 23 -287 739 0
189 322 331 740 0
205 105 462 741 0
250 225 -363 742 0
340 174 339 743 0
382 185 257 744 0
368 -202 358 745 0
-490 93 42 746 0
-431 382 206 747 0
119 52 163 748 0
101 410 245 749 0
-336 23 408 750 0
-151 -342 307 751 0
-186 -73 196 752 0
215 -36 -425 753 0
170 -111 -187 754 0
439 374 383 755 0
-380 313 -94 756 0
328 -380 -448 757 0
-128 -381 361 758 0
-9 -151 291 759 0
408 -373 -101 760 0
-82 -243 286 761 0
-196 -257 293 762 0
-217 123 142 763 0
222 70 267 764 0
374 -317 -246 765 0
424 -185 -65 766 0
-117 -487 -44 767 0
432 -213 129 768 0
-201 -185 -394 769 0
47 -139 -125 770 0
-296 80 118 771 0
436 301 316 772 0
100 467 152 773 0
22 -119 328 774 0
-454 -401 -37 775 0
239 175 413 776 0
-136 241 465 777 0
-213 493 -494 778 0
-346 344 -17 779 0
-87 259 -135 780 0
-252 -259 473 781 0
-86 -394 15 782 0
115 -80 418 783 0
-260 365 -262 784 0
286 -383 -255 785 0
-48 194 -496 786 0
-36 389 -49 787 0
-443 -126 -345 788 0
-434 -391 -339 789 0
343 -101 487 790 0
-454 -46 168 791 0
4 432 -460 792 0
189 65 -266 793 0
-443 19 -365 794 0
454 184 388 795 0
-47 -164 288 796 0
250 -165 336 797 0
-86 54 -57 798 0
-481 -216 74 799 0
-190 -132 198 800 0
68 -45 65 801 0
-306 428 184 802 0
91 -99 -348 803 0
-404 29 343 804 0
235 -327 -56 805 0
-482 195 -164 806 0
139 -201 -54 807 0
31 -428 -109 808 0
483 96 -5 809 0
-167 -423 -478 810 0
-273 -71 -144 811 0
21 115 353 812 0
-453 -218 -309 813 0
-269 -482 455 814 0
-107 33 -165 815 0
-180 433 -354 816 0
-281 73 -147 817 0
-336 -11 -238 818 0
-106 155 242 819 0
90 389 -362 820 0
414 119 -61 821 0
-156 -106 10 822 0
-12 111 406 823 0
-433 -385 86 824 0
463 -281 -217 825 0
-15 -48 -457 826 0
-6 -153 452 827 0
-280 500 14 828 0
151 89 -304 829 0
343 -491 -114 830 0
-368 185 319 831 0
102 -371 112 832 0
-15 16 362 833 0
317 209 389 834 0
-158 -426 -353 835 0
-138 -59 -190 836 0
216 -426 -297 837 0
-196 271 381 838 0
2 -285 -220 839 0
-492 -208 -274 840 0
-61 23 223 841 0
345 -427 -287 842 0
156 239 152 843 0
81 -86 -344 844 0
-173 -45 36 845 0
279 273 181 846 0
-132 63 -255 847 0
227 -359 39 848 0
311 289 439 849 0
75 175 -455 850 0
246 -490 85 851 0
417 227 -434 852 0
103 380 485 853 0
-320 -486 -18 854 0
-338 52 -369 855 0
-365 418 204 856 0
-452 5 458 857 0
-177 50 -430 858 0
-375 -469 164 859 0
152 321 239 860 0
430 -230 -66 861 0
40 -32 445 862 0
-159 68 138 863 0
245 91 357 864 0
-452 -186 156 865 0
-398 -210 -10 866 0
-186 -44 -374 867 0
43 -186 420 868 0
417 -338 482 869 0
-333 243 -45 870 0
131 286 -329 871 0
-251 442 217 872 0
-71 -172 -164 873 0
236 38 -456 874 0
-362 228 -350 875 0
400 -456 -450 876 0
272 392 259 877 0
-143 -424 -461 878 0
318 44 -367 879 0
-278 332 -45 880 0
-411 309 339 881 0
419 294 -380 882 0
-475 480 437 883 0
-38 -420 77 884 0
-440 384 406 885 0
280 190 -65 886 0
-118 165 98 887 0
-381 -9 429 888 0
130 366 -431 889 0
-248 -122 -429 890 0
44 -472 433 891 0
-491 464 129 892 0
68 189 -185 893 0
-327 172 -314 894 0
-100 467 -51 895 0
-103 277 91 896 0
77 -124 312 897 0
451 -341 -435 898 0
193 319 16 899 0
-299 123 -357 900 0
37 66 -170 901 0
252 235 366 902 0
323 223 -278 903 0
160 395 -233 904 0
471 468 18 905 0
498 101 -339 906 0
-21 -469 -119 907 0
160 -373 27 908 0
-483 179 -279 909 0
121 84 283 910 0
470 -371 -296 911 0
-212 191 -382 912 0
-49 396 482 913 0
371 141 304 914 0
206 109 363 915 0
176 -249 -105 916 0
430 -51 67 917 0
488 158 398 918 0
-112 -36 379 919 0
-310 -440 -52 920 0
-71 99 -48 921 0
-42 322 -174 922 0
396 4 -154 923 0
-499 -254 476 924 0
328 -59 455 925 0
397 418 242 926 0
-175 -149 -330 927 0
-347 -342 -225 928 0
482 137 -266 929 0
466 110 132 930 0
435 74 -380 931 0
-129 263 -298 932 0
-379 179 80 933 0
-36 457 -67 934 0
-500 494 -412 935 0
349 -269 -215 936 0
-141 261 -129 937 0
450 108 -9 938 0
428 173 51 939 0
-167 -415 450 940 0
124 438 -456 941 0
42 229 -466 942 0
488 -104 411 943 0
-285 351 388 944 0
-492 -223 442 945 0
45 -10 -426 946 0
-382 78 342 947 0
-163 -279 402 948 0
252 -140 -404 949 0
-471 -116 255 950 0
326 223 -10 951 0
128 -112 -273 952 0
272 262 -69 953 0
475 26 57 954 0
-254 -146 278 955 0
23 124 450 956 0
173 331 195 957 0
-99 130 347 958 0
375 217 229 959 0
-208 -263 -477 960 0
429 158 -19 961 0
409 -490 273 962 0
-159 -15 47 963 0
-261 278 25 964 0
58 484 224 965 0
442 203 -76 966 0
234 -279 199 967 0
-21 -406 347 968 0
-67 418 -229 969 0
415 453 -147 970 0
-344 -500 -350 971 0
-328 -17 -339 972 0
76 -411 13 973 0
499 52 -278 974 0
356 214 -222 975 0
280 -168 204 976 0
-242 94 254 977 0
448 -230 469 978 0
70 110 -413 979 0
-68 -430 176 980 0
283 -292 199 981 0
-42 -57 -324 982 0
473 -496 194 983 0
151 27 78 984 0
-385 117 370 985 0
91 133 307 986 0
22 -453 -197 987 0
84 278 269 988 0
-39 -306 -196 989 0
-59 196 226 990 0
483 -81 486 991 0
134 -107 -382 992 0
-23 -472 -485 993 0
288 -15 -270 994 0
-262 122 138 995 0
90 -285 -368 996 0
152 465 -122 997 0
103 -407 4 998 0
258 -187 -316 999 0
317 -312 -245 1000 0
413 -276 346 1001 0
-212 161 417 1002 0
-82 -427 -377 1003 0
107 -492 489 1004 0
-136 -115 353 1005 0
161 -461 44 1006 0
394 -361 397 1007 0
178 -256 -85 1008 0
-138 357 -350 1009 0
-175 449 488 1010 0
391 257 211 1011 0
190 208 46 1012 0
-436 -157 156 1013 0
393 -248 -389 1014 0
380 394 -82 1015 0
389 434 -340 1016 0
144 254 54 1017 0
305 -406 -211 1018 0
-479 -67 217 1019 0
170 -72 -116 1020 0
-401 45 -226 1021 0
-325 -187 -71 1022 0
491 438 242 1023 0
-485 322 239 1024 0
-183 -174 -392 1025 0
174 -466 -233 1026 0
452 -277 -440 1027 0
-122 472 -372 1028 0
53 323 337 1029 0
116 -272 -115 1030 0
305 235 238 1031 0
-387 -500 352 1032 0
123 -265 368 1033 0
344 466 35 1034 0
223 385 -305 1035 0
-346 -83 360 1036 0
-359 -138 491 1037 0
-452 -427 256 1038 0
-41 -223 389 1039 0
-335 490 274 1040 0
-276 -208 472 1041 0
-313 227 -357 1042 0
-328 -416 -371 1043 0
-54 -60 -370 1044 0
-113 -423 -78 1045 0
214 -242 272 1046 0
98 205 -398 1047 0
206 313 473 1048 0
203 -182 290 1049 0
-351 481 -90 1050 0
-88 -199 -48 1051 0
236 -45 -204 1052 0
447 297 90 1053 0
115 226 -461 1054 0
-156 475 138 1055 0
-432 76 -97 1056 0
54 379 469 1057 0
-402 -138 300 1058 0
-352 69 -424 1059 0
123 217 -341 1060 0
-183 -294 -401 1061 0
54 465 -329 1062 0
341 378 168 1063 0
218 -373 -432 1064 0
-114 6 439 1065 0
84 41 137 1066 0
-458 -200 -49 1067 0
193 -492 90 1068 0
257 -154 -433 1069 0
-274 -159 368 1070 0
239 354 -148 1071 0
-323 -307 -368 1072 0
491 -199 -464 1073 0
230 121 498 1074 0
-210 447 -296 1075 0
383 -210 -2 1076 0
-424 -249 429 1077 0
-429 499 -34 1078 0
416 403 90 1079 0
76 318 303 1080 0
189 270 -276 1081 0
-182 -227 7 1082 0
-378 -122 -174 1083 0
212 201 424 1084 0
-43 101 389 1085 0
490 -120 -327 1086 0
-104 -322 393 1087 0
124 341 319 1088 0
-94 265 -267 1089 0
147 388 371 1090 0
299 434 178 1091 0
-218 6 46 1092 0
161 -415 243 1093 0
382 -298 263 1094 0
-182 153 -377 1095 0
240 468 -347 1096 0
-202 -242 52 1097 0
-427 326 -301 1098 0
83 -494 -481 1099 0
220 -319 -6 1100 0
216 223 -133 1101 0
-98 -75 18 1102 0
124 -244 -476 1103 0
-407 479 169 1104 0
304 -165 -348 1105 0
-166 -155 -82 1106 0
394 -458 395 1107 0
218 -95 -37 1108 0
-174 -468 -323 1109 0
-497 105 210 1110 0
317 213 495 1111 0
-200 11 363 1112 0
-322 91 81 1113 0
-462 16 395 1114 0
-325 484 244 1115 0
493 -451 270 1116 0
232 220 72 1117 0
483 -49 -485 1118 0
259 73 209 1119 0
-68 -322 402 1120 0
-56 119 107 1121 0
400 -147 -276 1122 0
154 25 131 1123 0
466 426 -66 1124 0
-201 -123 248 1125 0
-244 272 25 1126 0
141 -313 -305 1127 0
127 -268 304 1128 0
-480 10 104 1129 0
-315 451 -295 1130 0
281 -103 -260 1131 0
180 432 483 1132 0
182 338 11 1133 0
404 422 318 1134 0
474 448 359 1135 0
-319 -69 -169 1136 0
-247 136 -450 1137 0
-338 -147 371 1138 0
-133 480 -325 1139 0
366 -463 -97 1140 0
-288 405 446 1141 0
291 113 -228 1142 0
292 219 225 1143 0
-130 162 328 1144 0
279 -207 -452 1145 0
-449 -350 70 1146 0
239 149 271 1147 0
-31 -37 -238 1148 0
-376 -463 283 1149 0
-475 420 66 1150 0
-68 398 -89 1151 0
269 327 -230 1152 0
498 275 -481 1153 0
-147 48 -416 1154 0
-473 -208 116 1155 0
243 -51 363 1156 0
89 231 -87 1157 0
-376 405 -89 1158 0
146 -227 -374 1159 0
276 -343 127 1160 0
483 -174 -4 1161 0
101 123 -99 1162 0
-430 280 165 1163 0
-187 -232 147 1164 0
102 126 369 1165 0
-150 396 -195 1166 0
-326 -301 -345 1167 0
475 -393 185 1168 0
171 477 -38 1169 0
-202 399 -424 1170 0
239 -146 -335 1171 0
23 -384 304 1172 0
-431 -234 319 1173 0
-338 261 130 1174 0
-267 488 51 1175 0
-481 -148 183 1176 0
-383 -187 -245 1177 0
-420 -274 17 1178 0
156 -274 -208 1179 0
-33 156 -308 1180 0
169 300 -111 1181 0
55 408 400 1182 0
-274 443 258 1183 0
182 -401 481 1184 0
-295 324 -28 1185 0
-360 -117 -443 1186 0
79 498 -212 1187 0
424 191 16 1188 0
-303 -55 -404 1189 0
41 -194 -149 1190 0
-357 283 390 1191 0
-331 492 -500 1192 0
303 167 -307 1193 0
-307 -16 -318 1194 0
166 -476 -161 1195 0
227 -465 -112 1196 0
-143 39 32 1197 0
-389 -8 -185 1198 0
-449 -372 -112 1199 0
-419 255 -441 1200 0
-408 208 -177 1201 0
-247 -202 -370 1202 0
76 -428 220 1203 0
-490 111 46 1204 0
-302 -475 -372 1205 0
89 -265 405 1206 0
39 -56 -361 1207 0
-206 -26 -145 1208 0
116 310 439 1209 0
181 -436 208 1210 0
-18 -299 331 1211 0
222 -218 -255 1212 0
-224 455 -401 1213 0
64 -116 -318 1214 0
-237 441 -177 1215 0
110 295 285 1216 0
-482 208 275 1217 0
400 232 332 1218 0
208 -467 -252 1219 0
24 118 -255 1220 0
-202 -53 -132 1221 0
143 -441 44 1222 0
-64 -57 -356 1223 0
17 427 63 1224 0
-402 188 304 1225 0
60 -480 -232 1226 0
-166 279 -155 1227 0
430 -157 432 1228 0
381 -104 210 1229 0
200 -151 -373 1230 0
-302 -49 134 1231 0
160 228 384 1232 0
-172 223 139 1233 0
-352 -178 464 1234 0
-163 248 409 1235 0
299 -467 -488 1236 0
452 379 -159 1237 0
303 247 -103 1238 0
-498 203 269 1239 0
404 -78 425 1240 0
93 220 280 1241 0
-148 -332 328 1242 0
98 -210 173 1243 0
149 -209 -120 1244 0
125 -42 491 1245 0
-322 10 481 1246 0
-361 -44 -99 1247 0
-278 78 -382 1248 0
-34 192 202 1249 0
83 -213 -175 1250 0
-409 391 262 1251 0
-255 -461 -415 1252 0
83 -157 60 1253 0
46 115 306 1254 0
178 -188 -61 1255 0
-245 -82 -382 1256 0
-156 91 -277 1257 0
422 -136 -495 1258 0
-76 103 -170 1259 0
-350 -28 -310 1260 0
207 200 -73 1261 0
89 375 72 1262 0
317 420 -42 1263 0
-217 397 -51 1264 0
469 -298 125 1265 0
295 -388 264 1266 0
165 325 -411 1267 0
152 475 370 1268 0
-160 -105 179 1269 0
157 455 -359 1270 0
253 -115 170 1271 0
-456 -430 -346 1272 0
286 366 -438 1273 0
142 385 -440 1274 0
-44 455 -416 1275 0
251 -160 246 1276 0
488 264 -228 1277 0
-117 -26 353 1278 0
-57 -281 268 1279 0
-288 -322 276 1280 0
-358 -352 30 1281 0
276 319 -99 1282 0
185 463 -289 1283 0
396 -478 -369 1284 0
-241 -180 328 1285 0
-96 422 -282 1286 0
161 -144 -327 1287 0
438 139 -427 1288 0
416 -176 -264 1289 0
-68 130 283 1290 0
-86 -489 147 1291 0
-180 471 196 1292 0
-189 55 173 1293 0
-17 210 -299 1294 0
231 -171 -184 1295 0
85 338 -152 1296 0
-350 220 12 1297 0
423 44 -234 1298 0
-149 -67 -434 1299 0
-344 -4 -65 1300 0
-434 -360 -87 1301 0
170 -365 463 1302 0
-78 143 -380 1303 0
-289 -60 -443 1304 0
-176 -57 -195 1305 0
-433 62 -6 1306 0
-81 -2 269 1307 0
315 318 -430 1308 0
-405 -171 -444 1309 0
-87 -456 -361 1310 0
-438 -92 -359 1311 0
154 307 79 1312 0
294 -395 248 1313 0
462 -199 -183 1314 0
-155 -239 -407 1315 0
-60 314 -498 1316 0
-488 393 -186 1317 0
437 -55 284 1318 0
-411 -31 350 1319 0
67 59 130 1320 0
-334 94 -410 1321 0
-336 93 -232 1322 0
243 208 447 1323 0
246 124 -205 1324 0
-230 29 -131 1325 0
156 -255 178 1326 0
-181 70 316 1327 0
-58 55 71 1328 0
-286 54 -299 1329 0
80 121 -106 1330 0
-73 -500 -186 1331 0
95 -117 -142 1332 0
-338 162 254 1333 0
183 484 23 1334 0
-114 -486 -20 1335 0
236 -34 410 1336 0
-301 -130 -450 1337 0
-246 218 -120 1338 0
-80 -150 -326 1339 0
-85 351 -29 1340 0
-155 -293 -437 1341 0
-476 -333 -363 1342 0
439 310 209 1343 0
146 285 26 1344 0
109 1 454 1345 0
-427 -496 90 1346 0
-318 -365 -128 1347 0
-198 418 422 1348 0
5 40 256 1349 0
-199 -418 -377 1350 0
145 -318 425 1351 0
439 394 289 1352 0
-486 -328 -380 1353 0
-299 324 -327 1354 0
139 104 -271 1355 0
-424 -371 -44 1356 0
-442 -161 112 1357 0
-62 -204 297 1358 0
337 223 -420 1359 0
418 -153 173 1360 0
-56 -169 -416 1361 0
-185 -207 -322 1362 0
340 47 312 1363 0
-444 294 30 1364 0
184 -190 261 1365 0
-400 22 -253 1366 0
-31 -94 462 1367 0
383 306 -148 1368 0
127 -451 -136 1369 0
-19 -364 -99 1370 0
44 441 461 1371 0
-209 445 50 1372 0
367 265 407 1373 0
252 210 -16 1374 0
-252 240 249 1375 0
410 -1 -106 1376 0
262 -357 -289 1377 0
287 -352 290 1378 0
-219 165 370 1379 0
-391 -162 -148 1380 0
498 435 -172 1381 0
473 -403 -145 1382 0
57 -487 -261 1383 0
447 -412 100 1384 0
282 -232 411 1385 0
8 48 -118 1386 0
271 -4 16 1387 0
-310 386 -203 1388 0
-319 500 -107 1389 0
483 279 -193 1390 0
-447 107 -387 1391 0
399 361 -406 1392 0
337 108 -43 1393 0
-170 304 300 1394 0
135 -329 265 1395 0
-93 302 242 1396 0
448 -454 -452 1397 0
-10 206 -177 1398 0
-408 214 -211 1399 0
-319 -379 200 1400 0
-249 212 -322 1401 0
270 -75 353 1402 0
29 -329 93 1403 0
259 -356 -163 1404 0
283 -156 -92 1405 0
331 246 82 1406 0
-408 269 -379 1407 0
160 -123 423 1408 0
50 -391 445 1409 0
-374 71 210 1410 0
-304 -134 413 1411 0
219 -285 189 1412 0
175 263 -16 1413 0
455 -216 55 1414 0
344 318 -210 1415 0
-329 -205 -336 1416 0
98 -231 268 1417 0
493 -427 -211 1418 0
-422 -5 150 1419 0
-219 250 348 1420 0
260 -195 -30 1421 0
390 102 -423 1422 0
465 -422 -27 1423 0
-345 -53 -398 1424 0
-397 197 -265 1425 0
-479 401 -12 1426 0
303 -444 451 1427 0
284 -220 10 1428 0
-51 286 228 1429 0
-454 385 -173 1430 0
459 -105 -207 1431 0
419 346 -239 1432 0
459 423 -369 1433 0
-48 -365 130 1434 0
349 -125 -185 1435 0
444 44 140 1436 0
250 -63 -87 1437 0
484 -490 -453 1438 0
-378 -121 -97 1439 0
333 134 413 1440 0
-169 108 -152 1441 0
171 -195 -454 1442 0
-444 -316 -16 1443 0
-247 -178 -374 1444 0
231 -332 358 1445 0
94 -37 497 1446 0
-361 -331 -83 1447 0
8 313 389 1448 0
-214 -432 370 1449 0
-109 280 341 1450 0
-315 -397 -192 1451 0
-413 -293 50 1452 0
-437 -147 370 1453 0
-309 -300 72 1454 0
-54 -64 91 1455 0
-88 -97 197 1456 0
166 306 403 1457 0
-433 -189 -419 1458 0
-40 1 -208 1459 0
367 296 -92 1460 0
289 -465 391 1461 0
-478 248 349 1462 0
-182 -344 -468 1463 0
305 -119 457 1464 0
349 -16 -54 1465 0
-413 478 477 1466 0
339 301 -259 1467 0
-374 -56 203 1468 0
-380 230 259 1469 0
-65 -35 173 1470 0
-330 353 68 1471 0
318 -73 -399 1472 0
352 -200 428 1473 0
269 -262 -183 1474 0
109 297 239 1475 0
62 -397 429 1476 0
-351 -2 -232 1477 0
-442 -79 -224 1478 0
418 287 -479 1479 0
-167 -139 -466 1480 0
118 -84 360 1481 0
-382 -297 145 1482 0
-281 317 -389 1483 0
-490 395 -112 1484 0
8 157 106 1485 0
326 -77 223 1486 0
17 -319 -365 1487 0
351 275 27 1488 0
-469 -129 -287 1489 0
-30 -486 -459 1490 0
328 217 -210 1491 0
335 259 -426 1492 0
-300 -171 -297 1493 0
284 -299 -1 1494 0
-11 291 -309 1495 0
253 -390 331 1496 0
-1 -111 268 1497 0
-1 385 111 1498 0
-462 -328 287 1499 0
453 -488 390 1500 0
-406 464 434 1501 0
-417 375 -152 1502 0
403 155 -44 1503 0
291 341 229 1504 0
80 -446 -347 1505 0
87 399 358 1506 0
306 -78 209 1507 0
-267 -60 217 1508 0
40 359 99 1509 0
31 -310 413 1510 0
6 -220 -44 1511 0
459 -2 -377 1512 0
-3 -433 -80 1513 0
-201 46 -448 1514 0
407 246 -468 1515 0
425 353 -52 1516 0
-340 -451 -102 1517 0
-155 440 164 1518 0
-227 -64 417 1519 0
-182 487 -101 1520 0
-412 130 -474 1521 0
-494 88 -373 1522 0
183 -124 228 1523 0
164 402 427 1524 0
-204 -338 6 1525 0
276 -387 137 1526 0
451 -476 -130 1527 0
-241 296 451 1528 0
-51 -107 -19 1529 0
-5 -155 370 1530 0
499 356 -195 1531 0
12 -469 -381 1532 0
-64 -452 -116 1533 0
-18 167 258 1534 0
-166 179 220 1535 0
363 315 -246 1536 0
472 -164 259 1537 0
-239 -484 111 1538 0
232 365 273 1539 0
429 -177 65 1540 0
-282 -98 -324 1541 0
469 -472 101 1542 0
-436 -221 486 1543 0
54 -5 -218 1544 0
-291 -159 -351 1545 0
326 156 83 1546 0
477 348 500 1547 0
-21 312 487 1548 0
-359 484 180 1549 0
387 -248 -477 1550 0
417 -416 86 1551 0
318 249 -215 1552 0
316 79 -423 1553 0
404 220 -31 1554 0
-322 32 37 1555 0
181 186 -333 1556 0
-359 90 -1 1557 0
448 209 -69 1558 0
-107 -12 429 1559 0
-258 281 325 1560 0
-199 -407 7 1561 0
-46 -296 -274 1562 0
-189 -165 452 1563 0
-89 -464 -324 1564 0
-338 293 -271 1565 0
272 191 218 1566 0
-100 -273 -211 1567 0
5 -66 341 1568 0
238 -42 47 1569 0
184 257 -486 1570 0
-278 -129 -268 1571 0
-409 -218 -21 1572 0
-143 -267 -184 1573 0
-278 -460 -206 1574 0
-105 -162 163 1575 0
-192 377 156 1576 0
231 -464 -359 1577 0
-396 -444 231 1578 0
-43 295 13 1579 0
-430 64 -363 1580 0
-130 484 -485 1581 0
-131 101 -235 1582 0
12 369 497 1583 0
-197 239 -31 1584 0
225 -48 322 1585 0
-100 211 366 1586 0
-411 -54 189 1587 0
308 -224 -217 1588 0
23 141 5 1589 0
471 -19 -414 1590 0
-204 227 -285 1591 0
364 189 -375 1592 0
237 392 393 1593 0
325 -49 -102 1594 0
-89 -358 238 1595 0
-182 70 -140 1596 0
61 -487 76 1597 0
-299 -388 118 1598 0
147 433 485 1599 0
268 -7 135 1600 0
-244 492 76 1601 0
417 -338 -473 1602 0
-19 -270 381 1603 0
59 76 -80 1604 0
-111 330 -124 1605 0
-146 416 -59 1606 0
-451 325 -288 1607 0
299 208 311 1608 0
491 88 107 1609 0
276 -39 180 1610 0
242 -138 31 1611 0
-75 -388 315 1612 0
489 -142 194 1613 0
424 260 21 1614 0
95 -360 -121 1615 0
178 -269 -37 1616 0
1 437 -105 1617 0
396 -313 -406 1618 0
-231 432 -359 1619 0
239 151 343 1620 0
-37 78 77 1621 0
194 -383 -77 1622 0
-496 236 269 1623 0
99 -141 362 1624 0
364 -120 349 1625 0
122 -227 -452 1626 0
202 -362 464 1627 0
-255 -109 -218 1628 0
-490 -424 109 1629 0
226 457 389 1630 0
-72 -282 -412 1631 0
176 270 -286 1632 0
19 -362 -11 1633 0
227 -59 46 1634 0
337 71 7 1635 0
-454 -477 296 1636 0
29 148 445 1637 0
-24 486 64 1638 0
288 -39 -4 1639 0
138 -187 -315 1640 0
-185 -375 -402 1641 0
-2 487 200 1642 0
-114 -357 88 1643 0
230 6 -451 1644 0
-107 -74 -311 1645 0
166 -9 466 1646 0
2 -434 20 1647 0
21 -475 447 1648 0
-116 -182 -24 1649 0
-468 -471 -343 1650 0
175 391 -462 1651 0
13 256 -407 1652 0
365 -8 -397 1653 0
77 -406 -346 1654 0
103 -167 -311 1655 0
-46 -178 -351 1656 0
254 -391 317 1657 0
87 -151 104 1658 0
292 -85 -118 1659 0
430 451 452 1660 0
11 366 -94 1661 0
243 -206 -252 1662 0
416 293 95 1663 0
-60 141 111 1664 0
-39 361 51 1665 0
215 -239 135 1666 0
-345 438 -124 1667 0
329 305 -88 1668 0
-202 420 5 1669 0
-448 -280 -151 1670 0
10 125 -437 1671 0
265 435 -338 1672 0
-449 190 389 1673 0
-414 -243 208 1674 0
-333 86 371 1675 0
163 425 -117 1676 0
262 -200 -261 1677 0
-192 -115 -456 1678 0
464 191 16 1679 0
92 -280 263 1680 0
-219 -150 87 1681 0
85 399 223 1682 0
131 236 -128 1683 0
5 -96 338 1684 0
151 254 -45 1685 0
-48 38 161 1686 0
186 -155 268 1687 0
87 -390 -421 1688 0
-360 -329 -109 1689 0
123 -172 -359 1690 0
76 394 316 1691 0
375 438 323 1692 0
-376 -8 -189 1693 0
444 -250 -243 1694 0
48 -433 414 1695 0
246 467 -29 1696 0
344 497 -322 1697 0
367 431 62 1698 0
-436 -88 -8 1699 0
328 -353 493 1700 0
386 286 -193 1701 0
-339 27 -241 1702 0
24 -150 -293 1703 0
445 281 -83 1704 0
-488 -263 380 1705 0
-133 -119 411 1706 0
188 -194 375 1707 0
-356 -127 -11 1708 0
-112 -229 -263 1709 0
-58 -103 212 1710 0
462 326 -314 1711 0
-208 -302 45 1712 0
203 470 -256 1713 0
-167 299 -321 1714 0
62 29 -453 1715 0
-336 349 -295 1716 0
-487 125 35 1717 0
-464 180 20 1718 0
308 -3 120 1719 0
68 -163 -242 1720 0
-20 -67 284 1721 0
-340 -311 326 1722 0
180 -172 88 1723 0
425 358 -127 1724 0
315 55 -223 1725 0
423 -279 209 1726 0
-209 421 383 1727 0
63 -333 -458 1728 0
414 320 499 1729 0
232 473 -66 1730 0
29 497 -458 1731 0
437 -264 40 1732 0
449 439 -175 1733 0
289 -340 -484 1734 0
76 46 -71 1735 0
-325 -137 -189 1736 0
64 276 -327 1737 0
-169 -62 -369 1738 0
320 -1 257 1739 0
-237 -411 169 1740 0
301 424 -158 1741 0
148 -258 71 1742 0
-40 -333 72 1743 0
-48 436 -193 1744 0
434 -144 -10 1745 0
-364 -320 168 1746 0
93 -221 -111 1747 0
121 187 242 1748 0
-362 347 -194 1749 0
428 -285 -213 1750 0
-174 238 -244 1751 0
26 354 -405 1752 0
478 -338 -232 1753 0
-52 -214 -349 1754 0
-56 -91 -38 1755 0
-233 93 -311 1756 0
-293 315 -106 1757 0
171 -223 309 1758 0
-44 -78 -19 1759 0
489 -453 -99 1760 0
146 32 277 1761 0
-4 -55 337 1762 0
81 -473 -75 1763 0
236 43 -420 1764 0
-443 371 319 1765 0
-52 -373 295 1766 0
330 149 -128 1767 0
137 -459 -158 1768 0
283 -262 483 1769 0
223 257 56 1770 0
61 -414 320 1771 0
-378 80 -100 1772 0
-207 -452 -190 1773 0
-448 10 -152 1774 0
84 -93 -139 1775 0
280 -155 448 1776 0
18 -307 225 1777 0
70 129 253 1778 0
-375 287 -409 1779 0
-316 -484 404 1780 0
89 145 365 1781 0
336 111 57 1782 0
-132 -278 -177 1783 0
-419 60 453 1784 0
-459 277 216 1785 0
6 54 -112 1786 0
331 -427 -33 1787 0
-448 286 -383 1788 0
402 61 466 1789 0
-276 496 -99 1790 0
-50 165 143 1791 0
-292 -210 330 1792 0
-183 199 202 1793 0
11 -439 495 1794 0
-149 -131 14 1795 0
281 -343 145 1796 0
389 -398 445 1797 0
-243 323 336 1798 0
-403 -224 1 1799 0
-490 -482 -208 1800 0
367 -378 491 1801 0
-322 411 -99 1802 0
381 354 -349 1803 0
432 414 -393 1804 0
467 313 -240 1805 0
-87 246 440 1806 0
-252 -323 -159 1807 0
257 -460 -251 1808 0
-258 293 -327 1809 0
301 -432 -245 1810 0
67 -190 357 1811 0
-421 -433 -463 1812 0
348 440 -221 1813 0
-14 280 -199 1814 0
-395 28 -98 1815 0
51 -489 493 1816 0
-280 358 -345 1817 0
-167 305 189 1818 0
308 -344 -174 1819 0
-234 403 459 1820 0
152 409 -408 1821 0
-92 296 -124 1822 0
-196 -369 -131 1823 0
-254 55 407 1824 0
-24 -7 484 1825 0
352 -5 70 1826 0
-437 367 -295 1827 0
382 -475 -479 1828 0
-416 382 42 1829 0
389 -380 187 1830 0
412 -351 -388 1831 0
-402 485 36 1832 0
86 418 -337 1833 0
456 -447 -492 1834 0
-491 445 428 1835 0
102 -188 345 1836 0
292 418 -396 1837 0
1 147 417 1838 0
11 -425 -279 1839 0
-256 -241 76 1840 0
138 -472 -356 1841 0
-25 280 222 1842 0
-325 -351 -436 1843 0
-110 -202 -134 1844 0
-98 137 129 1845 0
410 -308 400 1846 0
-119 209 375 1847 0
444 -320 44 1848 0
-391 34 484 1849 0
208 73 -301 1850 0
82 -33 -392 1851 0
69 -397 -391 1852 0
158 316 450 1853 0
426 -158 -500 1854 0
-266 363 -133 1855 0
221 -232 298 1856 0
-37 -409 190 1857 0
387 124 -222 1858 0
-258 -350 41 1859 0
-270 -26 30 1860 0
-54 -324 -263 1861 0
379 -459 -357 1862 0
-394 -180 141 1863 0
239 -49 -286 1864 0
228 380 -148 1865 0
461 -361 292 1866 0
-408 488 -64 1867 0
-454 460 -156 1868 0
-49 -219 390 1869 0
-298 -433 -132 1870 0
-43 454 -93 1871 0
-4 267 -145 1872 0
336 -412 157 1873 0
48 401 182 1874 0
-249 224 239 1875 0
-23 -183 -115 1876 0
426 -493 197 1877 0
90 -197 14 1878 0
-464 -23 -444 1879 0
-241 11 -256 1880 0
348 -289 -284 1881 0
108 -391 -350 1882 0
345 196 285 1883 0
68 -43 482 1884 0
499 122 105 1885 0
452 -157 346 1886 0
227 -190 -452 1887 0
-184 143 -159 1888 0
148 -241 205 1889 0
227 498 26 1890 0
126 -29 455 1891 0
-257 -158 -148 1892 0
194 440 307 1893 0
429 -272 -12 1894 0
142 -420 201 1895 0
-70 36 -151 1896 0
421 167 299 1897 0
304 227 -388 1898 0
-109 -150 495 1899 0
212 325 225 1900 0
55 75 72 1901 0
367 47 -116 1902 0
-2 467 452 1903 0
485 -92 417 1904 0
-373 -363 -293 1905 0
-273 -454 346 1906 0
-478 -214 -254 1907 0
377 191 -444 1908 0
-131 156 -489 1909 0
349 260 -81 1910 0
-321 90 494 1911 0
-1 -359 95 1912 0
426 -352 -159 1913 0
255 -470 270 1914 0
-428 381 456 1915 0
491 -352 -497 1916 0
152 -304 24 1917 0
40 228 127 1918 0
-475 105 288 1919 0
-443 -14 437 1920 0
-458 232 -127 1921 0
-248 205 378 1922 0
-46 -182 -15 1923 0
325 -190 391 1924 0
33 -86 -83 1925 0
103 168 8 1926 0
209 -41 -58 1927 0
240 185 -266 1928 0
-417 220 -326 1929 0
-92 57 32 1930 0
220 354 -229 1931 0
-90 -217 192 1932 0
-165 -274 -22 1933 0
-331 184 175 1934 0
-96 -353 485 1935 0
-36 276 5 1936 0
-309 275 -32 1937 0
322 -160 141 1938 0
4 254 -464 1939 0
143 280 284 1940 0
-394 103 256 1941 0
-377 -39 361 1942 0
-209 48 -374 1943 0
434 302 -252 1944 0
409 490 -500 1945 0
385 259 41 1946 0
91 -339 448 1947 0
281 -87 232 1948 0
83 -433 -440 1949 0
294 225 -232 1950 0
-467 -97 312 1951 0
74 -338 -298 1952 0
93 123 -36 1953 0
-14 117 48 1954 0
101 190 453 1955 0
119 -168 -172 1956 0
168 -490 91 1957 0
-427 108 287 1958 0
-281 67 304 1959 0
-394 500 124 1960 0
-342 184 459 1961 0
95 165 -321 1962 0
-163 -88 -425 1963 0
410 -81 125 1964 0
419 -223 -386 1965 0
131 33 13 1966 0
287 -144 -3 1967 0
153 -242 89 1968 0
-212 113 348 1969 0
494 -19 468 1970 0
460 241 389 1971 0
-350 458 175 1972 0
177 -198 292 1973 0
-75 333 -294 1974 0
-339 -483 472 1975 0
-448 -53 -262 1976 0
-180 143 -87 1977 0
-150 310 -115 1978 0
-345 -325 -259 1979 0
-110 144 386 1980 0
49 203 101 1981 0
402 -273 -258 1982 0
-279 -257 -235 1983 0
-68 -198 227 1984 0
467 -177 -2 1985 0
482 272 -230 1986 0
139 -350 -287 1987 0
215 -127 335 1988 0
-197 -65 -471 1989 0
-366 83 371 1990 0
-342 327 232 1991 0
321 -383 447 1992 0
-22 106 34 1993 0
267 -116 -221 1994 0
-38 -106 327 1995 0
330 -219 -358 1996 0
152 256 219 1997 0
-490 389 279 1998 0
-72 -220 -401 1999 0
46 256 -123 2000 0
-230 274 32 2001 0
-322 -50 -272 2002 0
-390 -330 87 2003 0
-236 -337 281 2004 0
83 -178 -320 2005 0
365 314 395 2006 0
-3 63 -96 2007 0
-339 -331 30 2008 0
274 -406 -469 2009 0
-282 452 477 2010 0
203 -86 -232 2011 0
-87 7 427 2012 0
140 -145 -182 2013 0
-448 309 394 2014 0
199 397 -494 2015 0
-195 -57 129 2016 0
473 -482 459 2017 0
-92 284 129 2018 0
31 -24 -357 2019 0
34 58 -219 2020 0
173 283 -32 2021 0
190 -485 4 2022 0
274 -117 159 2023 0
418 173 4 2024 0
-304 113 -333 2025 0
-324 -351 130 2026 0
-47 -396 212 2027 0
32 63 -245 2028 0
-206 21 229 2029 0
-34 69 74 2030 0
296 213 292 2031 0
214 -174 -94 2032 0
-418 -63 -442 2033 0
-341 497 480 2034 0
-217 348 -328 2035 0
297 -230 -46 2036 0
-356 240 147 2037 0
470 320 147 2038 0
112 311 -466 2039 0
-42 33 -164 2040 0
155 -41 229 2041 0
438 472 -348 2042 0
376 -131 -156 2043 0
-35 -93 60 2044 0
262 74 30 2045 0
357 -281 25 2046 0
-216 457 -192 2047 0
-234 13 -280 2048 0
-355 -11 334 2049 0
321 442 -343 2050 0
-253 -390 -295 2051 0
474 -2 88 2052 0
-468 496 -41 2053 0
267 -259 -42 2054 0
-218 -416 411 2055 0
-409 -282 128 2056 0
-410 52 150 2057 0
-321 -246 -131 2058 0
179 -170 -73 2059 0
-27 -424 -290 2060 0
-346 -107 437 2061 0
-497 350 329 2062 0
497 113 -494 2063 0
200 -477 -136 2064 0
-176 64 208 2065 0
-302 210 312 2066 0
96 333 -481 2067 0
394 -278 322 2068 0
-72 158 137 2069 0
202 -474 -16 2070 0
-137 358 -248 2071 0
-372 303 114 2072 0
37 -17 131 2073 0
-29 8 403 2074 0
187 -150 -308 2075 0
-463 288 118 2076 0
-68 325 -162 2077 0
-407 334 -429 2078 0
204 118 -328 2079 0
408 443 32 2080 0
-1 -237 -312 2081 0
123 -409 -124 2082 0
-422 -378 -127 2083 0
461 -424 382 2084 0
132 -74 -157 2085 0
169 192 -463 2086 0
-443 -478 217 2087 0
-346 -345 -21 2088 0
-207 -500 167 2089 0
-292 -149 438 2090 0
-191 392 331 2091 0
357 -132 1 2092 0
-378 -171 -267 2093 0
402 -77 103 2094 0
20 -321 -265 2095 0
378 146 -28 2096 0
433 214 70 2097 0
-39 -229 500 2098 0
-402 477 -265 2099 0
150 115 457 2100 0
242 -222 339 2101 0
-68 10 -397 2102 0
118 478 104 2103 0
328 220 212 2104 0
-33 359 281 2105 0
463 73 -150 2106 0
-340 208 344 2107 0
265 -212 204 2108 0
-79 140 -412 2109 0
192 249 481 2110 0
482 101 173 2111 0
213 -37 260 2112 0
-386 330 -335 2113 0
-204 -171 228 2114 0
217 -462 385 2115 0
52 -315 -165 2116 0
-411 289 454 2117 0
-165 -106 305 2118 0
110 463 -199 2119 0
-22 -43 -224 2120 0
-427 34 -204 2121 0
441 -190 -130 2122 0
336 398 -252 2123 0
485 293 119 2124 0
267 -74 232 2125 0
312 -26 205 2126 0
-140 482 243 2127 0
-480 403 186 2128 0
-105 315 256 2129 0
-431 -35 435 2130 0
171 249 340 2131 0
425 465 -192 2132 0
44 105 344 2133 0
372 312 68 2134 0
-183 -337 -384 2135 0
180 316 -199 2136 0
73 -28 362 2137 0
-61 378 354 2138 0
-298 -258 131 2139 0
-158 6 152 2140 0
313 -498 405 2141 0
207 -310 288 2142 0
391 326 -492 2143 0
-279 15 -456 2144 0
-313 28 13 2145 0
-99 210 -357 2146 0
427 139 -338 2147 0
203 -383 332 2148 0
-266 141 400 2149 0
-327 26 290 2150 0
67 -127 -61 2151 0
-356 -43 281 2152 0
-10 217 35 2153 0
473 356 324 2154 0
-216 -443 -53 2155 0
-37 481 236 2156 0
-217 221 -216 2157 0
-342 -250 -482 2158 0
119 -301 -352 2159 0
-7 -234 32 2160 0
-260 -27 -156 2161 0
355 -400 -154 2162 0
314 477 -369 2163 0
50 -4 -356 2164 0
281 -268 31 2165 0
-188 40 -314 2166 0
472 408 -369 2167 0
-361 176 442 2168 0
159 -401 359 2169 0
112 -59 -402 2170 0
466 -322 252 2171 0
-230 490 349 2172 0
-421 463 -129 2173 0
449 -166 241 2174 0
-44 484 436 2175 0
379 481 389 2176 0
18 -83 -367 2177 0
-319 166 111 2178 0
-5 -279 -197 2179 0
233 412 206 2180 0
-331 128 399 2181 0
-86 252 -57 2182 0
188 -425 -148 2183 0
-388 45 484 2184 0
-421 418 274 2185 0
-294 382 -196 2186 0
-186 261 -54 2187 0
-339 -317 111 2188 0
328 -485 -296 2189 0
-7 -114 -355 2190 0
467 191 -275 2191 0
296 310 -158 2192 0
-290 329 81 2193 0
314 -483 -119 2194 0
415 -235 27 2195 0
220 21 305 2196 0
420 295 -124 2197 0
-303 -8 159 2198 0
-267 203 274 2199 0
372 270 404 2200 0
-43 366 -428 2201 0
-331 208 37 2202 0
-130 -441 254 2203 0
101 117 47 2204 0
-471 30 3 2205 0
-238 491 31 2206 0
290 128 -189 2207 0
1 -179 195 2208 0
145 -410 210 2209 0
-195 51 243 2210 0
209 155 -306 2211 0
-198 -99 -483 2212 0
-284 -298 176 2213 0
344 372 -348 2214 0
-49 401 431 2215 0
409 -444 101 2216 0
-446 -29 -346 2217 0
459 -3 47 2218 0
-85 -302 13 2219 0
-473 -352 23 2220 0
460 -362 -55 2221 0
396 70 149 2222 0
267 317 325 2223 0
-380 -303 215 2224 0
-77 325 -305 2225 0
160 131 294 2226 0
453 262 -213 2227 0
-452 -346 -274 2228 0
-482 -328 483 2229 0
166 407 -124 2230 0
-288 58 -384 2231 0
90 -289 -129 2232 0
315 -348 -464 2233 0
-5 390 -72 2234 0
-217 -155 -144 2235 0
-366 353 -432 2236 0
-226 -155 32 2237 0
-7 231 10 2238 0
426 58 271 2239 0
58 148 430 2240 0
-151 -180 -262 2241 0
-229 -101 324 2242 0
-30 264 269 2243 0
36 291 -166 2244 0
-155 393 -45 2245 0
443 370 -170 2246 0
273 -172 -208 2247 0
-171 81 -1 2248 0
-14 371 210 2249 0
64 -119 77 2250 0
-415 -368 190 2251 0
474 -57 156 2252 0
419 -491 -267 2253 0
-220 -82 -429 2254 0
366 294 305 2255 0
294 -427 -205 2256 0
-35 -285 93 2257 0
-400 -115 500 2258 0
-366 261 83 2259 0
356 -96 348 2260 0
480 -163 87 2261 0
-325 80 365 2262 0
-464 -99 249 2263 0
465 290 -211 2264 0
390 -23 261 2265 0
52 303 -57 2266 0
291 237 -316 2267 0
-286 116 211 2268 0
-315 -124 32 2269 0
-147 -316 37 2270 0
47 216 -2 2271 0
-47 371 354 2272 0
272 -102 -259 2273 0
398 -258 -106 2274 0
293 485 123 2275 0
20 177 -474 2276 0
183 -153 191 2277 0
-479 -315 -355 2278 0
-338 -217 58 2279 0
473 437 -17 2280 0
-231 98 20 2281 0
-442 -41 99 2282 0
374 418 459 2283 0
-17 -18 121 2284 0
-152 -498 -347 2285 0
-187 31 -190 2286 0
63 -473 61 2287 0
-259 417 -460 2288 0
-1 91 -425 2289 0
-160 -381 281 2290 0
-262 -145 -442 2291 0
-304 218 -151 2292 0
339 300 -498 2293 0
80 -195 344 2294 0
-464 283 316 2295 0
-311 -302 236 2296 0
-154 299 -220 2297 0
-452 -70 -500 2298 0
79 -92 220 2299 0
-168 338 120 2300 0
-257 181 81 2301 0
235 127 500 2302 0
489 -121 456 2303 0
124 314 -479 2304 0
424 64 433 2305 0
470 -344 -28 2306 0
92 -440 -24 2307 0
280 -437 69 2308 0
348 49 -385 2309 0
468 -360 57 2310 0
345 369 404 2311 0
319 -334 -451 2312 0
123 -207 428 2313 0
107 230 -168 2314 0
-168 -448 -116 2315 0
380 367 -160 2316 0
-331 -431 8 2317 0
236 163 257 2318 0
11 -324 -493 2319 0
-463 -233 305 2320 0
-252 -195 -105 2321 0
439 305 176 2322 0
-263 235 272 2323 0
365 -318 -431 2324 0
-346 337 -394 2325 0
128 -151 -217 2326 0
107 337 -28 2327 0
33 496 161 2328 0
98 -494 181 2329 0
-289 474 234 2330 0
-475 72 38 2331 0
-417 -41 -30 2332 0
-400 388 -319 2333 0
-481 349 76 2334 0
-2 -395 -270 2335 0
209 -293 -242 2336 0
346 470 401 2337 0
330 -5 -341 2338 0
-245 492 -52 2339 0
119 232 211 2340 0
211 -379 66 2341 0
-483 -488 282 2342 0
151 396 177 2343 0
212 251 237 2344 0
471 -489 117 2345 0
280 -96 240 2346 0
-190 103 133 2347 0
-260 171 348 2348 0
315 79 344 2349 0
-246 -421 -168 2350 0
-193 -289 439 2351 0
231 -55 395 2352 0
-479 476 493 2353 0
-217 323 424 2354 0
255 -217 -466 2355 0
-220 450 -461 2356 0
487 448 199 2357 0
406 397 -259 2358 0
243 450 285 2359 0
-169 336 81 2360 0
-388 -492 -116 2361 0
-425 243 -26 2362 0
-480 -181 72 2363 0
-140 -65 410 2364 0
-273 473 -168 2365 0
246 86 152 2366 0
-238 448 51 2367 0
-369 -344 -225 2368 0
-262 17 3 2369 0
-227 -497 170 2370 0
-114 22 -113 2371 0
-271 -240 -297 2372 0
-163 -255 123 2373 0
-403 -456 -176 2374 0
196 -480 125 2375 0
178 -130 -72 2376 0
207 -210 -307 2377 0
160 -47 -228 2378 0
-464 -111 113 2379 0
-124 -188 366 2380 0
-281 219 -46 2381 0
-158 -213 -50 2382 0
254 -447 168 2383 0
119 -232 306 2384 0
164 -223 231 2385 0
-109 367 446 2386 0
153 239 250 2387 0
409 -35 103 2388 0
135 214 136 2389 0
-424 230 231 2390 0
-476 -378 -88 2391 0
-116 412 -87 2392 0
42 -220 -468 2393 0
-306 -115 -225 2394 0
-426 112 152 2395 0
-85 -76 208 2396 0
359 -279 -295 2397 0
160 -303 376 2398 0
98 -185 -289 2399 0
231 215 131 2400 0
370 -141 49 2401 0
18 441 276 2402 0
400 324 -159 2403 0
-386 86 -337 2404 0
-225 -162 -209 2405 0
-68 -159 66 2406 0
477 -88 2 2407 0
60 -114 148 2408 0
53 -360 -452 2409 0
-21 154 -438 2410 0
-240 -339 243 2411 0
-441 -236 -389 2412 0
-75 -419 -178 2413 0
33 293 26 2414 0
-477 107 224 2415 0
-254 -315 -448 2416 0
-415 458 -163 2417 0
327 50 -12 2418 0
-478 344 -165 2419 0
-277 -42 -74 2420 0
-14 -406 409 2421 0
-452 123 417 2422 0
-123 407 -485 2423 0
-114 -198 -379 2424 0
-337 -284 -184 2425 0
294 -214 459 2426 0
30 25 -488 2427 0
-77 -96 -459 2428 0
-176 428 -27 2429 0
-386 82 -495 2430 0
-45 451 -337 2431 0
30 307 -144 2432 0
-431 -181 274 2433 0
-356 110 -337 2434 0
266 456 -151 2435 0
-425 295 -222 2436 0
236 178 -446 2437 0
-468 -447 -462 2438 0
21 -244 -281 2439 0
-32 -480 205 2440 0
16 -19 392 2441 0
144 99 23 2442 0
-18 -421 -143 2443 0
378 141 147 2444 0
471 131 89 2445 0
-6 126 -121 2446 0
43 -400 14 2447 0
483 -417 -112 2448 0
-23 359 -225 2449 0
-54 382 -370 2450 0
423 -338 -14 2451 0
-116 -496 -375 2452 0
-42 -488 159 2453 0
-123 361 297 2454 0
-295 481 207 2455 0
278 -291 175 2456 0
-347 288 -457 2457 0
-290 -22 -338 2458 0
128 -333 -463 2459 0
128 -13 -12 2460 0
223 -358 -298 2461 0
-346 -214 -374 2462 0
122 -468 -344 2463 0
-151 482 -50 2464 0
-497 -474 401 2465 0
110 -162 -435 2466 0
-64 175 -481 2467 0
-145 177 271 2468 0
478 -169 82 2469 0
-11 292 -73 2470 0
-441 -494 -109 2471 0
25 98 -137 2472 0
-445 153 377 2473 0
-34 322 -82 2474 0
486 -393 476 2475 0
-113 294 -417 2476 0
438 107 -363 2477 0
334 -444 225 2478 0
477 -312 -246 2479 0
236 72 -272 2480 0
-387 353 120 2481 0
143 -106 -385 2482 0
378 137 136 2483 0
390 379 -394 2484 0
135 -433 -156 2485 0
-146 378 150 2486 0
209 -388 114 2487 0
240 168 148 2488 0
-171 143 72 2489 0
307 -297 145 2490 0
323 -268 -311 2491 0
-274 -437 102 2492 0
-110 -410 191 2493 0
428 -494 -49 2494 0
-24 -229 -288 2495 0
-58 150 -461 2496 0
246 -318 334 2497 0
-284 -4 191 2498 0
1 -65 -170 2499 0
383 192 44 2500 0
-126 -101 -278 2501 0
-324 461 137 2502 0
243 113 256 2503 0
317 380 -331 2504 0
220 -176 364 2505 0
-207 -490 -354 2506 0
91 -309 402 2507 0
-147 -120 -460 2508 0
289 -432 20 2509 0
97 265 259 2510 0
86 105 -89 2511 0
-335 -133 -290 2512 0
-270 150 94 2513 0
478 -206 -460 2514 0
-44 -178 136 2515 0
-273 -179 -132 2516 0
352 -426 -284 2517 0
-241 228 -299 2518 0
-132 -123 -245 2519 0
-224 -443 -101 2520 0
66 327 -384 2521 0
-474 112 432 2522 0
256 81 -236 2523 0
-277 -353 36 2524 0
338 -419 97 2525 0
459 101 -378 2526 0
-120 248 -218 2527 0
-178 452 -316 2528 0
382 356 127 2529 0
-256 -172 -434 2530 0
-434 -207 92 2531 0
-10 -478 -277 2532 0
37 145 28 2533 0
-69 91 300 2534 0
-90 301 64 2535 0
-100 -168 232 2536 0
-42 -444 280 2537 0
-266 -491 160 2538 0
435 79 -135 2539 0
-121 251 155 2540 0
286 -450 -269 2541 0
-460 -325 124 2542 0
-181 423 316 2543 0
-247 300 -307 2544 0
63 -37 -43 2545 0
-338 -369 78 2546 0
15 78 -111 2547 0
-167 -461 -328 2548 0
-8 -148 286 2549 0
-201 -393 -389 2550 0
-175 -16 -1 2551 0
257 -421 350 2552 0
-274 -374 377 2553 0
-137 171 -271 2554 0
17 -168 29 2555 0
-117 -466 253 2556 0
-370 32 -131 2557 0
9 421 -156 2558 0
399 -243 468 2559 0
104 389 -134 2560 0
-159 -39 227 2561 0
259 -73 494 2562 0
-52 32 455 2563 0
201 -362 280 2564 0
402 38 -276 2565 0
-8 -5 -85 2566 0
-160 -376 -455 2567 0
-132 -42 448 2568 0
-131 -40 9 2569 0
247 -202 -112 2570 0
19 -87 -175 2571 0
191 302 -468 2572 0
-69 -23 441 2573 0
-416 251 147 2574 0
338 -386 160 2575 0
-210 6 101 2576 0
257 477 -461 2577 0
-347 -165 36 2578 0
-1 -370 -354 2579 0
317 -60 85 2580 0
24 -37 -174 2581 0
497 437 -434 2582 0
-156 -234 457 2583 0
-186 -417 -142 2584 0
-470 -8 206 2585 0
419 -354 -145 2586 0
-241 -16 256 2587 0
11 372 493 2588 0
-287 28 -191 2589 0
-122 -37 94 2590 0
72 256 431 2591 0
-470 -415 394 2592 0
61 -390 113 2593 0
212 285 -143 2594 0
471 -233 -396 2595 0
492 -86 485 2596 0
-56 -415 316 2597 0
360 199 471 2598 0
-475 -239 -250 2599 0
394 -123 -168 2600 0
-27 298 -295 2601 0
211 -109 -139 2602 0
-378 -351 314 2603 0
210 -288 342 2604 0
262 499 418 2605 0
-329 -66 -134 2606 0
-323 101 35 2607 0
-343 -315 -305 2608 0
-200 -346 435 2609 0
224 464 198 2610 0
-118 19 -406 2611 0
-250 138 378 2612 0
-450 175 311 2613 0
-483 -282 264 2614 0
351 468 494 2615 0
232 -461 -171 2616 0
-380 -299 62 2617 0
89 -371 309 2618 0
-137 -239 -105 2619 0
138 -3 -373 2620 0
406 -321 -411 2621 0
375 -279 -290 2622 0
-203 434 -220 2623 0
273 166 -130 2624 0
9 411 -331 2625 0
342 348 -449 2626 0
233 -70 54 2627 0
-409 -377 482 2628 0
52 197 -334 2629 0
-464 440 -236 2630 0
442 -92 273 2631 0
-305 172 -210 2632 0
-220 -351 -397 2633 0
90 -328 44 2634 0
-245 -430 74 2635 0
377 -180 54 2636 0
428 -257 249 2637 0
163 344 177 2638 0
478 251 54 2639 0
14 -247 435 2640 0
-398 -407 -59 2641 0
-42 179 323 2642 0
-359 364 -325 2643 0
180 -393 261 2644 0
-442 287 410 2645 0
-150 -427 30 2646 0
-58 -210 -251 2647 0
-169 -93 -271 2648 0
75 416 57 2649 0
423 391 95 2650 0
