p cnf 2650 2150
-37 131 313 501 0
330 204 -167 502 0
-500 345 -415 503 0
-133 -100 336 504 0
-421 138 325 505 0
468 275 -124 506 0
-149 -349 25 507 0
381 500 337 508 0
-369 -281 -190 509 0
17 -48 82 510 0
-447 -294 164 511 0
300 -130 -150 512 0
2 209 -416 513 0
120 -283 332 514 0
-454 -494 -343 515 0
137 46 -175 516 0
438 34 -30 517 0
383 225 -428 518 0
145 -348 481 519 0
-404 -12 329 520 0
344 -211 -161 521 0
152 -201 91 522 0
453 -487 82 523 0
472 -82 279 524 0
-109 315 -429 525 0
451 10 -217 526 0
265 -197 433 527 0
357 -93 139 528 0
271 460 444 529 0
118 130 150 530 0
483 -12 -304 531 0
307 -409 -87 532 0
12 397 197 533 0
224 -256 -131 534 0
342 90 460 535 0
-422 -399 -471 536 0
-415 -57 -452 537 0
393 282 287 538 0
-174 205 -388 539 0
-49 -376 -500 540 0
75 -469 -348 541 0
-307 369 38 542 0
172 -331 -446 543 0
-460 225 -41 544 0
299 -387 365 545 0
-274 181 281 546 0
-97 249 -493 547 0
357 261 45 548 0
-386 -161 59 549 0
176 353 91 550 0
-165 367 -242 551 0
135 433 371 552 0
92 326 354 553 0
-124 201 -10 554 0
-209 459 -457 555 0
259 446 -130 556 0
-237 83 -119 557 0
-4 253 343 558 0
272 -215 -387 559 0
34 -343 16 560 0
-56 -332 -435 561 0
-130 162 89 562 0
-210 -251 -384 563 0
97 -478 -143 564 0
393 -1 -186 565 0
246 -319 233 566 0
76 29 -38 567 0
-87 -286 -276 568 0
242 -311 -163 569 0
111 132 125 570 0
-452 249 372 571 0
396 -383 -50 572 0
-174 -292 381 573 0
-182 113 -466 574 0
422 390 405 575 0
189 -202 256 576 0
-397 -29 -426 577 0
444 498 228 578 0
26 120 228 579 0
-267 193 -310 580 0
-287 136 399 581 0
220 -164 27 582 0
-417 317 -91 583 0
240 -259 67 584 0
467 464 -267 585 0
101 -332 -225 586 0
95 -334 468 587 0
246 -216 -393 588 0
346 -370 345 589 0
346 409 -430 590 0
-188 313 -249 591 0
-56 331 -159 592 0
-7 -352 304 593 0
-414 64 378 594 0
-393 230 115 595 0
312 -120 123 596 0
424 185 -296 597 0
-467 -14 117 598 0
222 -99 -8 599 0
-333 -63 348 600 0
426 274 425 601 0
-479 -445 353 602 0
95 -385 16 603 0
308 64 163 604 0
81 -12 -8 605 0
-417 -352 -164 606 0
262 -6 -231 607 0
-412 -84 165 608 0
-203 243 318 609 0
-105 -153 71 610 0
-409 -225 -234 611 0
-223 -62 218 612 0
28 -74 -282 613 0
386 20 -396 614 0
211 314 -230 615 0
-459 67 333 616 0
43 433 -86 617 0
-484 166 -187 618 0
139 366 -226 619 0
-273 -97 435 620 0
-412 295 87 621 0
473 -61 -338 622 0
417 316 -264 623 0
-172 -462 -21 624 0
-466 120 251 625 0
122 202 102 626 0
245 395 440 627 0
346 -449 -368 628 0
161 -151 230 629 0
380 328 -83 630 0
-380 301 -209 631 0
-107 345 -231 632 0
-217 -447 228 633 0
-481 4 50 634 0
227 -123 109 635 0
-85 213 377 636 0
252 -399 -203 637 0
-470 -109 435 638 0
-19 -129 418 639 0
-333 -475 -387 640 0
280 -351 -312 641 0
-430 -148 -422 642 0
174 74 467 643 0
343 314 -406 644 0
242 253 283 645 0
259 -389 -197 646 0
-390 -69 195 647 0
342 -441 65 648 0
-294 139 268 649 0
171 -147 440 650 0
-190 -94 90 651 0
-189 -299 318 652 0
270 -351 -196 653 0
256 125 112 654 0
464 -451 -102 655 0
-438 160 276 656 0
-259 -184 131 657 0
-315 400 -449 658 0
317 46 -176 659 0
-385 207 -375 660 0
-56 15 160 661 0
-210 35 222 662 0
353 -236 -172 663 0
-445 -399 -363 664 0
-387 231 -400 665 0
286 73 -480 666 0
-358 287 294 667 0
-392 474 -40 668 0
333 191 -83 669 0
236 319 -117 670 0
-496 -318 -253 671 0
215 -104 168 672 0
136 -294 330 673 0
-257 290 142 674 0
109 -242 -143 675 0
182 -97 -277 676 0
-123 -291 -497 677 0
93 178 -408 678 0
-233 -206 -295 679 0
480 -451 -351 680 0
417 251 -247 681 0
149 490 -296 682 0
195 405 407 683 0
245 335 461 684 0
12 -8 385 685 0
-187 -423 58 686 0
-290 -238 -215 687 0
307 488 210 688 0
268 -48 475 689 0
-182 117 -164 690 0
-116 366 457 691 0
344 -446 3 692 0
297 -203 -159 693 0
135 473 -354 694 0
22 69 405 695 0
-15 -379 -101 696 0
426 279 101 697 0
-8 -69 89 698 0
473 -162 146 699 0
-39 -48 -187 700 0
-437 120 -183 701 0
132 -60 89 702 0
280 484 -266 703 0
-219 -235 -223 704 0
174 442 42 705 0
-414 224 -118 706 0
76 -237 -364 707 0
46 -170 473 708 0
-333 332 55 709 0
-468 383 131 710 0
-273 -338 125 711 0
-167 -66 -183 712 0
-259 473 -411 713 0
-224 479 20 714 0
205 -278 -123 715 0
282 200 -189 716 0
286 41 -254 717 0
474 382 -83 718 0
-312 -279 303 719 0
-247 -110 185 720 0
356 372 2 721 0
-173 -246 -458 722 0
-445 189 -437 723 0
79 -30 -495 724 0
-323 -484 140 725 0
428 240 384 726 0
-346 -118 218 727 0
-124 347 212 728 0
-215 -18 -475 729 0
-306 -460 291 730 0
-226 70 -306 731 0
-216 -246 44 732 0
428 -233 -124 733 0
-129 426 -7 734 0
12 -223 -449 735 0
-203 59 284 736 0
-386 -81 331 737 0
-39 -135 364 738 0
193 -33 -157 739 0
323 155 415 740 0
-454 252 -244 741 0
206 17 -99 742 0
307 -436 188 743 0
287 -58 273 744 0
113 -72 -491 745 0
-465 29 -473 746 0
202 212 429 747 0
347 -410 368 748 0
327 48 -296 749 0
298 -122 -182 750 0
-125 71 212 751 0
279 -349 155 752 0
-355 -281 -368 753 0
-23 -343 480 754 0
-344 229 -57 755 0
-494 -235 9 756 0
333 23 68 757 0
393 -128 172 758 0
-37 406 225 759 0
445 114 -231 760 0
-297 -348 176 761 0
220 478 399 762 0
487 -111 -241 763 0
-387 -288 -148 764 0
158 246 -450 765 0
-320 -360 -226 766 0
451 146 -100 767 0
-340 455 52 768 0
-101 -452 -138 769 0
193 -372 422 770 0
-175 182 360 771 0
427 389 -449 772 0
390 -460 -136 773 0
238 11 442 774 0
71 16 -19 775 0
-257 -246 299 776 0
69 -387 385 777 0
-159 134 -411 778 0
-397 -341 -17 779 0
253 114 -78 780 0
268 -349 345 781 0
-376 217 207 782 0
-135 95 413 783 0
-29 309 440 784 0
-405 -226 173 785 0
42 -408 -402 786 0
-251 239 99 787 0
375 207 -241 788 0
-155 413 -107 789 0
-217 1 314 790 0
-433 -456 -45 791 0
-488 -279 -300 792 0
299 -476 44 793 0
156 -312 106 794 0
392 124 -343 795 0
86 -232 446 796 0
169 -18 316 797 0
212 25 -370 798 0
-480 127 -426 799 0
-269 -230 180 800 0
122 -151 156 801 0
282 -252 -68 802 0
-46 -406 294 803 0
296 197 -52 804 0
194 8 -138 805 0
-150 -289 205 806 0
-389 -485 -406 807 0
-16 -141 351 808 0
8 103 -496 809 0
-189 -302 -461 810 0
-144 385 159 811 0
-496 -442 250 812 0
-464 178 -80 813 0
-251 -296 -4 814 0
-232 19 104 815 0
296 219 -388 816 0
247 82 -127 817 0
-375 124 -217 818 0
159 205 78 819 0
-6 -215 -411 820 0
-434 59 -221 821 0
-126 -333 368 822 0
-81 118 -167 823 0
-255 -187 141 824 0
-255 393 171 825 0
112 -291 10 826 0
-395 158 476 827 0
416 -178 52 828 0
388 51 124 829 0
-324 154 473 830 0
-210 214 -19 831 0
-135 303 -37 832 0
361 -19 -454 833 0
242 -294 -329 834 0
-387 410 -118 835 0
-409 -21 104 836 0
-368 366 -279 837 0
-381 -302 -325 838 0
-430 213 -275 839 0
385 -439 -156 840 0
103 86 18 841 0
-117 -327 -13 842 0
130 53 -327 843 0
-279 416 365 844 0
-470 447 -47 845 0
260 6 351 846 0
237 383 -324 847 0
-304 -340 -417 848 0
-297 -457 449 849 0
136 298 -436 850 0
-426 41 -359 851 0
-120 217 -448 852 0
168 -420 -365 853 0
-68 -261 -226 854 0
40 95 381 855 0
-171 326 -256 856 0
-470 -398 186 857 0
-127 -59 -10 858 0
259 -144 64 859 0
-415 191 -162 860 0
-264 406 -151 861 0
282 -346 453 862 0
-480 -165 -461 863 0
189 -105 36 864 0
20 449 -213 865 0
-426 290 -226 866 0
459 -237 400 867 0
452 379 -169 868 0
484 -75 70 869 0
-345 -154 -214 870 0
-451 39 284 871 0
-422 451 -166 872 0
-173 103 109 873 0
-332 200 278 874 0
470 427 -359 875 0
158 260 -281 876 0
-68 -132 168 877 0
-6 86 -162 878 0
284 -252 -309 879 0
-128 -237 -427 880 0
440 -48 -200 881 0
59 81 462 882 0
376 306 323 883 0
-198 -306 70 884 0
112 26 -89 885 0
62 116 419 886 0
-342 -334 130 887 0
-333 -375 391 888 0
-68 258 -305 889 0
-213 -86 275 890 0
-163 183 -392 891 0
370 394 -82 892 0
154 137 -7 893 0
-266 342 369 894 0
-245 -387 7 895 0
-44 -333 -106 896 0
-96 -343 329 897 0
-247 384 -369 898 0
313 -498 269 899 0
27 -342 -459 900 0
398 -256 147 901 0
-401 490 160 902 0
-158 341 72 903 0
-155 -441 41 904 0
315 -233 -308 905 0
-255 -272 267 906 0
-258 431 181 907 0
62 -226 106 908 0
353 153 18 909 0
281 418 167 910 0
-275 470 103 911 0
484 -103 -214 912 0
323 382 19 913 0
-364 385 -17 914 0
-269 -171 375 915 0
-163 273 -393 916 0
35 -17 -123 917 0
334 58 473 918 0
360 218 230 919 0
-447 -449 -367 920 0
-83 -144 -206 921 0
403 -11 211 922 0
-448 166 331 923 0
-306 -169 379 924 0
-399 414 -432 925 0
-496 -407 358 926 0
-185 -229 -416 927 0
296 -179 463 928 0
321 302 -303 929 0
233 -39 159 930 0
360 -1 445 931 0
-157 338 183 932 0
-1 -371 -118 933 0
376 -264 63 934 0
-104 -377 -394 935 0
-288 -499 327 936 0
-65 -112 477 937 0
-396 -151 368 938 0
-72 482 -212 939 0
6 424 157 940 0
-185 42 156 941 0
-119 -456 323 942 0
-39 -483 449 943 0
251 31 -463 944 0
-491 186 51 945 0
-317 -89 58 946 0
425 137 110 947 0
-408 251 -458 948 0
147 398 -497 949 0
451 -407 -176 950 0
459 -301 -405 951 0
-140 39 340 952 0
-130 467 -266 953 0
380 355 -482 954 0
418 -449 -446 955 0
-390 -7 180 956 0
189 4 233 957 0
399 -440 -360 958 0
410 156 263 959 0
-346 -17 66 960 0
379 354 -156 961 0
30 333 -10 962 0
372 -404 -378 963 0
54 -14 -487 964 0
-162 92 473 965 0
401 311 153 966 0
-365 -374 17 967 0
344 -103 161 968 0
-451 -189 94 969 0
1 489 -290 970 0
-357 -342 322 971 0
-293 -277 -114 972 0
51 137 -283 973 0
470 330 393 974 0
-90 -278 421 975 0
357 56 -379 976 0
-124 346 351 977 0
-266 -52 -232 978 0
342 295 -153 979 0
-97 333 22 980 0
-161 386 284 981 0
200 -126 -484 982 0
96 -101 144 983 0
-294 -199 83 984 0
455 -271 -62 985 0
236 362 43 986 0
327 478 -115 987 0
179 -394 455 988 0
19 -98 -76 989 0
-27 184 -442 990 0
487 58 -215 991 0
459 182 -261 992 0
-190 123 303 993 0
-499 278 28 994 0
392 480 233 995 0
-175 76 311 996 0
-200 176 -59 997 0
-308 77 -28 998 0
-71 -465 388 999 0
-414 -111 99 1000 0
219 -470 -82 1001 0
116 146 -106 1002 0
102 374 45 1003 0
61 -12 447 1004 0
412 222 341 1005 0
-168 232 443 1006 0
498 -496 -426 1007 0
204 19 200 1008 0
-284 -16 -360 1009 0
274 199 -334 1010 0
482 -67 21 1011 0
244 -281 42 1012 0
-76 -452 -322 1013 0
-182 483 -91 1014 0
-437 205 -151 1015 0
95 -229 -449 1016 0
-291 54 -491 1017 0
-22 460 -100 1018 0
46 -130 100 1019 0
-470 -364 7 1020 0
-295 -221 -141 1021 0
293 -39 -462 1022 0
-367 -422 271 1023 0
279 -172 169 1024 0
170 152 493 1025 0
-175 62 -60 1026 0
-279 130 -72 1027 0
-192 -272 82 1028 0
-29 392 457 1029 0
-479 398 -23 1030 0
191 337 64 1031 0
-66 312 -404 1032 0
-215 -229 -89 1033 0
152 -374 -154 1034 0
200 -495 285 1035 0
298 25 153 1036 0
-159 -495 -309 1037 0
-196 -350 -140 1038 0
-75 32 173 1039 0
248 -372 189 1040 0
413 140 332 1041 0
25 167 111 1042 0
197 -229 -445 1043 0
115 90 205 1044 0
-153 189 7 1045 0
-261 451 -24 1046 0
-289 262 35 1047 0
-113 205 -73 1048 0
-332 -6 347 1049 0
470 -351 -464 1050 0
-278 340 123 1051 0
-203 215 191 1052 0
-207 -369 -436 1053 0
330 274 120 1054 0
55 287 -273 1055 0
305 50 -203 1056 0
148 -121 191 1057 0
184 -108 491 1058 0
461 -430 44 1059 0
-191 289 87 1060 0
80 -299 135 1061 0
-196 -113 353 1062 0
247 -113 66 1063 0
130 -455 -167 1064 0
-500 284 -276 1065 0
125 470 -48 1066 0
408 -387 -76 1067 0
223 63 273 1068 0
-464 -442 -65 1069 0
452 -426 121 1070 0
482 -353 290 1071 0
-322 -35 471 1072 0
-253 137 201 1073 0
-66 -188 -224 1074 0
160 -95 -458 1075 0
425 277 6 1076 0
348 -192 361 1077 0
407 -9 -10 1078 0
-41 24 483 1079 0
-312 272 -42 1080 0
-22 496 -259 1081 0
398 -414 -390 1082 0
-392 260 -92 1083 0
-111 -143 -113 1084 0
-324 -93 -80 1085 0
448 182 264 1086 0
385 -124 -351 1087 0
-192 152 -233 1088 0
-303 51 -364 1089 0
-161 329 380 1090 0
500 -229 -60 1091 0
-397 271 -67 1092 0
-422 151 290 1093 0
-447 -423 147 1094 0
-445 496 106 1095 0
84 14 464 1096 0
352 323 -397 1097 0
-394 339 256 1098 0
-44 160 -226 1099 0
497 77 -72 1100 0
94 250 154 1101 0
103 -22 -376 1102 0
233 77 243 1103 0
-172 -115 390 1104 0
-158 291 -314 1105 0
-196 -351 -262 1106 0
76 -12 -381 1107 0
-371 134 10 1108 0
173 -435 152 1109 0
497 80 -37 1110 0
-147 -206 -278 1111 0
-225 194 102 1112 0
35 -152 475 1113 0
-115 434 -278 1114 0
-102 -337 -464 1115 0
-442 -423 26 1116 0
469 -334 -291 1117 0
-80 33 -171 1118 0
432 411 114 1119 0
-356 188 326 1120 0
-137 472 314 1121 0
-307 -400 -33 1122 0
234 40 -202 1123 0
-394 64 -308 1124 0
13 439 360 1125 0
-214 477 -445 1126 0
-388 -397 -8 1127 0
-206 70 376 1128 0
453 377 -416 1129 0
-301 495 405 1130 0
-492 104 332 1131 0
122 206 328 1132 0
-340 -20 -275 1133 0
-322 50 -358 1134 0
-360 251 -425 1135 0
-233 65 470 1136 0
382 223 -294 1137 0
-297 31 -295 1138 0
64 -2 61 1139 0
48 -144 -305 1140 0
-431 7 108 1141 0
-437 476 -448 1142 0
394 269 -222 1143 0
-108 -276 -119 1144 0
349 -287 216 1145 0
219 -150 -87 1146 0
-481 -452 418 1147 0
334 218 -393 1148 0
271 369 -269 1149 0
-306 -55 498 1150 0
381 -476 -406 1151 0
-393 -316 106 1152 0
-347 -29 19 1153 0
-394 465 -106 1154 0
187 58 416 1155 0
-413 -424 -231 1156 0
-409 290 -173 1157 0
83 107 279 1158 0
-277 -267 -18 1159 0
-300 -125 138 1160 0
-156 -424 -115 1161 0
336 124 198 1162 0
419 466 500 1163 0
-156 -388 485 1164 0
436 9 -293 1165 0
-259 -116 -204 1166 0
-67 -169 286 1167 0
-129 -78 -346 1168 0
397 -481 -114 1169 0
16 458 -441 1170 0
137 103 -184 1171 0
-104 -71 370 1172 0
354 -331 -233 1173 0
121 290 -412 1174 0
-346 273 -286 1175 0
77 -215 391 1176 0
89 392 -64 1177 0
487 466 326 1178 0
109 -343 52 1179 0
61 -497 -146 1180 0
66 -1 50 1181 0
416 406 5 1182 0
-159 126 63 1183 0
-93 -280 -74 1184 0
222 -5 -348 1185 0
447 149 -303 1186 0
-14 -459 -119 1187 0
-39 -74 397 1188 0
223 -80 -293 1189 0
-247 151 76 1190 0
-30 -236 162 1191 0
410 -81 -234 1192 0
-324 -487 -446 1193 0
43 -17 -472 1194 0
425 -173 -77 1195 0
-23 56 -135 1196 0
115 20 402 1197 0
350 -293 -353 1198 0
-425 232 -75 1199 0
304 -463 -467 1200 0
387 78 -442 1201 0
293 -138 413 1202 0
-245 118 -110 1203 0
54 158 181 1204 0
181 -84 419 1205 0
204 -494 -392 1206 0
332 462 40 1207 0
-54 -339 -199 1208 0
-11 161 -285 1209 0
89 -276 -116 1210 0
425 33 -255 1211 0
-156 38 -476 1212 0
308 23 -38 1213 0
213 -290 -84 1214 0
-167 397 -83 1215 0
-280 57 460 1216 0
-14 -341 309 1217 0
-184 -71 21 1218 0
426 188 440 1219 0
-298 395 440 1220 0
-80 -370 -132 1221 0
-107 220 116 1222 0
-150 -484 151 1223 0
324 221 -442 1224 0
372 41 -433 1225 0
228 -288 103 1226 0
-26 494 -470 1227 0
-81 137 -248 1228 0
352 -3 -2 1229 0
130 420 237 1230 0
393 -11 -307 1231 0
-248 150 -35 1232 0
-337 406 -495 1233 0
399 -330 131 1234 0
191 4 64 1235 0
-403 150 -180 1236 0
118 22 -86 1237 0
114 428 466 1238 0
-19 225 449 1239 0
-177 212 -366 1240 0
327 498 -386 1241 0
68 328 393 1242 0
114 -299 405 1243 0
304 9 -98 1244 0
7 355 13 1245 0
309 191 -115 1246 0
283 299 -230 1247 0
133 -24 -16 1248 0
-277 -325 -41 1249 0
-17 -286 -80 1250 0
376 -137 -318 1251 0
35 -77 -24 1252 0
-275 439 -265 1253 0
17 -470 252 1254 0
-488 -322 -189 1255 0
435 331 452 1256 0
431 251 -99 1257 0
-90 -222 -320 1258 0
-241 -38 -478 1259 0
87 -242 -299 1260 0
-445 483 -14 1261 0
450 11 323 1262 0
433 -245 403 1263 0
7 -180 55 1264 0
-295 -32 -5 1265 0
81 -95 457 1266 0
-14 -453 -119 1267 0
-184 488 413 1268 0
11 451 -166 1269 0
-58 -99 -444 1270 0
164 89 -412 1271 0
-22 104 -351 1272 0
54 330 142 1273 0
-457 -63 64 1274 0
-395 426 313 1275 0
-112 390 13 1276 0
62 325 306 1277 0
245 -240 389 1278 0
-326 -289 418 1279 0
-148 -123 -386 1280 0
488 -82 -109 1281 0
73 -463 473 1282 0
253 -475 126 1283 0
156 -295 314 1284 0
299 -153 99 1285 0
-273 -491 -478 1286 0
397 367 -61 1287 0
-192 -71 -442 1288 0
-186 -448 319 1289 0
409 -172 -298 1290 0
-480 -494 -169 1291 0
435 -179 483 1292 0
-494 224 178 1293 0
483 488 72 1294 0
473 241 -462 1295 0
472 499 -194 1296 0
477 302 -186 1297 0
216 -172 151 1298 0
70 287 58 1299 0
68 367 -71 1300 0
480 188 91 1301 0
125 135 369 1302 0
-281 -170 457 1303 0
-353 -32 -228 1304 0
-124 67 302 1305 0
197 248 -209 1306 0
215 -354 232 1307 0
-471 -211 401 1308 0
126 194 411 1309 0
-277 201 -161 1310 0
-12 164 28 1311 0
229 -405 -382 1312 0
-325 -259 289 1313 0
422 -410 -349 1314 0
308 -199 486 1315 0
208 -234 -195 1316 0
-476 233 -173 1317 0
71 284 -433 1318 0
170 57 -227 1319 0
-238 -494 -202 1320 0
97 -359 168 1321 0
-130 -467 -189 1322 0
-201 181 -95 1323 0
-434 469 82 1324 0
360 -184 94 1325 0
-69 85 258 1326 0
41 307 -158 1327 0
-56 204 486 1328 0
138 264 -73 1329 0
-159 104 6 1330 0
338 -372 -386 1331 0
-217 482 272 1332 0
-195 -307 -237 1333 0
164 -388 137 1334 0
-318 -332 472 1335 0
388 -278 16 1336 0
60 137 166 1337 0
336 235 210 1338 0
433 -73 -261 1339 0
-229 271 228 1340 0
-482 173 -183 1341 0
-455 -493 469 1342 0
-205 458 -321 1343 0
379 368 94 1344 0
-23 466 -409 1345 0
71 -144 -222 1346 0
270 350 -225 1347 0
-113 -222 24 1348 0
129 -451 -492 1349 0
-1 228 163 1350 0
-129 -324 -107 1351 0
51 -136 -479 1352 0
-393 -130 446 1353 0
-144 -259 93 1354 0
311 283 156 1355 0
-117 299 -410 1356 0
-183 -408 398 1357 0
495 -329 -440 1358 0
-331 418 -387 1359 0
-22 -486 230 1360 0
373 483 421 1361 0
-32 -232 376 1362 0
132 -395 -193 1363 0
236 37 -31 1364 0
-128 281 444 1365 0
-306 -288 199 1366 0
130 117 22 1367 0
-222 460 -4 1368 0
454 -66 358 1369 0
348 208 -51 1370 0
-19 -143 -303 1371 0
-468 403 -278 1372 0
-485 -67 -5 1373 0
3 234 272 1374 0
-481 -178 -469 1375 0
276 37 -43 1376 0
194 170 13 1377 0
117 279 -109 1378 0
-140 -310 -353 1379 0
-317 454 -257 1380 0
-387 -66 437 1381 0
19 296 -207 1382 0
-274 313 -494 1383 0
-6 -272 -133 1384 0
-399 -356 247 1385 0
378 4 344 1386 0
344 -89 -117 1387 0
194 246 445 1388 0
-47 408 336 1389 0
274 -262 -382 1390 0
-406 196 178 1391 0
-107 26 424 1392 0
-414 46 -433 1393 0
499 377 401 1394 0
117 -79 400 1395 0
-426 498 110 1396 0
-490 189 -382 1397 0
-455 111 247 1398 0
-326 -476 -195 1399 0
226 24 41 1400 0
465 194 282 1401 0
339 243 -452 1402 0
-354 443 -175 1403 0
-300 -401 -179 1404 0
369 -69 109 1405 0
-324 335 240 1406 0
-168 -453 -162 1407 0
384 440 -91 1408 0
-269 180 -206 1409 0
-207 466 -125 1410 0
-201 -109 -497 1411 0
162 361 201 1412 0
-94 340 -244 1413 0
406 -184 -25 1414 0
241 -54 -91 1415 0
-2 455 -146 1416 0
-344 281 456 1417 0
-215 -243 -83 1418 0
-354 280 65 1419 0
-280 -224 -54 1420 0
-37 127 -87 1421 0
-498 -438 -252 1422 0
485 -151 239 1423 0
418 342 -42 1424 0
258 -246 -6 1425 0
-477 -104 -76 1426 0
346 498 -69 1427 0
89 -4 205 1428 0
-144 232 -272 1429 0
98 -116 -9 1430 0
406 500 91 1431 0
56 -48 332 1432 0
458 -69 146 1433 0
-325 400 26 1434 0
-461 152 -102 1435 0
405 293 -137 1436 0
-138 119 -46 1437 0
463 -19 415 1438 0
59 -146 422 1439 0
166 35 111 1440 0
222 204 -427 1441 0
215 -389 410 1442 0
219 -7 -388 1443 0
-315 -213 -126 1444 0
-33 -211 -354 1445 0
497 192 -299 1446 0
92 -378 456 1447 0
-496 -272 376 1448 0
-483 -414 -205 1449 0
-72 -408 145 1450 0
-46 52 447 1451 0
-66 -335 -51 1452 0
357 -455 373 1453 0
-414 53 -280 1454 0
135 229 155 1455 0
220 354 194 1456 0
216 425 -199 1457 0
323 -109 27 1458 0
484 -246 252 1459 0
131 121 -10 1460 0
223 -332 395 1461 0
300 -155 467 1462 0
68 451 277 1463 0
-167 -125 -458 1464 0
-240 -177 -343 1465 0
-68 -142 -189 1466 0
376 -272 -370 1467 0
-268 -163 -21 1468 0
-82 -465 247 1469 0
367 72 158 1470 0
486 -75 396 1471 0
-258 98 210 1472 0
103 308 -271 1473 0
445 339 -257 1474 0
-170 175 -127 1475 0
176 302 243 1476 0
496 -87 14 1477 0
278 393 158 1478 0
136 22 -321 1479 0
-472 278 -114 1480 0
166 -197 -281 1481 0
-480 -282 182 1482 0
-357 102 -147 1483 0
-207 -400 217 1484 0
-225 203 -29 1485 0
481 393 90 1486 0
-308 497 13 1487 0
18 273 499 1488 0
478 243 -14 1489 0
76 21 -158 1490 0
238 435 -110 1491 0
18 -298 58 1492 0
392 -313 145 1493 0
-88 153 343 1494 0
161 292 241 1495 0
-113 7 -89 1496 0
52 -413 214 1497 0
343 232 317 1498 0
28 -370 -204 1499 0
244 435 -138 1500 0
128 -287 494 1501 0
-382 -480 -433 1502 0
438 -219 -419 1503 0
468 -467 -169 1504 0
-121 -234 48 1505 0
-232 -87 407 1506 0
62 247 -276 1507 0
-232 352 -3 1508 0
237 -41 -102 1509 0
31 301 -239 1510 0
-103 -327 275 1511 0
86 -268 402 1512 0
204 -59 4 1513 0
204 360 445 1514 0
-226 -292 40 1515 0
-439 355 86 1516 0
111 279 -160 1517 0
248 -145 139 1518 0
360 -315 -79 1519 0
1 -279 -410 1520 0
93 116 -278 1521 0
-262 -449 254 1522 0
341 -283 -394 1523 0
-128 -348 438 1524 0
51 252 -1 1525 0
-242 321 -462 1526 0
72 -319 -16 1527 0
382 -226 70 1528 0
212 -399 346 1529 0
-399 295 214 1530 0
262 404 -46 1531 0
-71 -250 29 1532 0
175 -80 -480 1533 0
135 -474 127 1534 0
-21 230 -373 1535 0
-103 434 -226 1536 0
72 200 -255 1537 0
243 -471 -54 1538 0
371 151 387 1539 0
-61 -137 191 1540 0
-405 186 428 1541 0
-457 -325 -53 1542 0
200 349 376 1543 0
61 -333 297 1544 0
-367 -431 -164 1545 0
-480 -358 -325 1546 0
-130 -14 151 1547 0
-126 -304 442 1548 0
-341 -481 75 1549 0
-70 -382 206 1550 0
-66 115 372 1551 0
211 -126 279 1552 0
377 -268 -363 1553 0
124 -198 29 1554 0
-150 404 329 1555 0
166 -31 93 1556 0
348 -265 -268 1557 0
-263 487 465 1558 0
-107 72 -218 1559 0
423 -474 478 1560 0
160 445 -426 1561 0
-407 429 -151 1562 0
62 470 82 1563 0
254 391 471 1564 0
338 -16 156 1565 0
184 -242 142 1566 0
-192 495 430 1567 0
-390 -125 376 1568 0
134 -307 -488 1569 0
-296 -357 498 1570 0
-93 -415 67 1571 0
-105 142 304 1572 0
-484 499 -320 1573 0
311 -72 293 1574 0
334 -116 363 1575 0
-11 54 -440 1576 0
413 8 17 1577 0
-190 -112 214 1578 0
-98 -462 367 1579 0
61 296 1 1580 0
-94 25 361 1581 0
-32 -172 51 1582 0
198 363 353 1583 0
488 418 -165 1584 0
97 -49 -166 1585 0
189 -485 53 1586 0
-148 -446 -164 1587 0
-487 478 494 1588 0
-354 -380 463 1589 0
331 368 -444 1590 0
343 346 -247 1591 0
-46 340 254 1592 0
-67 226 -58 1593 0
204 -172 479 1594 0
-116 -74 80 1595 0
443 -160 -58 1596 0
268 314 321 1597 0
-354 33 220 1598 0
300 202 36 1599 0
138 -246 476 1600 0
-74 221 120 1601 0
-490 -132 273 1602 0
-433 213 171 1603 0
250 -144 490 1604 0
304 342 -106 1605 0
-419 -474 119 1606 0
-400 182 -441 1607 0
-34 -395 310 1608 0
-493 175 345 1609 0
427 -68 281 1610 0
68 212 266 1611 0
-298 -207 -241 1612 0
24 -48 343 1613 0
124 -294 94 1614 0
425 126 11 1615 0
-189 111 -46 1616 0
6 318 432 1617 0
357 -169 -438 1618 0
-206 457 216 1619 0
-15 -1 -152 1620 0
98 -322 -491 1621 0
-284 382 221 1622 0
262 -357 -305 1623 0
9 439 100 1624 0
489 349 59 1625 0
241 212 285 1626 0
-318 135 280 1627 0
327 -163 25 1628 0
314 -304 193 1629 0
-479 480 88 1630 0
361 -144 154 1631 0
255 165 -69 1632 0
-225 216 -494 1633 0
208 -228 -289 1634 0
267 -155 -435 1635 0
482 418 163 1636 0
382 -8 101 1637 0
-182 178 -309 1638 0
-198 418 -101 1639 0
-313 336 -62 1640 0
-117 -372 68 1641 0
78 -440 462 1642 0
-429 289 -107 1643 0
-249 -137 -101 1644 0
493 -414 -117 1645 0
490 56 -100 1646 0
410 154 -103 1647 0
-47 249 229 1648 0
259 -438 -462 1649 0
-193 213 263 1650 0
-31 -478 157 1651 0
-87 410 -348 1652 0
-330 -374 445 1653 0
-282 -102 433 1654 0
-310 161 -369 1655 0
52 -153 -447 1656 0
413 -299 -234 1657 0
153 232 446 1658 0
-315 -7 -386 1659 0
-471 -125 -187 1660 0
-123 162 209 1661 0
-324 176 -440 1662 0
-176 -362 341 1663 0
328 -443 -306 1664 0
-56 377 -193 1665 0
19 307 -62 1666 0
106 49 -386 1667 0
437 -422 302 1668 0
248 -235 -230 1669 0
-254 280 276 1670 0
-185 181 311 1671 0
195 -249 193 1672 0
423 231 415 1673 0
-485 -488 -432 1674 0
-203 -202 165 1675 0
-38 440 22 1676 0
-458 -215 -402 1677 0
-186 317 189 1678 0
120 -303 -301 1679 0
376 -131 443 1680 0
-83 -310 415 1681 0
-2 -95 206 1682 0
101 441 312 1683 0
449 -214 -448 1684 0
-124 -187 316 1685 0
-201 25 337 1686 0
377 423 150 1687 0
495 250 371 1688 0
12 -343 -248 1689 0
-276 -5 243 1690 0
154 -454 498 1691 0
236 -444 184 1692 0
-110 -336 11 1693 0
-280 469 301 1694 0
116 -489 280 1695 0
176 -457 -236 1696 0
-76 320 407 1697 0
-264 153 450 1698 0
-110 404 -467 1699 0
127 476 -415 1700 0
378 430 20 1701 0
48 157 -69 1702 0
-7 260 496 1703 0
-88 57 -271 1704 0
484 146 -254 1705 0
-125 -400 272 1706 0
-94 -141 353 1707 0
-498 -223 459 1708 0
351 427 233 1709 0
-123 401 321 1710 0
492 -65 -192 1711 0
250 -348 -146 1712 0
-368 62 8 1713 0
-128 382 162 1714 0
-490 292 378 1715 0
-450 204 -357 1716 0
-115 -189 -161 1717 0
-267 -328 135 1718 0
434 380 -123 1719 0
-118 303 -241 1720 0
-105 209 -108 1721 0
-132 452 -325 1722 0
-353 -279 324 1723 0
-496 179 -313 1724 0
-168 277 198 1725 0
-399 164 321 1726 0
-189 -49 -91 1727 0
-37 305 253 1728 0
286 -185 -353 1729 0
316 396 -51 1730 0
-73 427 72 1731 0
-409 240 124 1732 0
84 -295 153 1733 0
259 356 -439 1734 0
130 318 -202 1735 0
-289 87 86 1736 0
-242 -255 420 1737 0
364 470 37 1738 0
197 120 232 1739 0
321 194 431 1740 0
320 -29 -478 1741 0
-37 -423 137 1742 0
-133 -264 491 1743 0
106 246 -301 1744 0
372 -400 -426 1745 0
300 444 -462 1746 0
-89 138 -397 1747 0
484 452 22 1748 0
-273 198 180 1749 0
431 221 171 1750 0
-418 360 -88 1751 0
-32 -371 380 1752 0
145 -16 355 1753 0
345 312 423 1754 0
237 -307 -67 1755 0
-339 392 -346 1756 0
255 70 -351 1757 0
189 -488 -188 1758 0
-171 15 -371 1759 0
-460 -316 -39 1760 0
-352 -98 140 1761 0
386 414 92 1762 0
444 -76 -307 1763 0
-199 -161 -393 1764 0
326 63 -178 1765 0
451 182 405 1766 0
-331 249 265 1767 0
71 18 190 1768 0
328 -116 -220 1769 0
14 -270 -152 1770 0
113 386 -473 1771 0
-48 -89 273 1772 0
-278 498 -127 1773 0
39 223 347 1774 0
-441 108 -156 1775 0
-334 418 -491 1776 0
215 -359 -427 1777 0
362 -256 -473 1778 0
422 -168 -59 1779 0
-343 33 -410 1780 0
-339 101 53 1781 0
-98 -284 -399 1782 0
-159 9 321 1783 0
-359 264 -147 1784 0
437 -233 -463 1785 0
248 -425 -208 1786 0
-144 -170 432 1787 0
-372 -198 90 1788 0
81 -226 -178 1789 0
34 -233 -465 1790 0
378 370 97 1791 0
250 -25 84 1792 0
-8 212 392 1793 0
-484 227 -116 1794 0
16 -164 -308 1795 0
178 -451 286 1796 0
165 -384 -180 1797 0
23 -218 -9 1798 0
252 342 482 1799 0
-386 -169 403 1800 0
-74 76 -271 1801 0
-72 -71 -225 1802 0
417 -455 -387 1803 0
119 44 -466 1804 0
334 -333 -437 1805 0
-223 495 138 1806 0
-141 -160 213 1807 0
-213 156 381 1808 0
-34 -358 -418 1809 0
-264 -276 434 1810 0
-352 153 -360 1811 0
396 -217 453 1812 0
-240 365 -473 1813 0
-357 230 -344 1814 0
-457 -423 -146 1815 0
-291 -311 -375 1816 0
205 -313 -311 1817 0
434 347 -115 1818 0
-121 -4 55 1819 0
-102 -308 -217 1820 0
66 -333 -266 1821 0
319 162 -235 1822 0
112 -334 115 1823 0
-74 -244 -354 1824 0
-51 30 -323 1825 0
441 420 53 1826 0
122 177 217 1827 0
123 -84 52 1828 0
-349 325 -47 1829 0
-28 -278 117 1830 0
206 -222 -287 1831 0
341 -393 -445 1832 0
453 -390 60 1833 0
-229 317 143 1834 0
-317 -465 384 1835 0
-241 -379 -237 1836 0
475 -490 215 1837 0
447 217 -171 1838 0
356 179 199 1839 0
159 36 81 1840 0
383 -352 -300 1841 0
238 363 -36 1842 0
52 -156 446 1843 0
103 -142 405 1844 0
-358 343 491 1845 0
155 324 -492 1846 0
126 45 442 1847 0
175 -273 272 1848 0
367 -296 254 1849 0
-105 -450 -245 1850 0
-240 24 355 1851 0
239 -422 -158 1852 0
385 -395 -58 1853 0
-46 -441 -206 1854 0
243 120 183 1855 0
237 453 23 1856 0
-127 49 -323 1857 0
-113 177 -342 1858 0
-270 -65 330 1859 0
400 337 -374 1860 0
119 -416 245 1861 0
206 -319 -139 1862 0
228 -212 -347 1863 0
37 -472 344 1864 0
487 422 182 1865 0
-494 351 -420 1866 0
-312 198 -126 1867 0
64 -361 -274 1868 0
-386 473 -359 1869 0
11 53 230 1870 0
251 259 -130 1871 0
470 3 -257 1872 0
405 106 -264 1873 0
-395 -233 496 1874 0
330 269 -172 1875 0
-128 -31 90 1876 0
78 -457 -493 1877 0
-187 -152 -300 1878 0
126 -395 -350 1879 0
-72 487 498 1880 0
-71 -97 -361 1881 0
-6 20 -349 1882 0
-330 -487 -199 1883 0
-370 -251 -239 1884 0
494 -481 -403 1885 0
325 -348 207 1886 0
315 -420 87 1887 0
24 -324 22 1888 0
-485 328 244 1889 0
-277 17 -84 1890 0
-421 453 188 1891 0
63 -471 -133 1892 0
-382 -51 -374 1893 0
-432 -124 -148 1894 0
-225 -385 -449 1895 0
228 -114 -38 1896 0
-321 409 -60 1897 0
-97 -427 -438 1898 0
-396 153 178 1899 0
143 -350 -242 1900 0
-368 -227 -45 1901 0
-335 -156 -235 1902 0
228 494 -448 1903 0
313 271 -161 1904 0
-484 -412 377 1905 0
-65 394 221 1906 0
-322 -222 239 1907 0
376 -37 311 1908 0
388 -12 42 1909 0
176 495 205 1910 0
-153 349 152 1911 0
-388 282 -301 1912 0
-369 19 -294 1913 0
-467 -356 -325 1914 0
-443 470 381 1915 0
399 -198 -442 1916 0
59 -328 -228 1917 0
-189 -187 356 1918 0
-410 -240 51 1919 0
-487 -338 -245 1920 0
338 -21 -42 1921 0
49 407 335 1922 0
439 -156 52 1923 0
-223 345 273 1924 0
-360 391 -158 1925 0
53 -140 -1 1926 0
-12 251 324 1927 0
-490 -352 -465 1928 0
-12 4 294 1929 0
199 -404 -314 1930 0
285 -322 -275 1931 0
-158 386 -395 1932 0
37 27 -438 1933 0
401 -228 -497 1934 0
-493 29 366 1935 0
-309 -303 40 1936 0
218 475 449 1937 0
-278 196 360 1938 0
422 -27 251 1939 0
375 -168 -145 1940 0
110 242 57 1941 0
-9 214 18 1942 0
437 330 422 1943 0
223 -179 462 1944 0
-124 -54 296 1945 0
-17 439 -458 1946 0
-428 190 110 1947 0
214 -249 -253 1948 0
-411 -427 52 1949 0
-186 -349 -361 1950 0
-368 -123 41 1951 0
148 -267 -384 1952 0
-168 -37 171 1953 0
274 302 209 1954 0
-202 -482 86 1955 0
-472 146 239 1956 0
-123 176 79 1957 0
-143 84 -388 1958 0
378 -482 -9 1959 0
-173 423 -244 1960 0
390 213 270 1961 0
-99 -445 -12 1962 0
227 203 4 1963 0
70 -344 80 1964 0
-321 -127 356 1965 0
-416 -113 277 1966 0
256 -434 -146 1967 0
104 -294 84 1968 0
-351 -41 -448 1969 0
-472 -428 29 1970 0
-302 40 -271 1971 0
-62 440 229 1972 0
-25 -422 -24 1973 0
-163 -491 -378 1974 0
-498 -21 49 1975 0
211 -410 448 1976 0
35 -433 -138 1977 0
-394 146 441 1978 0
-6 326 15 1979 0
240 359 425 1980 0
-36 -473 -392 1981 0
-263 -323 -364 1982 0
375 -127 20 1983 0
148 85 -411 1984 0
97 341 -436 1985 0
51 -84 327 1986 0
136 270 325 1987 0
-353 134 -369 1988 0
-147 62 -166 1989 0
226 144 254 1990 0
-474 447 22 1991 0
-122 318 -101 1992 0
-200 -321 375 1993 0
-23 354 -79 1994 0
324 -144 -98 1995 0
-455 -478 -62 1996 0
107 367 -197 1997 0
445 227 -479 1998 0
214 -154 -360 1999 0
-100 76 -195 2000 0
-112 -153 -311 2001 0
-145 -50 409 2002 0
-47 238 58 2003 0
69 -372 -396 2004 0
-413 400 110 2005 0
324 -332 147 2006 0
149 -20 -233 2007 0
-206 263 171 2008 0
31 -311 -261 2009 0
-388 -176 -484 2010 0
496 -372 -391 2011 0
194 -12 250 2012 0
-312 -144 483 2013 0
-402 -196 -452 2014 0
-268 174 -404 2015 0
-99 251 287 2016 0
233 -406 -179 2017 0
-443 338 -317 2018 0
243 -430 28 2019 0
485 -273 250 2020 0
48 -289 150 2021 0
-209 -248 -41 2022 0
-346 164 -328 2023 0
78 361 -173 2024 0
-282 -122 168 2025 0
405 -428 -295 2026 0
-184 -280 316 2027 0
359 274 170 2028 0
-303 -252 -154 2029 0
441 -118 96 2030 0
-406 294 217 2031 0
381 -292 16 2032 0
-454 234 93 2033 0
-146 253 -311 2034 0
-42 -317 134 2035 0
417 -235 59 2036 0
-123 395 67 2037 0
424 -128 -85 2038 0
-409 -490 487 2039 0
4 393 48 2040 0
213 393 337 2041 0
-105 -28 55 2042 0
467 479 -2 2043 0
-464 10 -211 2044 0
302 -139 -427 2045 0
482 -123 -404 2046 0
131 240 307 2047 0
-62 408 107 2048 0
158 -46 219 2049 0
-476 -387 -243 2050 0
-165 152 462 2051 0
235 58 240 2052 0
-420 70 -176 2053 0
140 125 -182 2054 0
-57 68 94 2055 0
243 -183 -116 2056 0
-443 -168 -368 2057 0
33 120 481 2058 0
-363 302 -412 2059 0
-293 440 -472 2060 0
219 413 -418 2061 0
489 184 436 2062 0
323 -487 471 2063 0
155 -241 -90 2064 0
-42 -421 439 2065 0
-259 -301 -162 2066 0
-186 -147 305 2067 0
-76 -109 489 2068 0
-460 239 -263 2069 0
136 100 -38 2070 0
-222 -382 -14 2071 0
217 41 -80 2072 0
108 28 316 2073 0
-55 -347 22 2074 0
-316 481 -325 2075 0
120 -496 -117 2076 0
335 202 217 2077 0
368 71 148 2078 0
-378 128 -44 2079 0
38 426 202 2080 0
392 329 315 2081 0
59 497 -371 2082 0
-320 454 342 2083 0
-274 479 -426 2084 0
215 -86 379 2085 0
426 44 -348 2086 0
-19 429 -469 2087 0
-408 -74 421 2088 0
-115 -420 -459 2089 0
47 245 355 2090 0
21 -304 -209 2091 0
87 283 136 2092 0
-231 -118 345 2093 0
189 107 163 2094 0
-98 -345 -347 2095 0
493 441 403 2096 0
114 -47 -333 2097 0
430 -131 434 2098 0
-239 492 -75 2099 0
-8 467 81 2100 0
216 -261 209 2101 0
-464 -46 -461 2102 0
298 -268 -117 2103 0
-420 -400 -424 2104 0
18 404 -431 2105 0
406 475 32 2106 0
470 293 252 2107 0
158 440 -223 2108 0
45 -71 330 2109 0
-126 263 -173 2110 0
369 -377 495 2111 0
-389 139 131 2112 0
369 66 180 2113 0
-115 199 -454 2114 0
65 237 -350 2115 0
-112 392 -114 2116 0
463 489 -367 2117 0
-408 -35 54 2118 0
-214 -126 -226 2119 0
-165 222 -493 2120 0
148 301 -334 2121 0
409 464 -51 2122 0
446 -99 341 2123 0
133 -209 253 2124 0
-55 -490 297 2125 0
385 -39 366 2126 0
-164 -301 -76 2127 0
-379 -310 390 2128 0
-128 -321 311 2129 0
-486 409 3 2130 0
56 200 -420 2131 0
24 -391 252 2132 0
217 -137 402 2133 0
-53 -352 -365 2134 0
-231 52 188 2135 0
256 137 -238 2136 0
87 -195 -27 2137 0
-69 -269 -420 2138 0
-22 -140 491 2139 0
427 403 -176 2140 0
-84 90 -166 2141 0
102 -3 289 2142 0
-86 -24 81 2143 0
-258 -425 -55 2144 0
201 395 -205 2145 0
-470 86 -445 2146 0
363 -27 -171 2147 0
-292 223 -489 2148 0
-410 -458 391 2149 0
-279 83 -7 2150 0
-489 446 -273 2151 0
395 195 136 2152 0
-303 186 -273 2153 0
6 9 374 2154 0
-261 -482 276 2155 0
4 173 -127 2156 0
40 -349 -383 2157 0
237 40 -168 2158 0
-44 -396 104 2159 0
-1 -251 160 2160 0
77 453 78 2161 0
-276 -303 241 2162 0
30 428 -135 2163 0
150 169 93 2164 0
-17 -414 -445 2165 0
-310 -64 -471 2166 0
215 2 425 2167 0
-24 476 -499 2168 0
24 -5 248 2169 0
245 -2 16 2170 0
-128 353 -426 2171 0
451 231 304 2172 0
-1 69 -495 2173 0
108 124 166 2174 0
93 206 359 2175 0
-114 -298 437 2176 0
251 282 -239 2177 0
-5 478 -303 2178 0
219 316 -313 2179 0
149 40 446 2180 0
-422 436 407 2181 0
-420 342 499 2182 0
474 311 56 2183 0
-31 -194 -49 2184 0
130 -206 -167 2185 0
114 22 102 2186 0
-388 -397 -277 2187 0
-300 408 58 2188 0
-408 -182 -28 2189 0
-270 -40 -187 2190 0
-230 -115 -444 2191 0
-215 -88 47 2192 0
-85 -481 -204 2193 0
229 96 -213 2194 0
483 359 315 2195 0
-312 194 -318 2196 0
-244 -318 -402 2197 0
-408 154 59 2198 0
225 -210 -62 2199 0
-494 311 70 2200 0
-141 182 100 2201 0
-447 152 -402 2202 0
-241 -392 161 2203 0
-365 10 343 2204 0
-397 -415 154 2205 0
-181 193 -63 2206 0
78 304 198 2207 0
91 32 402 2208 0
-71 -279 457 2209 0
-415 -277 35 2210 0
-492 -171 151 2211 0
-139 -16 265 2212 0
-483 -381 21 2213 0
-326 386 -493 2214 0
-175 -339 211 2215 0
330 -410 5 2216 0
-230 128 33 2217 0
304 278 -144 2218 0
-304 191 82 2219 0
-167 -238 -355 2220 0
195 -32 -369 2221 0
-428 -429 149 2222 0
151 -83 -21 2223 0
-320 -73 -222 2224 0
-94 328 455 2225 0
-482 132 444 2226 0
-368 123 489 2227 0
174 -144 391 2228 0
-312 -96 -30 2229 0
87 386 162 2230 0
-413 -403 101 2231 0
489 201 -39 2232 0
-187 215 219 2233 0
-257 -216 -462 2234 0
359 380 -96 2235 0
345 51 90 2236 0
298 -343 210 2237 0
-465 358 -38 2238 0
305 335 -440 2239 0
-321 -30 481 2240 0
-424 -27 -139 2241 0
258 -55 311 2242 0
48 434 -144 2243 0
304 -45 -20 2244 0
-10 349 95 2245 0
134 420 -403 2246 0
106 40 162 2247 0
-292 -383 277 2248 0
-63 -404 -374 2249 0
192 -206 317 2250 0
-369 -378 -333 2251 0
-450 -415 -294 2252 0
-25 487 428 2253 0
-344 -385 -420 2254 0
-184 -305 -120 2255 0
239 50 280 2256 0
71 463 -217 2257 0
307 302 12 2258 0
311 38 500 2259 0
152 274 -423 2260 0
-137 175 405 2261 0
269 -448 -497 2262 0
421 70 -187 2263 0
-364 335 -402 2264 0
-1 -374 -77 2265 0
317 44 246 2266 0
226 -39 196 2267 0
445 -306 408 2268 0
-423 -39 -297 2269 0
83 -192 314 2270 0
-322 453 372 2271 0
245 -363 18 2272 0
-449 -37 387 2273 0
-97 -40 -77 2274 0
-100 364 345 2275 0
163 -319 483 2276 0
-333 211 464 2277 0
-407 495 4 2278 0
130 -38 2 2279 0
435 442 137 2280 0
-492 496 319 2281 0
474 -307 230 2282 0
-234 -21 22 2283 0
-354 336 -248 2284 0
-103 358 174 2285 0
-350 -222 248 2286 0
281 175 -481 2287 0
-413 252 43 2288 0
-186 81 484 2289 0
-299 256 -56 2290 0
-468 273 326 2291 0
27 -270 -438 2292 0
-254 -34 464 2293 0
-251 -434 200 2294 0
-74 -62 409 2295 0
271 314 -264 2296 0
-102 -234 -157 2297 0
-353 -15 120 2298 0
154 -476 303 2299 0
67 -39 -436 2300 0
-246 342 -325 2301 0
130 -259 -375 2302 0
-331 454 84 2303 0
163 162 128 2304 0
283 415 -9 2305 0
-113 -381 119 2306 0
-109 -254 4 2307 0
-365 410 47 2308 0
-339 -379 302 2309 0
-381 -460 416 2310 0
390 204 -12 2311 0
-494 244 357 2312 0
-273 -157 225 2313 0
477 154 54 2314 0
-215 98 246 2315 0
-24 -271 -392 2316 0
383 -143 -11 2317 0
-472 317 283 2318 0
372 -163 -251 2319 0
95 -447 153 2320 0
376 191 265 2321 0
227 -371 -459 2322 0
-463 123 368 2323 0
-96 384 -443 2324 0
398 -54 435 2325 0
26 -256 -490 2326 0
41 -112 -199 2327 0
305 -302 -86 2328 0
472 244 266 2329 0
8 -268 -372 2330 0
-11 59 1 2331 0
307 -2 -191 2332 0
-338 458 -374 2333 0
119 25 -45 2334 0
28 -32 -36 2335 0
85 -482 -459 2336 0
278 -35 460 2337 0
298 -108 452 2338 0
-407 -293 284 2339 0
373 313 -41 2340 0
-324 456 -68 2341 0
-352 -293 -44 2342 0
183 258 -492 2343 0
-270 -498 336 2344 0
-3 -395 -137 2345 0
-472 -25 455 2346 0
-330 -117 -200 2347 0
462 104 -358 2348 0
479 306 283 2349 0
476 -428 9 2350 0
66 49 -98 2351 0
-34 -156 -18 2352 0
154 383 320 2353 0
59 -31 -82 2354 0
241 353 155 2355 0
-265 -163 -406 2356 0
-70 90 -23 2357 0
-92 -69 -166 2358 0
452 474 -309 2359 0
-367 -18 400 2360 0
-173 -51 -183 2361 0
-329 -333 -274 2362 0
-380 43 -55 2363 0
-374 -353 427 2364 0
-52 -270 230 2365 0
-352 -387 181 2366 0
66 103 -338 2367 0
28 -413 -492 2368 0
-296 -323 328 2369 0
-82 -181 494 2370 0
-500 104 9 2371 0
375 -33 377 2372 0
-113 96 300 2373 0
-19 176 106 2374 0
-69 -104 293 2375 0
-453 162 88 2376 0
213 -97 170 2377 0
-161 -290 419 2378 0
291 -157 429 2379 0
-144 -402 388 2380 0
328 475 346 2381 0
-209 -466 -132 2382 0
394 -498 -336 2383 0
346 -12 316 2384 0
310 480 -457 2385 0
-92 442 -157 2386 0
324 -72 -343 2387 0
-311 276 -26 2388 0
-394 452 363 2389 0
-120 57 -74 2390 0
-420 -293 213 2391 0
-351 303 57 2392 0
-155 -305 -424 2393 0
-143 -475 474 2394 0
-453 183 -420 2395 0
-296 -198 403 2396 0
-40 225 155 2397 0
-453 138 4 2398 0
64 -101 125 2399 0
-356 -222 358 2400 0
-52 -402 -47 2401 0
395 231 -25 2402 0
494 -10 108 2403 0
109 -238 -83 2404 0
247 -16 197 2405 0
-279 -355 -498 2406 0
-436 430 11 2407 0
-210 7 33 2408 0
-128 374 -129 2409 0
157 -40 87 2410 0
-104 47 298 2411 0
278 -79 463 2412 0
-307 -425 333 2413 0
-349 480 -196 2414 0
113 301 118 2415 0
-139 306 106 2416 0
-141 -294 490 2417 0
429 -440 -289 2418 0
191 436 -48 2419 0
198 223 5 2420 0
-387 -57 -127 2421 0
-445 274 -463 2422 0
316 -353 -395 2423 0
-12 221 -331 2424 0
-162 -441 145 2425 0
-201 19 -148 2426 0
281 89 357 2427 0
-180 83 -59 2428 0
-290 472 -262 2429 0
-129 -455 292 2430 0
-474 -300 -444 2431 0
-484 -330 -7 2432 0
436 159 -72 2433 0
-291 392 -228 2434 0
-127 463 293 2435 0
364 -432 -496 2436 0
295 -381 -183 2437 0
-460 -163 455 2438 0
-26 -206 49 2439 0
227 79 48 2440 0
-74 332 414 2441 0
289 -269 -232 2442 0
277 -144 -261 2443 0
-429 478 -466 2444 0
468 38 -237 2445 0
372 -219 88 2446 0
-207 -460 -112 2447 0
-498 -331 239 2448 0
-332 -86 85 2449 0
313 -492 -323 2450 0
-202 -177 245 2451 0
-169 -411 -260 2452 0
41 412 220 2453 0
256 334 3 2454 0
202 482 -174 2455 0
95 416 -58 2456 0
36 178 -255 2457 0
-173 312 64 2458 0
-232 477 -359 2459 0
-373 -349 285 2460 0
-102 -213 -22 2461 0
-347 -340 -290 2462 0
475 40 169 2463 0
81 -467 231 2464 0
193 -488 -33 2465 0
-228 -106 270 2466 0
362 246 289 2467 0
-381 163 -39 2468 0
-13 -38 313 2469 0
-292 -62 296 2470 0
-336 471 316 2471 0
-478 430 169 2472 0
-198 -122 91 2473 0
186 -429 42 2474 0
-117 20 -26 2475 0
-124 -289 -500 2476 0
-45 -392 46 2477 0
158 277 418 2478 0
375 -466 40 2479 0
-260 -39 266 2480 0
-285 116 -93 2481 0
364 -433 -222 2482 0
194 -9 -221 2483 0
-285 369 -321 2484 0
-224 -351 193 2485 0
193 382 -481 2486 0
213 -164 -423 2487 0
-235 -281 -227 2488 0
463 430 167 2489 0
21 -319 418 2490 0
-60 257 -484 2491 0
-242 -329 -396 2492 0
185 -6 -406 2493 0
405 -247 434 2494 0
252 -156 -135 2495 0
-95 -278 -478 2496 0
-258 -358 -481 2497 0
-457 -398 339 2498 0
-211 284 165 2499 0
-8 -418 320 2500 0
71 42 139 2501 0
187 272 244 2502 0
-475 157 -29 2503 0
380 -403 259 2504 0
281 104 -120 2505 0
-168 -458 429 2506 0
-329 -462 190 2507 0
-257 -432 154 2508 0
-216 268 -356 2509 0
271 -42 -107 2510 0
-32 191 -88 2511 0
-125 -74 -254 2512 0
-470 -180 -222 2513 0
-226 -228 309 2514 0
213 202 96 2515 0
113 425 440 2516 0
-17 451 45 2517 0
-95 207 67 2518 0
331 300 -379 2519 0
-97 -137 -480 2520 0
-363 -369 -407 2521 0
-452 197 -381 2522 0
-24 73 130 2523 0
-332 -56 -429 2524 0
16 -266 236 2525 0
239 168 -34 2526 0
-57 68 -272 2527 0
291 -446 -328 2528 0
-121 -40 421 2529 0
-220 -52 453 2530 0
-95 -30 -139 2531 0
387 -225 125 2532 0
-109 -182 443 2533 0
459 -263 -248 2534 0
-318 -64 37 2535 0
-461 376 444 2536 0
4 -88 -74 2537 0
442 64 473 2538 0
234 324 56 2539 0
-169 132 -400 2540 0
137 -170 404 2541 0
325 431 -34 2542 0
-225 59 -188 2543 0
298 27 -440 2544 0
273 122 317 2545 0
-454 -352 105 2546 0
74 136 -272 2547 0
226 387 330 2548 0
-212 146 -318 2549 0
-103 -77 122 2550 0
-316 401 33 2551 0
387 120 199 2552 0
-487 72 332 2553 0
90 -93 -251 2554 0
8 312 -108 2555 0
148 143 -42 2556 0
-474 258 -79 2557 0
481 79 -259 2558 0
-55 -110 -392 2559 0
-93 421 190 2560 0
-166 136 154 2561 0
-231 -297 -121 2562 0
474 -324 -43 2563 0
156 -231 244 2564 0
-97 -71 9 2565 0
290 364 130 2566 0
-382 -225 146 2567 0
66 -379 -40 2568 0
-205 457 434 2569 0
-419 -264 -145 2570 0
457 -374 442 2571 0
100 319 139 2572 0
108 191 145 2573 0
95 -417 -381 2574 0
475 234 215 2575 0
433 177 -101 2576 0
-18 -402 329 2577 0
366 -58 -191 2578 0
204 -63 222 2579 0
26 -15 -205 2580 0
182 275 -393 2581 0
273 203 389 2582 0
-70 259 337 2583 0
263 -483 289 2584 0
234 438 344 2585 0
180 -261 49 2586 0
-422 348 233 2587 0
-353 -350 13 2588 0
277 -56 -297 2589 0
268 64 253 2590 0
41 77 18 2591 0
-147 -350 181 2592 0
138 103 402 2593 0
-400 -443 149 2594 0
-335 -177 -271 2595 0
491 -61 -365 2596 0
-228 -36 -381 2597 0
229 -271 -395 2598 0
77 480 -490 2599 0
450 -315 -303 2600 0
124 -368 -69 2601 0
-218 -27 -215 2602 0
-80 346 1 2603 0
282 -212 237 2604 0
-125 -11 -479 2605 0
311 378 -232 2606 0
405 -246 454 2607 0
-126 -207 -48 2608 0
306 -239 -228 2609 0
481 -300 -75 2610 0
171 406 -344 2611 0
-274 -242 -36 2612 0
-49 229 98 2613 0
465 -84 -361 2614 0
-115 48 -354 2615 0
3 -498 161 2616 0
402 -297 -495 2617 0
-466 359 151 2618 0
451 459 -96 2619 0
344 -370 425 2620 0
-318 183 -448 2621 0
243 -17 406 2622 0
-112 108 245 2623 0
439 350 -398 2624 0
386 -76 -256 2625 0
243 67 115 2626 0
-215 -204 433 2627 0
-142 -283 366 2628 0
5 79 443 2629 0
-498 3 216 2630 0
-39 330 -13 2631 0
-225 -412 354 2632 0
-226 305 86 2633 0
421 -414 318 2634 0
74 -131 217 2635 0
395 79 -315 2636 0
-282 -482 386 2637 0
240 -112 -438 2638 0
126 -194 -280 2639 0
231 -272 -346 2640 0
366 -202 61 2641 0
-53 133 -35 2642 0
427 215 178 2643 0
251 449 56 2644 0
469 -262 11 2645 0
-443 -214 468 2646 0
236 11 -179 2647 0
360 -298 168 2648 0
-245 431 238 2649 0
212 -182 -59 2650 0
