p cnf 2650 2150
398 380 -174 501 0
173 -189 -434 502 0
177 482 -362 503 0
-266 226 88 504 0
-246 31 282 505 0
385 -405 482 506 0
421 139 -321 507 0
192 -431 3 508 0
-411 -379 -483 509 0
-45 306 130 510 0
-490 -364 137 511 0
301 -46 -221 512 0
11 309 -151 513 0
439 488 248 514 0
479 42 154 515 0
-18 91 122 516 0
367 -396 142 517 0
-352 -183 -103 518 0
70 -482 410 519 0
36 -328 170 520 0
461 367 -2 521 0
18 345 -23 522 0
-183 -184 259 523 0
101 -384 -471 524 0
-351 159 409 525 0
-85 -76 -209 526 0
360 337 -20 527 0
-387 40 95 528 0
-132 476 -325 529 0
259 -222 -201 530 0
-241 257 -138 531 0
377 155 -276 532 0
-52 -140 353 533 0
-46 -242 -333 534 0
362 442 297 535 0
-300 -134 -409 536 0
318 -448 -239 537 0
-487 323 493 538 0
139 308 -294 539 0
476 -423 -416 540 0
211 -313 388 541 0
-370 322 -388 542 0
-500 -207 41 543 0
-281 -418 486 544 0
355 221 211 545 0
-445 -96 47 546 0
-72 423 389 547 0
-157 -212 140 548 0
-191 -244 -350 549 0
-75 -378 -418 550 0
-142 -235 -408 551 0
200 -47 99 552 0
-164 357 56 553 0
434 465 -438 554 0
327 -424 -273 555 0
41 86 493 556 0
-394 100 -16 557 0
333 152 462 558 0
-278 -137 -299 559 0
225 401 -461 560 0
34 -297 358 561 0
361 -112 -37 562 0
-180 -449 9 563 0
168 451 -355 564 0
156 233 -26 565 0
27 153 -341 566 0
-262 46 -427 567 0
-411 319 195 568 0
481 -489 185 569 0
-206 87 -84 570 0
212 -86 153 571 0
-284 -309 188 572 0
-193 -29 -258 573 0
74 -452 19 574 0
-443 138 -214 575 0
419 -138 395 576 0
56 -113 -212 577 0
-434 406 250 578 0
332 17 84 579 0
177 -179 17 580 0
97 318 -465 581 0
-301 287 413 582 0
-488 312 -155 583 0
-423 -355 -7 584 0
114 341 213 585 0
-32 265 -87 586 0
161 290 14 587 0
-474 -475 -297 588 0
117 325 -434 589 0
-458 368 -20 590 0
103 -322 -250 591 0
65 351 215 592 0
294 118 164 593 0
18 408 351 594 0
69 -393 401 595 0
95 170 -120 596 0
3 273 -1 597 0
342 -247 -363 598 0
-407 -55 -330 599 0
-5 -400 -415 600 0
50 -337 -158 601 0
-463 -28 281 602 0
249 -245 -252 603 0
-335 -438 405 604 0
-378 184 457 605 0
224 -321 376 606 0
405 -211 236 607 0
-69 381 434 608 0
-488 395 414 609 0
281 -409 402 610 0
-271 45 -419 611 0
266 -287 54 612 0
-74 -340 -497 613 0
-227 12 279 614 0
218 156 -257 615 0
-444 388 -237 616 0
-211 133 43 617 0
73 215 -275 618 0
-401 472 16 619 0
-216 -244 157 620 0
283 -357 483 621 0
359 -165 -14 622 0
328 7 -59 623 0
391 -306 285 624 0
-373 372 180 625 0
292 377 339 626 0
-281 -187 428 627 0
244 286 -368 628 0
246 331 -393 629 0
425 -270 -235 630 0
432 484 -283 631 0
159 278 -83 632 0
-122 426 3 633 0
-471 336 78 634 0
3 244 -489 635 0
-162 -120 -368 636 0
-260 351 -435 637 0
-411 496 -475 638 0
-369 163 408 639 0
448 349 -85 640 0
-492 434 109 641 0
-124 277 19 642 0
-160 -109 -459 643 0
-141 348 59 644 0
307 466 79 645 0
-495 -34 209 646 0
-103 -69 16 647 0
353 -269 496 648 0
-374 -413 24 649 0
116 52 287 650 0
280 489 -74 651 0
-27 -293 25 652 0
-135 -97 -90 653 0
-334 -498 254 654 0
-315 430 -494 655 0
-287 65 -28 656 0
-263 -281 -227 657 0
37 182 -323 658 0
393 133 227 659 0
416 -295 90 660 0
-399 151 -249 661 0
7 -78 59 662 0
-327 323 218 663 0
-348 -270 -465 664 0
-237 -422 497 665 0
88 286 -421 666 0
301 -3 -293 667 0
-232 -208 -110 668 0
194 -400 -369 669 0
-287 231 -105 670 0
-67 484 366 671 0
-460 -299 -345 672 0
364 -286 -332 673 0
398 -459 -435 674 0
-146 121 -88 675 0
-183 -42 -215 676 0
100 6 404 677 0
-344 -452 343 678 0
-144 -402 -118 679 0
472 192 -51 680 0
132 221 105 681 0
-220 -349 241 682 0
422 74 337 683 0
443 -17 349 684 0
-387 332 -376 685 0
185 -342 462 686 0
298 379 -145 687 0
227 483 320 688 0
499 39 -418 689 0
60 -440 182 690 0
-339 143 86 691 0
460 166 -434 692 0
168 465 -139 693 0
-46 -155 -446 694 0
107 397 -182 695 0
202 387 -171 696 0
-218 -73 -474 697 0
-1 -85 77 698 0
-263 27 -221 699 0
-106 378 229 700 0
307 195 34 701 0
284 440 323 702 0
12 238 -351 703 0
454 462 -165 704 0
-48 140 21 705 0
195 -438 376 706 0
-40 154 113 707 0
-186 -219 -416 708 0
127 -184 -68 709 0
-448 142 294 710 0
276 -437 468 711 0
194 319 -80 712 0
357 -53 -111 713 0
-149 290 227 714 0
332 -458 255 715 0
97 331 -128 716 0
169 -112 -486 717 0
474 185 -237 718 0
-326 42 469 719 0
-304 212 -342 720 0
352 149 423 721 0
-469 -135 -362 722 0
26 179 270 723 0
266 428 -11 724 0
-349 155 -311 725 0
-207 230 -44 726 0
139 -168 323 727 0
338 -201 -82 728 0
-38 -153 -301 729 0
149 -475 -24 730 0
338 416 74 731 0
-461 -187 -169 732 0
-48 -115 -374 733 0
227 -106 -232 734 0
488 -61 -479 735 0
-79 -492 -37 736 0
453 297 -291 737 0
-8 218 -435 738 0
-238 485 293 739 0
-211 -283 -367 740 0
-448 374 -124 741 0
-450 90 344 742 0
489 87 -372 743 0
-438 -128 -377 744 0
377 -339 318 745 0
-483 -284 -224 746 0
-304 -219 -24 747 0
-178 218 379 748 0
222 -209 -163 749 0
-193 -79 -473 750 0
391 153 291 751 0
303 -256 317 752 0
260 -21 339 753 0
-393 378 83 754 0
-420 -137 -7 755 0
257 401 12 756 0
12 338 137 757 0
-483 209 -24 758 0
442 105 -464 759 0
-261 47 -254 760 0
494 145 -200 761 0
223 284 -255 762 0
-366 -470 19 763 0
-130 143 200 764 0
-30 -341 -148 765 0
-71 298 -300 766 0
-386 -43 -206 767 0
408 477 -103 768 0
-380 490 220 769 0
110 -360 82 770 0
-56 -302 -498 771 0
369 420 -434 772 0
122 242 -459 773 0
-323 -169 241 774 0
-294 -410 145 775 0
-421 377 40 776 0
-254 -94 213 777 0
-203 220 -468 778 0
141 -142 147 779 0
86 45 235 780 0
-67 171 -404 781 0
461 -377 -198 782 0
-97 159 -52 783 0
-254 287 -188 784 0
244 229 117 785 0
343 -133 -72 786 0
389 -9 449 787 0
387 44 -338 788 0
393 -35 -291 789 0
-244 -37 -132 790 0
290 179 -435 791 0
-478 -198 248 792 0
-272 60 487 793 0
-122 43 -446 794 0
439 -363 337 795 0
132 -186 -166 796 0
99 -202 94 797 0
-402 480 248 798 0
-93 176 -143 799 0
178 -177 -44 800 0
-169 377 254 801 0
-374 1 371 802 0
-79 290 229 803 0
-225 388 -100 804 0
132 127 -170 805 0
-500 -278 -232 806 0
-232 352 57 807 0
-247 226 -211 808 0
386 450 477 809 0
370 -333 219 810 0
33 -238 26 811 0
-161 190 21 812 0
110 -327 -249 813 0
68 299 211 814 0
-424 -155 262 815 0
313 -105 228 816 0
-461 399 354 817 0
-93 394 471 818 0
-388 -196 207 819 0
-237 -297 -255 820 0
-222 -79 477 821 0
-21 223 -19 822 0
415 -19 367 823 0
131 -263 -18 824 0
-154 88 -344 825 0
-157 -182 -476 826 0
158 88 -105 827 0
-70 -399 -45 828 0
211 -47 199 829 0
-282 35 252 830 0
9 387 352 831 0
100 318 143 832 0
18 475 134 833 0
165 -306 -234 834 0
-115 244 -434 835 0
13 295 -377 836 0
-316 392 -330 837 0
-161 415 274 838 0
416 372 -197 839 0
68 -33 355 840 0
-167 15 471 841 0
448 -2 495 842 0
292 -98 -17 843 0
441 -498 -485 844 0
-380 -4 -36 845 0
368 49 80 846 0
-194 -201 -193 847 0
190 281 304 848 0
484 204 -392 849 0
358 -14 -471 850 0
93 -158 -13 851 0
233 317 378 852 0
472 260 471 853 0
-287 292 -415 854 0
-418 -190 -111 855 0
-254 354 -437 856 0
236 -448 -469 857 0
-190 -469 454 858 0
-376 224 244 859 0
141 469 -445 860 0
270 278 293 861 0
104 -88 -71 862 0
-427 -10 299 863 0
13 273 2 864 0
344 -177 474 865 0
60 -324 355 866 0
497 21 219 867 0
104 38 -269 868 0
-180 -29 -138 869 0
320 166 -465 870 0
-461 296 217 871 0
290 36 -425 872 0
-451 163 338 873 0
-494 229 -337 874 0
-305 395 322 875 0
379 193 302 876 0
-295 346 154 877 0
85 -200 -358 878 0
-133 405 233 879 0
132 -239 -283 880 0
-254 98 384 881 0
-490 -383 67 882 0
-124 74 -239 883 0
226 -455 273 884 0
-67 58 272 885 0
-218 59 -317 886 0
481 381 235 887 0
410 -417 177 888 0
115 -210 375 889 0
259 -89 -384 890 0
76 -140 -105 891 0
71 -232 -341 892 0
-477 -300 -34 893 0
-132 -213 -86 894 0
183 307 42 895 0
-396 -477 -143 896 0
-291 -328 284 897 0
-456 -439 -418 898 0
296 -436 -105 899 0
370 -500 499 900 0
169 162 -35 901 0
-294 -363 -314 902 0
-279 -356 190 903 0
56 -250 287 904 0
235 292 50 905 0
-294 496 -105 906 0
-484 -146 -171 907 0
426 -410 -229 908 0
-332 302 -101 909 0
-57 -448 -236 910 0
-285 391 -377 911 0
-84 -476 -16 912 0
486 -396 455 913 0
-175 447 -62 914 0
-115 197 433 915 0
370 306 -225 916 0
481 -312 155 917 0
55 1 266 918 0
-5 -52 -144 919 0
313 -378 219 920 0
-489 -297 -269 921 0
500 97 199 922 0
78 -109 -66 923 0
-80 -487 -158 924 0
400 33 -354 925 0
287 144 10 926 0
162 363 -239 927 0
-203 242 135 928 0
-184 -341 60 929 0
461 104 -458 930 0
-339 415 312 931 0
-177 22 -183 932 0
-286 -39 174 933 0
-115 -247 40 934 0
227 -152 90 935 0
-208 -221 -105 936 0
-74 -498 -222 937 0
-346 455 -365 938 0
-296 46 215 939 0
322 -242 473 940 0
-148 413 461 941 0
-346 -469 56 942 0
434 86 189 943 0
405 105 63 944 0
-408 -9 413 945 0
-102 -111 -142 946 0
-275 36 -353 947 0
241 464 -36 948 0
205 193 -346 949 0
194 -226 -213 950 0
-283 345 296 951 0
42 193 74 952 0
-22 -1 305 953 0
307 -182 -212 954 0
-465 357 -119 955 0
-328 -113 192 956 0
-274 -59 -317 957 0
-411 -387 -315 958 0
-247 -197 215 959 0
-256 -387 119 960 0
76 -402 -477 961 0
239 -467 86 962 0
208 445 70 963 0
371 -102 73 964 0
27 278 500 965 0
73 404 12 966 0
358 -76 -90 967 0
-168 145 119 968 0
-33 -387 -426 969 0
-364 -442 -285 970 0
52 -459 -420 971 0
-368 381 -230 972 0
-377 333 -403 973 0
-228 41 -10 974 0
-342 105 54 975 0
94 92 341 976 0
247 464 75 977 0
91 -188 -325 978 0
-61 -30 -193 979 0
-275 369 121 980 0
44 -193 76 981 0
219 -461 281 982 0
477 315 305 983 0
-213 -13 -293 984 0
294 244 -397 985 0
-448 19 269 986 0
386 10 -366 987 0
-85 20 -463 988 0
67 270 428 989 0
138 -318 -77 990 0
-423 -240 332 991 0
-9 367 -128 992 0
-362 112 450 993 0
-62 217 68 994 0
-497 302 205 995 0
-300 252 337 996 0
70 420 338 997 0
-489 -131 222 998 0
334 422 -239 999 0
-273 500 378 1000 0
324 394 234 1001 0
-165 93 -246 1002 0
224 -250 -385 1003 0
80 -226 210 1004 0
68 -34 448 1005 0
235 388 206 1006 0
78 -11 -96 1007 0
232 185 259 1008 0
355 8 1 1009 0
-96 80 -85 1010 0
265 310 186 1011 0
-396 329 -173 1012 0
467 318 344 1013 0
262 94 -201 1014 0
272 166 -185 1015 0
-121 333 431 1016 0
357 -447 -56 1017 0
-357 37 185 1018 0
13 92 -218 1019 0
-270 -106 -214 1020 0
135 -120 443 1021 0
194 -397 -345 1022 0
221 361 48 1023 0
-418 223 -64 1024 0
187 497 -207 1025 0
-305 -184 387 1026 0
-302 -366 -56 1027 0
-160 -488 -497 1028 0
-301 -271 -244 1029 0
-59 -490 -309 1030 0
-81 -146 -118 1031 0
416 -220 -287 1032 0
-445 490 156 1033 0
-481 -372 -156 1034 0
59 -20 -9 1035 0
-118 126 84 1036 0
-47 368 -408 1037 0
442 -448 -260 1038 0
129 -287 362 1039 0
441 -388 32 1040 0
-231 455 340 1041 0
-481 137 -74 1042 0
-346 477 -187 1043 0
-275 -439 436 1044 0
2 480 121 1045 0
156 -367 318 1046 0
273 -346 393 1047 0
-233 -458 97 1048 0
57 256 -241 1049 0
-256 -147 -12 1050 0
474 -101 60 1051 0
90 403 111 1052 0
-342 402 -466 1053 0
-247 90 153 1054 0
354 499 339 1055 0
-169 -358 186 1056 0
-100 123 -27 1057 0
485 -156 -152 1058 0
123 -77 -131 1059 0
138 -55 -365 1060 0
-480 -19 -169 1061 0
-4 258 122 1062 0
-38 240 171 1063 0
287 -359 -240 1064 0
170 160 15 1065 0
52 -409 404 1066 0
158 -232 -154 1067 0
-350 236 -9 1068 0
353 137 -131 1069 0
166 30 113 1070 0
189 -457 396 1071 0
308 -199 -411 1072 0
335 -443 94 1073 0
-306 293 -15 1074 0
-402 61 179 1075 0
-279 430 -245 1076 0
-337 96 -342 1077 0
-201 -182 261 1078 0
-333 -230 -24 1079 0
-378 -137 354 1080 0
426 2 -179 1081 0
-208 -224 -396 1082 0
167 -204 -394 1083 0
-438 -365 348 1084 0
401 178 -245 1085 0
60 261 292 1086 0
59 -328 384 1087 0
-37 172 12 1088 0
55 -295 457 1089 0
166 161 -494 1090 0
-52 104 211 1091 0
-489 -1 312 1092 0
2 199 -400 1093 0
-424 175 295 1094 0
-239 -469 -381 1095 0
-239 -271 474 1096 0
356 -102 464 1097 0
385 -137 -281 1098 0
333 303 -380 1099 0
-334 200 93 1100 0
-45 -388 453 1101 0
-88 432 228 1102 0
-297 175 -279 1103 0
-311 -499 107 1104 0
421 316 42 1105 0
224 85 -399 1106 0
-257 371 195 1107 0
-209 -52 134 1108 0
93 -191 348 1109 0
28 -102 -163 1110 0
-490 15 -171 1111 0
279 129 119 1112 0
377 -315 -226 1113 0
-50 -323 79 1114 0
-460 247 -424 1115 0
-477 -355 298 1116 0
432 -229 203 1117 0
-282 -372 -498 1118 0
425 -348 399 1119 0
89 143 -219 1120 0
-268 -459 83 1121 0
42 -413 -59 1122 0
-16 84 -201 1123 0
420 400 2 1124 0
355 359 -60 1125 0
99 314 267 1126 0
-328 97 456 1127 0
-255 212 301 1128 0
294 -74 8 1129 0
-8 -139 -80 1130 0
447 -331 -423 1131 0
273 55 87 1132 0
-237 -280 167 1133 0
61 -332 281 1134 0
-440 -255 373 1135 0
166 -113 202 1136 0
106 -20 -163 1137 0
-328 -287 219 1138 0
-209 -393 482 1139 0
355 -221 410 1140 0
-66 446 289 1141 0
440 -288 463 1142 0
-48 386 -339 1143 0
-368 477 -172 1144 0
-220 430 443 1145 0
-103 73 475 1146 0
70 155 108 1147 0
484 -406 278 1148 0
439 497 -441 1149 0
112 440 234 1150 0
-452 439 -367 1151 0
-351 423 65 1152 0
-203 -206 -301 1153 0
-338 -290 18 1154 0
459 48 -31 1155 0
-123 457 302 1156 0
381 -131 -473 1157 0
-292 464 -26 1158 0
-206 66 464 1159 0
-32 -59 -235 1160 0
380 147 -375 1161 0
-412 5 496 1162 0
143 482 212 1163 0
454 369 312 1164 0
273 443 -357 1165 0
-289 -483 45 1166 0
-292 -399 371 1167 0
-306 267 80 1168 0
-159 -379 17 1169 0
-283 211 44 1170 0
-318 -396 455 1171 0
39 -38 -225 1172 0
361 271 -275 1173 0
-120 -418 -404 1174 0
-353 48 -346 1175 0
264 440 96 1176 0
-471 -277 -12 1177 0
-382 307 15 1178 0
-60 412 464 1179 0
-142 377 151 1180 0
302 -40 -146 1181 0
-207 416 143 1182 0
108 219 -258 1183 0
267 314 -281 1184 0
-64 482 416 1185 0
-435 -116 53 1186 0
-37 -128 260 1187 0
-77 104 -101 1188 0
-255 19 261 1189 0
-458 127 204 1190 0
423 42 45 1191 0
6 -93 -480 1192 0
-445 380 -265 1193 0
288 -303 158 1194 0
-387 -244 -463 1195 0
262 -415 451 1196 0
74 35 -16 1197 0
370 223 -240 1198 0
248 -342 85 1199 0
229 228 -371 1200 0
431 67 138 1201 0
-468 -411 -107 1202 0
110 165 125 1203 0
273 163 -32 1204 0
376 254 168 1205 0
210 130 -483 1206 0
-53 -251 222 1207 0
-496 492 345 1208 0
-324 204 -240 1209 0
437 -8 289 1210 0
-288 -182 -107 1211 0
82 496 187 1212 0
-104 -130 266 1213 0
-238 -165 -257 1214 0
-427 -144 -370 1215 0
226 -247 -120 1216 0
-287 65 434 1217 0
-490 12 458 1218 0
-222 481 150 1219 0
-500 241 -261 1220 0
-39 -494 367 1221 0
-285 -35 435 1222 0
-442 119 -436 1223 0
44 292 91 1224 0
275 -151 -158 1225 0
152 38 223 1226 0
57 440 -272 1227 0
373 362 243 1228 0
-429 327 481 1229 0
109 -225 444 1230 0
-386 -252 496 1231 0
-442 -284 -303 1232 0
477 435 -444 1233 0
-84 -179 155 1234 0
-248 -79 -149 1235 0
308 -218 -290 1236 0
253 148 -487 1237 0
295 173 -112 1238 0
-500 458 141 1239 0
-476 2 29 1240 0
495 276 -200 1241 0
367 370 -425 1242 0
114 388 -351 1243 0
206 11 464 1244 0
-144 174 352 1245 0
-406 267 475 1246 0
-192 106 210 1247 0
-105 -113 -201 1248 0
-281 463 231 1249 0
342 -120 -446 1250 0
-125 -322 64 1251 0
93 -216 -390 1252 0
179 -288 -91 1253 0
418 -489 -52 1254 0
-416 81 91 1255 0
117 -403 145 1256 0
-404 -347 243 1257 0
-321 -324 -2 1258 0
-215 -476 -304 1259 0
-33 360 372 1260 0
-101 -129 296 1261 0
-157 40 -334 1262 0
-245 429 437 1263 0
245 -398 347 1264 0
-34 -92 -126 1265 0
328 -300 459 1266 0
193 -354 -54 1267 0
-271 232 -122 1268 0
375 -51 -192 1269 0
279 312 238 1270 0
72 -350 266 1271 0
297 73 382 1272 0
-197 67 281 1273 0
238 -216 126 1274 0
184 469 141 1275 0
392 253 -99 1276 0
129 76 -434 1277 0
243 212 -10 1278 0
-279 -119 -341 1279 0
-288 441 5 1280 0
-354 -405 -61 1281 0
-70 358 431 1282 0
193 -312 -179 1283 0
429 -404 243 1284 0
55 106 476 1285 0
-262 -319 72 1286 0
466 82 366 1287 0
-139 -486 -225 1288 0
-423 -410 160 1289 0
254 -166 -306 1290 0
468 -8 181 1291 0
285 93 191 1292 0
492 286 355 1293 0
-28 260 290 1294 0
446 -359 -141 1295 0
-375 -397 270 1296 0
-32 -258 129 1297 0
-79 176 45 1298 0
-458 71 490 1299 0
-451 -340 450 1300 0
-1 348 362 1301 0
-359 -388 -291 1302 0
-205 188 215 1303 0
283 -312 -251 1304 0
-51 126 -101 1305 0
40 -168 298 1306 0
-344 99 -289 1307 0
-100 260 -117 1308 0
-284 -485 -103 1309 0
-449 -189 366 1310 0
-454 335 -393 1311 0
-267 136 282 1312 0
346 -137 239 1313 0
77 199 31 1314 0
-460 -124 169 1315 0
-67 408 -483 1316 0
249 -184 -275 1317 0
439 -221 400 1318 0
387 301 -250 1319 0
16 153 256 1320 0
356 281 270 1321 0
-372 323 -226 1322 0
29 53 -324 1323 0
-424 356 -139 1324 0
-322 -94 15 1325 0
-402 -11 209 1326 0
-248 15 364 1327 0
477 176 149 1328 0
320 -477 167 1329 0
-75 171 -386 1330 0
-80 482 458 1331 0
-107 63 -355 1332 0
168 430 249 1333 0
-20 473 270 1334 0
449 -256 -194 1335 0
-439 57 382 1336 0
-206 -410 -168 1337 0
77 -102 -10 1338 0
-320 -340 406 1339 0
-430 78 230 1340 0
228 356 272 1341 0
-345 290 -105 1342 0
-329 350 -87 1343 0
-195 292 -212 1344 0
-93 -125 312 1345 0
-434 -293 -410 1346 0
-28 69 -178 1347 0
-106 -454 -139 1348 0
220 498 -126 1349 0
95 17 -156 1350 0
259 76 -465 1351 0
212 -165 -179 1352 0
-485 36 -225 1353 0
282 -72 -8 1354 0
377 -334 -58 1355 0
-392 -265 -72 1356 0
-218 359 424 1357 0
345 141 318 1358 0
438 29 -43 1359 0
438 397 -122 1360 0
-217 32 -15 1361 0
307 -456 427 1362 0
-73 107 -198 1363 0
234 463 -319 1364 0
174 -292 63 1365 0
311 -420 -465 1366 0
140 -259 -334 1367 0
-175 -378 385 1368 0
-215 35 -500 1369 0
-259 284 -427 1370 0
-366 498 18 1371 0
-118 -5 -124 1372 0
-403 -253 30 1373 0
-30 -4 -449 1374 0
251 -110 -336 1375 0
68 431 -33 1376 0
-108 479 -97 1377 0
-85 -95 487 1378 0
-30 394 401 1379 0
-87 497 61 1380 0
238 37 -420 1381 0
-495 210 -144 1382 0
-466 -471 123 1383 0
355 -249 -331 1384 0
453 182 -318 1385 0
471 56 -174 1386 0
499 -7 -67 1387 0
-77 140 -321 1388 0
247 -399 18 1389 0
148 22 -297 1390 0
-87 -324 225 1391 0
371 454 215 1392 0
383 204 235 1393 0
-439 430 -158 1394 0
29 90 19 1395 0
383 -13 203 1396 0
-382 -304 -496 1397 0
-218 495 -202 1398 0
-305 423 479 1399 0
-247 -426 15 1400 0
96 -484 378 1401 0
50 229 182 1402 0
174 -271 370 1403 0
-59 389 243 1404 0
-230 425 -390 1405 0
145 -225 218 1406 0
9 -141 -429 1407 0
-161 -112 473 1408 0
124 -448 -439 1409 0
153 372 416 1410 0
-77 -143 136 1411 0
376 -206 -48 1412 0
253 84 48 1413 0
499 -160 143 1414 0
-259 325 -87 1415 0
-168 -229 -53 1416 0
-179 -65 420 1417 0
249 59 -225 1418 0
212 -390 207 1419 0
-152 282 -57 1420 0
-241 33 50 1421 0
-193 256 264 1422 0
-210 -228 159 1423 0
348 9 45 1424 0
315 78 -112 1425 0
490 -369 -131 1426 0
467 -244 -461 1427 0
-178 -112 -308 1428 0
-420 -283 -201 1429 0
30 -292 -400 1430 0
-474 411 38 1431 0
258 -122 496 1432 0
184 -43 265 1433 0
-135 -498 436 1434 0
-14 -60 426 1435 0
161 100 -81 1436 0
-488 244 -65 1437 0
-28 -70 -302 1438 0
39 -360 487 1439 0
338 -389 447 1440 0
117 162 47 1441 0
-220 -450 87 1442 0
158 496 60 1443 0
-373 42 412 1444 0
-101 -3 372 1445 0
134 480 76 1446 0
-196 -364 -177 1447 0
-61 59 -8 1448 0
244 78 -339 1449 0
-428 150 -313 1450 0
426 -330 221 1451 0
-77 386 -490 1452 0
-2 -230 -94 1453 0
407 -439 -41 1454 0
-56 -356 -394 1455 0
281 -463 -97 1456 0
-372 -310 394 1457 0
-427 417 -444 1458 0
290 -126 207 1459 0
18 -451 -10 1460 0
123 78 -73 1461 0
-5 279 -362 1462 0
159 286 -417 1463 0
183 -240 93 1464 0
171 91 135 1465 0
-279 347 -245 1466 0
178 -59 226 1467 0
-425 -303 343 1468 0
261 -470 -312 1469 0
478 426 -474 1470 0
158 401 -135 1471 0
-192 -97 -327 1472 0
-156 298 427 1473 0
-49 -8 -241 1474 0
76 455 -481 1475 0
-168 -194 30 1476 0
457 -260 232 1477 0
-181 34 246 1478 0
-255 289 -36 1479 0
-369 -363 176 1480 0
-153 11 254 1481 0
-279 305 133 1482 0
477 367 -280 1483 0
-368 -345 -479 1484 0
-240 -255 -85 1485 0
276 -437 315 1486 0
337 -21 80 1487 0
101 19 103 1488 0
341 434 -337 1489 0
63 -457 12 1490 0
50 -377 -247 1491 0
364 321 3 1492 0
-157 -163 270 1493 0
146 -465 312 1494 0
152 -200 -404 1495 0
309 -19 468 1496 0
-279 425 -457 1497 0
297 -113 164 1498 0
228 -498 -309 1499 0
-498 -84 343 1500 0
-246 189 147 1501 0
-456 264 -211 1502 0
379 -143 77 1503 0
-100 40 311 1504 0
-392 386 74 1505 0
-200 -447 -152 1506 0
74 -310 -329 1507 0
451 249 87 1508 0
473 69 -261 1509 0
-28 42 438 1510 0
93 -99 97 1511 0
214 149 390 1512 0
161 -374 -13 1513 0
235 -47 87 1514 0
332 379 -363 1515 0
-120 -260 18 1516 0
103 276 209 1517 0
-132 -490 360 1518 0
108 449 103 1519 0
-286 287 168 1520 0
-219 149 26 1521 0
399 265 -453 1522 0
-81 246 -236 1523 0
-111 -474 453 1524 0
10 454 305 1525 0
-171 -210 89 1526 0
-268 229 -278 1527 0
-324 -291 59 1528 0
-111 127 -386 1529 0
139 343 51 1530 0
127 351 -25 1531 0
-244 310 -497 1532 0
401 -273 -236 1533 0
161 -238 -481 1534 0
-19 169 -184 1535 0
131 -348 -275 1536 0
170 336 -198 1537 0
-120 -413 -130 1538 0
10 488 93 1539 0
-386 -181 327 1540 0
-18 185 -162 1541 0
-99 -318 374 1542 0
379 454 203 1543 0
-383 487 -271 1544 0
-165 -316 -227 1545 0
-104 -182 -291 1546 0
-395 448 -166 1547 0
409 471 -429 1548 0
-418 259 -137 1549 0
243 185 -377 1550 0
348 -475 479 1551 0
-190 496 410 1552 0
235 -320 -104 1553 0
86 -425 -208 1554 0
401 -133 388 1555 0
247 228 394 1556 0
-226 -455 194 1557 0
-236 -115 282 1558 0
121 274 73 1559 0
-366 39 371 1560 0
263 412 -191 1561 0
3 28 187 1562 0
-23 -217 -112 1563 0
-156 74 -241 1564 0
244 237 53 1565 0
-486 471 418 1566 0
335 -448 -377 1567 0
9 -478 323 1568 0
-228 439 -227 1569 0
-270 158 447 1570 0
-186 -399 167 1571 0
-199 104 -138 1572 0
-297 -247 466 1573 0
-438 108 -173 1574 0
-106 -20 -2 1575 0
172 248 -272 1576 0
-241 435 -85 1577 0
-76 -480 305 1578 0
460 398 -9 1579 0
103 -45 -259 1580 0
-418 21 -133 1581 0
27 -280 224 1582 0
267 -360 -205 1583 0
291 -207 234 1584 0
56 -203 390 1585 0
-210 -259 -408 1586 0
-137 184 -202 1587 0
-97 -469 -166 1588 0
417 397 -197 1589 0
196 -299 124 1590 0
203 355 -192 1591 0
-165 281 455 1592 0
-488 -391 -440 1593 0
237 116 176 1594 0
-210 -307 430 1595 0
-245 -302 92 1596 0
138 74 -315 1597 0
-500 -332 132 1598 0
393 37 -486 1599 0
-233 -135 -107 1600 0
32 -488 -438 1601 0
80 446 -41 1602 0
384 170 229 1603 0
68 -66 -234 1604 0
-346 136 278 1605 0
369 -68 -365 1606 0
282 329 -238 1607 0
-352 -466 -469 1608 0
-195 98 -61 1609 0
296 256 -324 1610 0
-325 -130 -15 1611 0
-128 -323 123 1612 0
-447 355 163 1613 0
187 -181 414 1614 0
-368 -211 -190 1615 0
-146 474 118 1616 0
-305 419 109 1617 0
117 -405 -202 1618 0
233 -368 101 1619 0
-287 -235 -486 1620 0
-404 -249 -125 1621 0
357 151 -227 1622 0
280 422 163 1623 0
-169 -205 -350 1624 0
-175 -59 431 1625 0
-350 292 256 1626 0
403 242 267 1627 0
138 74 -163 1628 0
170 411 419 1629 0
169 434 -16 1630 0
-68 215 317 1631 0
289 -144 392 1632 0
485 -338 214 1633 0
70 -452 23 1634 0
-429 237 -50 1635 0
-302 247 21 1636 0
-12 -3 -285 1637 0
449 167 -153 1638 0
-434 262 384 1639 0
369 205 344 1640 0
83 400 488 1641 0
81 -229 221 1642 0
-132 233 -464 1643 0
483 310 -149 1644 0
218 -166 -23 1645 0
-15 -177 -379 1646 0
288 -211 -9 1647 0
-321 -259 157 1648 0
-355 -382 187 1649 0
-216 389 259 1650 0
-221 -447 -245 1651 0
62 488 -457 1652 0
9 202 166 1653 0
457 -138 270 1654 0
493 110 -44 1655 0
-132 88 -198 1656 0
-114 257 -280 1657 0
108 -111 8 1658 0
145 -370 -193 1659 0
148 -431 426 1660 0
-349 451 94 1661 0
229 343 345 1662 0
269 -283 46 1663 0
185 -443 350 1664 0
235 7 -112 1665 0
-21 196 330 1666 0
-318 -469 -222 1667 0
174 73 415 1668 0
-487 -294 404 1669 0
-154 162 352 1670 0
395 -144 180 1671 0
-489 -187 -423 1672 0
481 -373 -367 1673 0
165 -86 -456 1674 0
-357 -487 305 1675 0
457 -285 52 1676 0
-203 71 -159 1677 0
-71 41 -206 1678 0
337 -44 242 1679 0
-409 -132 -253 1680 0
-409 220 -446 1681 0
-67 437 123 1682 0
171 438 249 1683 0
190 444 -151 1684 0
4 -494 266 1685 0
323 464 -446 1686 0
238 -117 98 1687 0
-417 223 -168 1688 0
276 -406 -346 1689 0
431 -219 398 1690 0
-489 399 73 1691 0
-148 88 129 1692 0
114 -223 -287 1693 0
-416 -8 332 1694 0
-415 322 -116 1695 0
161 87 19 1696 0
412 -307 -259 1697 0
133 467 -307 1698 0
47 358 117 1699 0
350 497 -109 1700 0
-329 170 391 1701 0
-441 200 457 1702 0
-12 -184 -99 1703 0
-16 -246 278 1704 0
-237 -466 124 1705 0
218 -26 -420 1706 0
-223 3 -47 1707 0
283 -360 -433 1708 0
80 -416 -213 1709 0
139 -446 -412 1710 0
-299 409 75 1711 0
137 421 -374 1712 0
406 140 -236 1713 0
128 -292 258 1714 0
398 -22 111 1715 0
-257 -455 -237 1716 0
333 291 197 1717 0
315 77 -215 1718 0
-424 -102 -163 1719 0
-469 -189 61 1720 0
391 31 109 1721 0
-291 -450 485 1722 0
-71 320 374 1723 0
-318 -303 200 1724 0
212 481 293 1725 0
-460 -288 451 1726 0
75 3 -375 1727 0
392 -172 -185 1728 0
-401 470 -179 1729 0
-36 421 365 1730 0
-154 40 317 1731 0
432 -379 -303 1732 0
-158 -215 -346 1733 0
47 415 -489 1734 0
218 -154 282 1735 0
4 351 -242 1736 0
49 -396 -15 1737 0
-76 -471 499 1738 0
-407 456 93 1739 0
7 5 -442 1740 0
415 -272 51 1741 0
-60 259 -275 1742 0
246 -227 -286 1743 0
77 -37 287 1744 0
-240 69 278 1745 0
332 203 -214 1746 0
388 -201 -199 1747 0
218 -313 349 1748 0
362 97 -233 1749 0
-214 93 -131 1750 0
139 -206 377 1751 0
436 -304 -44 1752 0
91 444 -373 1753 0
228 -480 -489 1754 0
305 94 424 1755 0
153 259 168 1756 0
-267 385 -224 1757 0
82 460 -356 1758 0
383 497 328 1759 0
110 252 434 1760 0
-190 329 -83 1761 0
460 -134 36 1762 0
455 32 -257 1763 0
34 292 -381 1764 0
-163 186 -232 1765 0
78 384 -383 1766 0
126 -462 -251 1767 0
33 -207 -425 1768 0
-93 -245 -351 1769 0
-288 313 97 1770 0
211 221 255 1771 0
294 -57 181 1772 0
436 224 424 1773 0
-448 409 354 1774 0
-421 -489 -110 1775 0
443 -463 -457 1776 0
-308 -438 33 1777 0
215 375 61 1778 0
82 -171 -70 1779 0
-69 -441 -341 1780 0
-160 373 -415 1781 0
441 210 -280 1782 0
49 26 -177 1783 0
253 419 294 1784 0
271 446 92 1785 0
223 490 -288 1786 0
-213 309 136 1787 0
-184 7 -1 1788 0
-53 418 172 1789 0
-207 15 64 1790 0
-375 -25 -37 1791 0
-353 286 -436 1792 0
-76 234 190 1793 0
126 44 -206 1794 0
413 49 408 1795 0
330 161 -445 1796 0
-201 207 304 1797 0
-191 -398 185 1798 0
39 448 -186 1799 0
-35 110 -324 1800 0
-44 30 470 1801 0
-179 102 68 1802 0
62 -372 188 1803 0
-415 -445 135 1804 0
452 -419 23 1805 0
448 -318 -347 1806 0
-74 285 493 1807 0
65 -289 57 1808 0
-22 453 12 1809 0
-471 277 -7 1810 0
248 -197 -97 1811 0
68 -317 33 1812 0
38 60 -490 1813 0
-156 -348 500 1814 0
496 -274 -123 1815 0
288 100 -398 1816 0
284 -139 -229 1817 0
20 -151 -295 1818 0
213 -207 -247 1819 0
-333 487 245 1820 0
-122 -6 75 1821 0
-309 328 93 1822 0
226 -388 445 1823 0
209 -441 350 1824 0
427 471 -381 1825 0
396 118 -141 1826 0
11 -203 -403 1827 0
166 -460 229 1828 0
366 -161 342 1829 0
-499 -80 274 1830 0
91 -206 413 1831 0
-53 107 40 1832 0
-147 374 324 1833 0
-470 191 381 1834 0
89 -447 -65 1835 0
437 -197 18 1836 0
250 270 -258 1837 0
289 -357 -80 1838 0
-63 -495 -330 1839 0
-67 311 134 1840 0
-410 114 -429 1841 0
-152 -114 172 1842 0
-410 38 247 1843 0
7 437 215 1844 0
-239 90 354 1845 0
91 -25 -313 1846 0
-487 391 127 1847 0
-236 464 -416 1848 0
-400 -172 -281 1849 0
-411 31 -365 1850 0
353 -168 490 1851 0
328 -209 -256 1852 0
170 -288 -250 1853 0
-116 397 149 1854 0
-81 304 68 1855 0
457 290 -314 1856 0
-95 219 275 1857 0
-270 -186 -302 1858 0
-167 -191 -234 1859 0
113 -79 -161 1860 0
-226 -80 -491 1861 0
242 364 109 1862 0
268 394 13 1863 0
208 370 -428 1864 0
345 -316 340 1865 0
-400 241 405 1866 0
-40 472 334 1867 0
-487 138 464 1868 0
178 170 -89 1869 0
-193 -95 -384 1870 0
39 -291 405 1871 0
-109 278 -171 1872 0
-264 -337 234 1873 0
-434 437 -477 1874 0
-191 20 -16 1875 0
-127 -82 488 1876 0
83 -465 -433 1877 0
306 -40 154 1878 0
-108 467 199 1879 0
-52 16 -67 1880 0
50 -239 -328 1881 0
388 290 284 1882 0
-325 -368 -60 1883 0
500 355 -362 1884 0
480 -441 181 1885 0
410 -175 120 1886 0
-249 344 -235 1887 0
-368 102 137 1888 0
118 -17 412 1889 0
30 -7 -269 1890 0
-268 -337 -254 1891 0
-108 -168 127 1892 0
167 -189 -430 1893 0
463 -500 -404 1894 0
97 -209 -393 1895 0
-329 -385 -421 1896 0
-150 134 463 1897 0
-447 -246 291 1898 0
435 -183 174 1899 0
-258 -158 -145 1900 0
155 247 377 1901 0
-354 490 92 1902 0
-406 -168 -460 1903 0
-258 -405 -370 1904 0
-379 444 261 1905 0
362 -361 402 1906 0
399 -414 -479 1907 0
120 -203 -47 1908 0
-149 351 378 1909 0
-345 -452 30 1910 0
58 495 77 1911 0
-469 -370 364 1912 0
-423 -392 90 1913 0
119 24 -1 1914 0
273 475 65 1915 0
250 -330 -12 1916 0
-77 365 73 1917 0
-201 318 -304 1918 0
373 480 -435 1919 0
311 413 -432 1920 0
-315 92 -257 1921 0
-345 -42 -328 1922 0
133 -424 276 1923 0
-414 -15 -361 1924 0
494 -323 -160 1925 0
-333 -362 318 1926 0
-260 -265 -109 1927 0
72 252 -435 1928 0
266 169 389 1929 0
324 -342 174 1930 0
379 1 -364 1931 0
466 -443 490 1932 0
429 356 342 1933 0
147 398 -416 1934 0
-429 -149 -169 1935 0
-460 379 -200 1936 0
124 305 391 1937 0
-22 380 -399 1938 0
185 -256 -460 1939 0
277 404 -67 1940 0
-229 63 144 1941 0
271 108 -153 1942 0
146 476 403 1943 0
-239 -234 -262 1944 0
-497 -233 167 1945 0
-42 26 -450 1946 0
398 -388 -46 1947 0
-53 -332 -460 1948 0
-255 -366 -59 1949 0
252 -196 -338 1950 0
-173 -370 489 1951 0
164 465 476 1952 0
-492 395 -37 1953 0
389 394 353 1954 0
384 49 418 1955 0
315 -323 -209 1956 0
42 170 -243 1957 0
24 328 -445 1958 0
437 -355 86 1959 0
460 -269 56 1960 0
400 -277 236 1961 0
-486 -436 -204 1962 0
-444 66 -315 1963 0
146 -321 203 1964 0
-88 284 213 1965 0
-56 203 459 1966 0
-277 479 -225 1967 0
177 -483 -349 1968 0
-236 2 -291 1969 0
-24 37 -198 1970 0
364 341 266 1971 0
311 394 -190 1972 0
325 -166 77 1973 0
378 -492 82 1974 0
-239 -248 -217 1975 0
59 277 -102 1976 0
90 -224 149 1977 0
-315 -254 136 1978 0
249 -295 244 1979 0
122 -222 -42 1980 0
-36 270 477 1981 0
-137 -200 -159 1982 0
344 17 232 1983 0
208 363 -207 1984 0
-123 -482 480 1985 0
330 -167 489 1986 0
189 -315 -475 1987 0
423 410 318 1988 0
133 -63 -366 1989 0
-417 -470 -349 1990 0
-298 -42 -356 1991 0
-225 -490 -146 1992 0
374 -442 203 1993 0
396 -187 51 1994 0
496 321 -413 1995 0
436 480 -109 1996 0
-211 -257 331 1997 0
142 -214 433 1998 0
432 315 -390 1999 0
-126 -239 231 2000 0
105 -229 -480 2001 0
458 151 392 2002 0
-498 76 86 2003 0
186 -345 281 2004 0
91 -145 3 2005 0
22 -353 285 2006 0
-99 -442 -81 2007 0
-193 -278 440 2008 0
-44 292 110 2009 0
140 243 432 2010 0
-461 -58 412 2011 0
-349 253 -149 2012 0
-313 -466 -162 2013 0
-196 203 378 2014 0
229 60 347 2015 0
-244 406 134 2016 0
-117 11 -293 2017 0
491 -355 -178 2018 0
-423 371 38 2019 0
37 427 4 2020 0
156 122 81 2021 0
207 456 212 2022 0
-182 -335 107 2023 0
-26 500 -6 2024 0
-167 -483 -224 2025 0
301 -128 -295 2026 0
-477 -301 -255 2027 0
106 -165 351 2028 0
-354 -157 -36 2029 0
-341 -384 -175 2030 0
134 433 88 2031 0
131 -358 371 2032 0
51 299 32 2033 0
-395 -20 -474 2034 0
228 -114 -23 2035 0
-51 30 176 2036 0
-130 333 -360 2037 0
192 127 137 2038 0
286 -145 -115 2039 0
-256 -20 -37 2040 0
100 329 -480 2041 0
396 -427 -275 2042 0
-340 -240 -301 2043 0
259 -369 -64 2044 0
477 70 336 2045 0
-305 -482 283 2046 0
259 -65 316 2047 0
213 230 -36 2048 0
120 -126 -418 2049 0
-378 80 415 2050 0
-112 -26 175 2051 0
473 379 126 2052 0
-344 469 187 2053 0
-244 182 -250 2054 0
-208 -277 -52 2055 0
225 -241 208 2056 0
-179 -424 62 2057 0
147 -156 221 2058 0
-469 318 66 2059 0
-365 -389 433 2060 0
124 -167 -257 2061 0
-286 257 -320 2062 0
434 263 -416 2063 0
-246 -382 -59 2064 0
-182 153 -207 2065 0
125 496 -132 2066 0
148 -91 -136 2067 0
-133 313 192 2068 0
476 235 -387 2069 0
-447 -242 -490 2070 0
-269 392 -314 2071 0
-466 241 -238 2072 0
385 -307 -79 2073 0
-204 424 163 2074 0
362 -27 143 2075 0
104 -307 235 2076 0
151 300 24 2077 0
-82 211 324 2078 0
-71 -311 151 2079 0
-276 -331 118 2080 0
-246 -198 -243 2081 0
-139 -230 251 2082 0
-312 439 -317 2083 0
56 -88 265 2084 0
-250 -115 -203 2085 0
-452 370 287 2086 0
300 -250 -372 2087 0
38 343 -470 2088 0
-15 318 -273 2089 0
-27 -302 322 2090 0
-270 -207 -273 2091 0
64 123 237 2092 0
427 464 -58 2093 0
288 -277 -54 2094 0
-254 -306 230 2095 0
43 208 275 2096 0
-369 -289 -116 2097 0
137 -202 -478 2098 0
90 499 48 2099 0
72 -202 -492 2100 0
101 201 240 2101 0
385 -312 122 2102 0
-217 334 -195 2103 0
54 -456 -288 2104 0
-335 414 192 2105 0
218 408 -44 2106 0
451 -419 -274 2107 0
-85 -40 456 2108 0
-411 -210 110 2109 0
-30 286 -213 2110 0
229 -449 450 2111 0
233 7 -327 2112 0
-286 -79 -393 2113 0
94 142 167 2114 0
210 -458 -276 2115 0
-65 443 -413 2116 0
-17 -466 -454 2117 0
339 228 12 2118 0
477 495 -221 2119 0
431 -450 261 2120 0
309 341 418 2121 0
383 -150 -130 2122 0
70 -58 -182 2123 0
-444 302 -216 2124 0
-471 -420 125 2125 0
73 -339 -124 2126 0
113 458 -55 2127 0
138 1 126 2128 0
384 270 -315 2129 0
382 -436 217 2130 0
178 171 181 2131 0
166 -294 481 2132 0
180 -479 184 2133 0
480 253 -404 2134 0
-451 -419 -69 2135 0
219 376 -364 2136 0
178 -158 -151 2137 0
368 -439 159 2138 0
69 98 455 2139 0
373 100 -443 2140 0
349 35 257 2141 0
-157 151 211 2142 0
67 90 242 2143 0
-461 284 191 2144 0
70 492 431 2145 0
252 -149 -493 2146 0
191 -267 -93 2147 0
-415 -73 -85 2148 0
159 -208 297 2149 0
-114 -435 390 2150 0
-292 -208 -488 2151 0
279 -107 -341 2152 0
197 416 388 2153 0
309 -96 202 2154 0
-283 -201 263 2155 0
-354 115 -139 2156 0
189 452 222 2157 0
245 -258 463 2158 0
31 -278 17 2159 0
243 -280 252 2160 0
-134 190 -123 2161 0
-206 -192 -309 2162 0
476 207 406 2163 0
80 129 -4 2164 0
423 160 223 2165 0
18 10 -387 2166 0
-388 -306 410 2167 0
490 55 -137 2168 0
-360 -375 144 2169 0
-115 -39 332 2170 0
306 152 -16 2171 0
-221 -72 -406 2172 0
-496 86 -465 2173 0
-98 166 -81 2174 0
-48 -380 -448 2175 0
103 -355 81 2176 0
-162 -2 -474 2177 0
399 -322 149 2178 0
478 270 -93 2179 0
-321 207 231 2180 0
-67 139 408 2181 0
53 96 52 2182 0
-91 481 249 2183 0
-194 -199 34 2184 0
296 383 241 2185 0
-420 -460 326 2186 0
271 -443 183 2187 0
474 -496 348 2188 0
491 261 212 2189 0
248 113 -104 2190 0
357 388 -359 2191 0
483 107 213 2192 0
-344 -64 -429 2193 0
-15 312 237 2194 0
365 -444 -309 2195 0
240 262 -243 2196 0
193 98 -228 2197 0
-480 -11 186 2198 0
-105 393 -351 2199 0
51 309 226 2200 0
-308 -352 344 2201 0
-268 212 -477 2202 0
-113 252 350 2203 0
52 370 -155 2204 0
131 465 314 2205 0
224 -146 347 2206 0
-453 354 -206 2207 0
-401 442 339 2208 0
-489 19 -102 2209 0
-476 -329 127 2210 0
-237 -132 -289 2211 0
-145 -314 438 2212 0
217 -206 -126 2213 0
204 346 288 2214 0
-67 101 314 2215 0
86 38 -270 2216 0
249 125 145 2217 0
167 -393 -143 2218 0
-216 -182 17 2219 0
358 -240 -382 2220 0
-6 -332 -496 2221 0
-312 -226 3 2222 0
292 368 474 2223 0
-41 125 263 2224 0
49 422 108 2225 0
237 -310 -28 2226 0
-385 36 -127 2227 0
-294 -403 -222 2228 0
-102 -25 -270 2229 0
250 -70 -160 2230 0
156 163 -62 2231 0
-229 -342 225 2232 0
459 -308 -34 2233 0
31 -21 -193 2234 0
160 452 -262 2235 0
494 -418 40 2236 0
181 193 -2 2237 0
460 3 283 2238 0
416 -374 -307 2239 0
-39 -312 87 2240 0
446 185 -107 2241 0
163 317 84 2242 0
53 -432 -370 2243 0
181 200 251 2244 0
-192 -499 79 2245 0
116 347 359 2246 0
-115 -32 366 2247 0
155 52 489 2248 0
-4 -312 139 2249 0
418 -267 48 2250 0
212 -266 -41 2251 0
-218 -412 -323 2252 0
-321 298 -343 2253 0
176 407 62 2254 0
138 206 209 2255 0
-277 -250 54 2256 0
-417 -335 -476 2257 0
172 190 111 2258 0
283 474 -432 2259 0
-173 -416 314 2260 0
146 -377 -141 2261 0
-128 -451 168 2262 0
-397 -144 -481 2263 0
-286 434 -395 2264 0
-113 487 -219 2265 0
24 60 426 2266 0
-481 431 -443 2267 0
-374 -103 -42 2268 0
198 -33 -414 2269 0
78 -296 -234 2270 0
337 -491 -95 2271 0
213 481 172 2272 0
393 220 -122 2273 0
203 -26 -152 2274 0
251 176 -11 2275 0
358 252 -352 2276 0
377 128 -183 2277 0
76 260 123 2278 0
427 393 -79 2279 0
-16 -443 -438 2280 0
-442 67 115 2281 0
19 269 -217 2282 0
-23 87 36 2283 0
5 -147 -199 2284 0
30 -248 -50 2285 0
-126 -5 482 2286 0
132 220 -261 2287 0
-448 232 -274 2288 0
-141 -436 -491 2289 0
292 367 44 2290 0
-403 481 106 2291 0
-474 114 304 2292 0
-483 430 -136 2293 0
-41 -236 347 2294 0
-218 405 401 2295 0
316 -423 -187 2296 0
-320 -230 -222 2297 0
-191 311 -378 2298 0
372 379 -406 2299 0
105 381 343 2300 0
-347 357 -422 2301 0
-316 379 -45 2302 0
243 -405 -212 2303 0
103 -477 -249 2304 0
-162 15 -462 2305 0
479 381 93 2306 0
468 366 451 2307 0
326 95 -24 2308 0
-72 85 104 2309 0
-210 130 -204 2310 0
-45 -14 -365 2311 0
-152 21 309 2312 0
388 -375 -289 2313 0
-443 331 -336 2314 0
400 356 425 2315 0
84 330 -398 2316 0
-163 -30 -462 2317 0
340 418 93 2318 0
294 -176 38 2319 0
-390 -336 159 2320 0
-94 457 280 2321 0
-403 58 -103 2322 0
295 255 12 2323 0
392 -219 373 2324 0
-460 -454 191 2325 0
-468 -106 -478 2326 0
-499 -427 -53 2327 0
-318 -264 -167 2328 0
-272 141 -500 2329 0
-103 211 309 2330 0
-157 153 443 2331 0
-448 -382 230 2332 0
-119 -201 -366 2333 0
198 -413 346 2334 0
291 55 -329 2335 0
-361 172 -70 2336 0
67 12 -159 2337 0
197 -247 469 2338 0
-260 -491 -25 2339 0
-345 27 -246 2340 0
202 -248 -293 2341 0
-405 -293 -73 2342 0
435 381 332 2343 0
-266 -226 465 2344 0
41 -264 12 2345 0
360 -203 270 2346 0
137 10 -243 2347 0
372 -459 47 2348 0
242 -376 435 2349 0
-444 445 -448 2350 0
326 -434 -162 2351 0
64 -393 232 2352 0
373 90 -162 2353 0
84 -354 -303 2354 0
369 -68 230 2355 0
-79 367 -403 2356 0
280 -100 -493 2357 0
-229 416 384 2358 0
-356 443 107 2359 0
151 -120 -360 2360 0
412 159 162 2361 0
-213 197 -358 2362 0
250 -81 -343 2363 0
-28 -193 -478 2364 0
-291 -167 261 2365 0
-331 208 -78 2366 0
-261 -35 -483 2367 0
395 -352 355 2368 0
280 162 367 2369 0
258 49 395 2370 0
35 -444 -174 2371 0
-241 -155 -329 2372 0
-264 -199 -87 2373 0
-228 -144 -70 2374 0
-201 -91 -366 2375 0
-299 -496 -457 2376 0
432 268 -430 2377 0
367 49 -304 2378 0
462 266 -73 2379 0
83 321 241 2380 0
216 -169 -251 2381 0
-248 447 -31 2382 0
331 -293 -215 2383 0
401 -83 -345 2384 0
-386 169 -286 2385 0
-346 362 -146 2386 0
-473 -500 107 2387 0
61 -235 -356 2388 0
-356 204 25 2389 0
-96 -438 373 2390 0
-69 8 406 2391 0
211 -150 -56 2392 0
-373 164 307 2393 0
-270 -391 421 2394 0
-124 226 480 2395 0
84 -444 -293 2396 0
115 -227 130 2397 0
18 310 -68 2398 0
472 28 -45 2399 0
464 129 29 2400 0
288 -230 121 2401 0
-327 480 324 2402 0
-62 414 -316 2403 0
382 -290 -496 2404 0
5 458 329 2405 0
-330 468 391 2406 0
-473 407 -136 2407 0
286 170 344 2408 0
465 272 151 2409 0
109 297 -232 2410 0
121 364 93 2411 0
364 -380 444 2412 0
219 -224 42 2413 0
413 -226 -438 2414 0
-13 43 -302 2415 0
153 280 38 2416 0
225 -92 372 2417 0
-472 -480 -120 2418 0
-495 252 294 2419 0
360 -354 -368 2420 0
-116 140 -286 2421 0
2 139 -107 2422 0
475 346 -326 2423 0
233 -355 -207 2424 0
240 274 421 2425 0
-82 466 283 2426 0
-264 448 262 2427 0
70 310 -428 2428 0
-481 -314 -485 2429 0
486 -98 -20 2430 0
-370 37 155 2431 0
-206 199 316 2432 0
2 -139 -288 2433 0
463 -479 246 2434 0
264 129 307 2435 0
387 -318 -418 2436 0
448 -377 14 2437 0
308 -79 -24 2438 0
88 261 -387 2439 0
219 146 48 2440 0
8 495 -153 2441 0
-462 459 76 2442 0
343 -265 -494 2443 0
-478 -189 -263 2444 0
379 224 3 2445 0
178 -421 22 2446 0
-175 -145 178 2447 0
-418 -108 331 2448 0
38 -65 138 2449 0
-33 285 -53 2450 0
489 -60 -441 2451 0
-261 76 286 2452 0
-109 184 280 2453 0
170 191 149 2454 0
222 -8 268 2455 0
381 469 401 2456 0
141 221 402 2457 0
-458 -239 -370 2458 0
500 256 -303 2459 0
-495 -450 -94 2460 0
-203 131 464 2461 0
-496 -78 245 2462 0
27 443 -399 2463 0
-444 310 -95 2464 0
222 -480 -114 2465 0
263 343 106 2466 0
475 439 -317 2467 0
-43 158 -341 2468 0
352 34 234 2469 0
-89 256 -274 2470 0
-105 -388 -75 2471 0
208 9 -268 2472 0
189 405 -213 2473 0
-159 -302 -366 2474 0
438 -237 434 2475 0
318 336 -63 2476 0
343 201 269 2477 0
-65 -476 -227 2478 0
493 -215 278 2479 0
193 -62 257 2480 0
-422 89 -392 2481 0
-338 80 269 2482 0
442 30 -342 2483 0
-401 -234 -434 2484 0
402 465 4 2485 0
-442 280 -25 2486 0
-93 -460 180 2487 0
-241 -9 -163 2488 0
112 101 368 2489 0
257 -401 -262 2490 0
-12 -324 143 2491 0
163 -189 -50 2492 0
426 295 -297 2493 0
173 -178 336 2494 0
-375 287 161 2495 0
255 -171 3 2496 0
-77 157 -148 2497 0
-481 -308 274 2498 0
373 123 -211 2499 0
429 406 -182 2500 0
21 58 462 2501 0
-11 -363 368 2502 0
145 411 -303 2503 0
-246 468 445 2504 0
188 -487 475 2505 0
469 -364 482 2506 0
-380 134 -92 2507 0
295 -226 302 2508 0
-64 114 399 2509 0
-466 -476 -418 2510 0
-323 424 230 2511 0
-367 -237 163 2512 0
283 66 -178 2513 0
-36 -264 -351 2514 0
324 466 -44 2515 0
-204 415 484 2516 0
-337 -11 -389 2517 0
113 -86 -338 2518 0
-78 -418 -376 2519 0
27 -393 301 2520 0
-20 -427 -225 2521 0
-75 -130 -17 2522 0
-390 338 223 2523 0
491 199 -396 2524 0
27 -302 92 2525 0
324 -1 -466 2526 0
457 -131 319 2527 0
168 198 -151 2528 0
173 -366 -6 2529 0
-32 455 -53 2530 0
482 -459 -323 2531 0
-141 -361 408 2532 0
274 356 -96 2533 0
-300 255 244 2534 0
-398 161 114 2535 0
488 380 378 2536 0
102 121 -375 2537 0
492 -340 -302 2538 0
-494 101 107 2539 0
193 -470 298 2540 0
-171 339 298 2541 0
-409 342 -317 2542 0
262 301 -281 2543 0
-129 -26 -387 2544 0
-469 -366 -310 2545 0
264 291 497 2546 0
6 -251 154 2547 0
477 -293 324 2548 0
418 -204 135 2549 0
-141 -290 -392 2550 0
-240 -74 -51 2551 0
260 7 167 2552 0
189 77 -490 2553 0
-208 260 -293 2554 0
394 115 -59 2555 0
-281 -71 -237 2556 0
-461 344 221 2557 0
-142 -431 -451 2558 0
-384 -84 -315 2559 0
323 -341 -202 2560 0
-147 283 374 2561 0
-417 167 -339 2562 0
-417 -247 -427 2563 0
500 467 -92 2564 0
302 106 116 2565 0
-450 -492 298 2566 0
227 278 -141 2567 0
-153 3 -82 2568 0
-394 462 366 2569 0
484 -117 413 2570 0
38 -433 199 2571 0
399 -78 236 2572 0
65 -390 203 2573 0
40 446 -63 2574 0
-329 89 -275 2575 0
-262 -445 188 2576 0
76 143 -29 2577 0
-320 156 -141 2578 0
290 344 -184 2579 0
-156 234 -405 2580 0
211 -6 -91 2581 0
352 -119 56 2582 0
-321 389 -141 2583 0
-241 -484 483 2584 0
302 -148 -252 2585 0
-329 -118 -376 2586 0
-146 388 -357 2587 0
361 -17 305 2588 0
284 330 -114 2589 0
-97 -497 389 2590 0
-226 390 432 2591 0
277 87 -63 2592 0
72 -175 387 2593 0
256 261 -137 2594 0
-265 59 -446 2595 0
-362 439 -171 2596 0
189 390 184 2597 0
408 -281 345 2598 0
405 487 -321 2599 0
-370 -473 -455 2600 0
230 -191 83 2601 0
206 323 258 2602 0
-115 294 355 2603 0
-383 325 104 2604 0
67 12 342 2605 0
-312 210 -320 2606 0
237 -391 292 2607 0
-137 -489 -129 2608 0
85 124 -352 2609 0
-76 43 228 2610 0
21 -437 -499 2611 0
-317 -423 -135 2612 0
406 -64 -253 2613 0
-18 -470 -427 2614 0
31 -188 133 2615 0
-283 340 24 2616 0
100 -58 -431 2617 0
-368 23 94 2618 0
-251 239 434 2619 0
304 335 -429 2620 0
230 -267 -434 2621 0
153 -252 -90 2622 0
-446 229 172 2623 0
331 290 -384 2624 0
468 -291 -49 2625 0
130 -341 -273 2626 0
489 -172 -183 2627 0
-47 68 389 2628 0
449 -69 277 2629 0
6 -461 208 2630 0
-107 220 203 2631 0
-290 -137 61 2632 0
-381 -243 234 2633 0
42 394 -364 2634 0
-264 303 322 2635 0
256 488 265 2636 0
-355 440 -204 2637 0
-322 -320 399 2638 0
-85 -382 499 2639 0
264 6 -309 2640 0
-326 210 213 2641 0
-227 -402 -135 2642 0
119 -389 -219 2643 0
55 -444 455 2644 0
374 196 116 2645 0
-135 238 -404 2646 0
-372 -243 -342 2647 0
459 -396 -287 2648 0
50 424 259 2649 0
-388 -389 -210 2650 0
