p cnf 2650 2150
335 422 399 501 0
499 176 26 502 0
-190 152 211 503 0
474 428 307 504 0
-124 -266 422 505 0
-119 -107 -364 506 0
-24 360 -490 507 0
74 105 30 508 0
136 -76 83 509 0
371 448 23 510 0
-156 394 -109 511 0
-224 -378 -270 512 0
458 140 449 513 0
-218 -358 -348 514 0
352 23 -75 515 0
-202 194 217 516 0
-154 296 493 517 0
126 -322 -444 518 0
-141 341 270 519 0
-143 15 -471 520 0
-151 -310 -6 521 0
-354 197 58 522 0
-487 404 -277 523 0
281 -24 72 524 0
-241 125 -101 525 0
143 216 158 526 0
-431 -331 -498 527 0
-30 -249 248 528 0
354 337 -124 529 0
-358 -71 229 530 0
497 323 -488 531 0
-52 -139 34 532 0
-107 -393 378 533 0
17 -183 -304 534 0
-339 -355 -297 535 0
-400 -98 -30 536 0
70 231 409 537 0
34 155 -91 538 0
144 259 -205 539 0
-329 -354 -122 540 0
-60 -312 264 541 0
-163 -65 128 542 0
422 45 -21 543 0
-491 -367 188 544 0
-64 75 319 545 0
-464 -425 -295 546 0
-57 -90 349 547 0
293 481 480 548 0
-104 281 423 549 0
487 -341 -459 550 0
-222 153 243 551 0
414 -240 -328 552 0
-99 -478 375 553 0
484 -355 -444 554 0
-251 51 -470 555 0
-155 241 -244 556 0
493 -272 -25 557 0
197 365 103 558 0
1 -93 -415 559 0
430 -477 435 560 0
436 53 51 561 0
-444 -250 296 562 0
325 72 129 563 0
287 165 -169 564 0
-223 -196 393 565 0
-152 165 -449 566 0
368 -446 -97 567 0
-144 -370 -380 568 0
97 -248 63 569 0
-206 182 341 570 0
497 -377 -122 571 0
-309 172 459 572 0
-157 -318 -67 573 0
-6 110 -270 574 0
-187 478 310 575 0
89 -427 -130 576 0
262 433 -257 577 0
-451 -475 332 578 0
-397 -255 108 579 0
-74 -397 203 580 0
293 270 326 581 0
227 -174 -217 582 0
-388 470 99 583 0
326 4 -274 584 0
87 441 -26 585 0
107 -174 144 586 0
355 -298 -328 587 0
411 416 -176 588 0
168 -361 210 589 0
-231 -464 235 590 0
230 100 384 591 0
72 151 325 592 0
-479 -321 77 593 0
78 393 239 594 0
436 100 -270 595 0
328 -178 4 596 0
-464 4 -26 597 0
-285 161 295 598 0
463 231 325 599 0
-258 -393 -157 600 0
-61 206 119 601 0
-463 -22 436 602 0
256 300 -444 603 0
365 -43 -212 604 0
-495 -322 -300 605 0
-413 -322 -137 606 0
61 -80 467 607 0
345 157 481 608 0
-413 -56 -52 609 0
-225 -346 322 610 0
-400 -139 338 611 0
340 -321 267 612 0
78 410 172 613 0
290 -228 217 614 0
-492 -498 -127 615 0
148 -322 -237 616 0
-35 37 480 617 0
106 364 55 618 0
133 -137 -203 619 0
-326 214 -65 620 0
80 13 276 621 0
217 -362 490 622 0
350 159 260 623 0
177 313 -106 624 0
131 -350 213 625 0
-25 -59 410 626 0
-308 33 22 627 0
-404 -3 458 628 0
-484 188 370 629 0
235 463 114 630 0
-240 -401 -413 631 0
-28 147 83 632 0
-132 294 -81 633 0
-140 -326 120 634 0
-220 324 -126 635 0
258 -454 455 636 0
2 -15 18 637 0
-161 242 124 638 0
80 111 -447 639 0
-493 -96 -84 640 0
-180 -445 326 641 0
-86 486 156 642 0
190 -168 -34 643 0
-170 12 61 644 0
-46 -121 148 645 0
-416 360 268 646 0
397 441 -1 647 0
476 177 -120 648 0
129 -42 -334 649 0
-122 -375 -199 650 0
497 73 -49 651 0
-472 -295 -327 652 0
-122 -121 -343 653 0
-269 -33 462 654 0
257 361 116 655 0
-264 324 -437 656 0
-416 385 -3 657 0
-289 -238 150 658 0
-138 263 -176 659 0
-276 -414 470 660 0
-468 440 59 661 0
442 -41 45 662 0
380 -365 196 663 0
-154 -180 457 664 0
348 -399 458 665 0
240 63 -431 666 0
-461 209 107 667 0
-340 416 433 668 0
-189 -417 -38 669 0
299 93 366 670 0
447 486 362 671 0
-467 371 -194 672 0
-448 -47 -257 673 0
-251 -379 -367 674 0
377 165 309 675 0
-188 364 -207 676 0
279 404 -249 677 0
464 -25 -187 678 0
-39 -147 331 679 0
376 214 290 680 0
155 -232 42 681 0
-422 -490 -253 682 0
-323 -288 -308 683 0
-239 -103 -342 684 0
361 -460 397 685 0
-183 -173 393 686 0
54 45 21 687 0
-338 187 -216 688 0
422 -330 452 689 0
447 -225 74 690 0
88 -10 383 691 0
6 302 -395 692 0
-384 85 -78 693 0
213 365 194 694 0
-159 -456 -35 695 0
-362 -166 -184 696 0
233 -474 272 697 0
-108 162 490 698 0
409 -133 -203 699 0
-255 184 -339 700 0
-252 127 472 701 0
-447 -244 -190 702 0
274 433 -138 703 0
9 53 -398 704 0
455 411 308 705 0
-325 380 116 706 0
-140 -415 -431 707 0
-166 -304 -88 708 0
237 -352 -102 709 0
-312 -430 14 710 0
-52 -374 -47 711 0
370 342 264 712 0
-170 -318 -368 713 0
-148 324 -21 714 0
-9 -161 -103 715 0
-311 -42 -128 716 0
294 477 295 717 0
-213 456 -30 718 0
-387 -108 362 719 0
-52 394 97 720 0
337 -118 -94 721 0
-72 -377 -110 722 0
84 -132 307 723 0
380 -481 472 724 0
-151 304 150 725 0
72 93 299 726 0
-223 -2 423 727 0
115 -489 362 728 0
388 309 23 729 0
-354 -230 390 730 0
-369 6 -441 731 0
208 -235 -473 732 0
-387 372 105 733 0
411 339 37 734 0
387 397 -103 735 0
-133 -461 -319 736 0
480 -14 416 737 0
50 384 331 738 0
-135 472 -429 739 0
-272 232 408 740 0
85 419 117 741 0
-214 -118 -23 742 0
-453 -83 429 743 0
490 3 -448 744 0
-496 -317 427 745 0
-330 426 11 746 0
-229 -409 -254 747 0
-51 -374 413 748 0
-372 -27 380 749 0
476 -272 -368 750 0
168 -41 -136 751 0
-443 483 418 752 0
385 243 -358 753 0
292 -177 -289 754 0
-67 -453 301 755 0
280 133 -134 756 0
-214 -469 -462 757 0
-137 -27 291 758 0
1 412 -142 759 0
187 -394 -446 760 0
-180 -367 448 761 0
204 414 451 762 0
-120 80 168 763 0
-89 73 -450 764 0
-448 134 483 765 0
202 -312 -232 766 0
-10 287 84 767 0
-14 -287 33 768 0
378 -30 359 769 0
-384 453 -321 770 0
-159 -356 122 771 0
416 -85 77 772 0
-75 -272 -234 773 0
150 -329 -12 774 0
-135 -340 489 775 0
309 -158 264 776 0
168 257 123 777 0
124 131 361 778 0
432 263 17 779 0
11 -349 -441 780 0
-494 -178 -31 781 0
-491 412 -144 782 0
323 319 -222 783 0
304 358 53 784 0
-361 4 -456 785 0
251 394 113 786 0
-483 216 -400 787 0
-117 -13 -370 788 0
-290 300 231 789 0
384 474 -96 790 0
215 397 370 791 0
478 -254 -339 792 0
262 477 -408 793 0
496 -146 -464 794 0
402 390 214 795 0
-195 -16 -406 796 0
12 289 439 797 0
101 -298 -130 798 0
-137 -315 201 799 0
-78 -24 -331 800 0
-81 434 499 801 0
-26 13 -18 802 0
59 430 108 803 0
141 -376 167 804 0
293 -348 36 805 0
-214 -263 164 806 0
185 -190 191 807 0
-29 -58 21 808 0
124 414 -377 809 0
-406 -159 167 810 0
-195 -483 209 811 0
375 -315 -359 812 0
-146 -289 118 813 0
60 131 -178 814 0
111 -6 432 815 0
301 -382 282 816 0
-345 226 77 817 0
-355 303 -378 818 0
316 -131 -180 819 0
344 -112 105 820 0
-148 -235 -492 821 0
-465 351 242 822 0
-106 -167 235 823 0
-186 -442 461 824 0
183 -239 68 825 0
246 -497 -452 826 0
-3 -199 -358 827 0
-71 115 110 828 0
419 420 99 829 0
66 388 71 830 0
317 -154 361 831 0
443 -372 301 832 0
422 39 485 833 0
-305 -435 -453 834 0
-344 -227 459 835 0
-245 -167 477 836 0
-299 255 -162 837 0
227 291 153 838 0
383 -349 367 839 0
158 -432 -70 840 0
-314 -153 -292 841 0
-6 -133 247 842 0
-41 -295 299 843 0
-151 -481 429 844 0
213 -461 -499 845 0
190 -79 -277 846 0
-407 -89 226 847 0
-431 189 -443 848 0
-323 -354 446 849 0
42 -25 289 850 0
-270 -331 383 851 0
232 -339 -394 852 0
-31 356 -241 853 0
181 -30 -269 854 0
395 -458 -482 855 0
413 462 362 856 0
49 -130 454 857 0
46 228 -224 858 0
416 8 338 859 0
169 341 151 860 0
211 77 -266 861 0
45 -463 474 862 0
497 -163 -333 863 0
131 491 -194 864 0
328 -200 -471 865 0
-236 -80 -163 866 0
449 -486 -441 867 0
244 -130 88 868 0
412 466 272 869 0
436 -390 -322 870 0
328 2 -113 871 0
-80 -48 -1 872 0
483 106 -307 873 0
153 42 -231 874 0
283 174 472 875 0
-26 154 -89 876 0
-66 375 -479 877 0
-12 -106 199 878 0
-490 -72 145 879 0
-249 486 -337 880 0
-226 -469 222 881 0
53 -122 -387 882 0
50 218 -297 883 0
364 424 -164 884 0
317 455 -405 885 0
-479 -39 -386 886 0
430 32 280 887 0
39 -61 -55 888 0
499 294 -170 889 0
-26 -47 415 890 0
-6 -305 -461 891 0
438 -488 -442 892 0
443 106 127 893 0
-471 289 264 894 0
-290 -141 -171 895 0
-266 -474 399 896 0
34 -31 32 897 0
-212 -4 494 898 0
-246 64 386 899 0
141 -432 304 900 0
384 125 -114 901 0
64 233 174 902 0
60 -231 -350 903 0
-25 274 -283 904 0
183 340 92 905 0
-183 -247 -5 906 0
-375 483 320 907 0
-455 402 -94 908 0
-53 58 -213 909 0
-38 -236 -343 910 0
-367 -69 -99 911 0
-388 379 -220 912 0
425 92 170 913 0
350 9 -332 914 0
215 446 441 915 0
-165 213 -62 916 0
-37 -243 51 917 0
337 133 -468 918 0
-225 -456 288 919 0
-130 -10 321 920 0
114 365 313 921 0
-38 -19 -194 922 0
347 -270 -378 923 0
93 498 180 924 0
400 102 -458 925 0
-142 -226 -441 926 0
-78 -424 -32 927 0
70 73 -361 928 0
91 -296 -271 929 0
488 90 71 930 0
-298 -222 16 931 0
310 320 -405 932 0
-305 -3 136 933 0
25 317 385 934 0
44 -137 -134 935 0
325 13 247 936 0
281 -300 -171 937 0
-181 478 189 938 0
-6 -80 -335 939 0
-371 -374 201 940 0
392 -108 280 941 0
100 432 -472 942 0
-297 -277 -120 943 0
129 211 -465 944 0
-134 39 198 945 0
234 212 483 946 0
-245 -375 -44 947 0
36 -88 208 948 0
321 -461 143 949 0
-377 -493 67 950 0
-125 108 -237 951 0
321 28 -273 952 0
263 401 -330 953 0
195 184 18 954 0
-484 -270 488 955 0
54 -143 383 956 0
495 280 392 957 0
60 -413 441 958 0
-202 -236 -156 959 0
424 -333 213 960 0
-246 50 51 961 0
-64 401 -448 962 0
267 202 463 963 0
-347 442 -332 964 0
-363 -388 -176 965 0
-245 369 186 966 0
229 -103 418 967 0
27 482 -212 968 0
99 82 -203 969 0
114 -192 -340 970 0
435 72 -37 971 0
240 379 418 972 0
51 476 16 973 0
-441 19 337 974 0
-143 -375 23 975 0
-107 80 22 976 0
-104 399 -26 977 0
7 -61 4 978 0
465 99 349 979 0
-26 356 202 980 0
-302 320 -287 981 0
-488 439 103 982 0
266 -481 -423 983 0
-148 45 228 984 0
364 175 154 985 0
221 -361 354 986 0
345 -142 -96 987 0
146 -403 85 988 0
-267 137 127 989 0
127 242 -277 990 0
101 -286 -234 991 0
492 -153 164 992 0
-304 293 434 993 0
-304 388 233 994 0
-487 98 441 995 0
-3 -91 -425 996 0
-96 -344 -3 997 0
-458 -53 -117 998 0
-120 -97 397 999 0
173 -325 176 1000 0
394 -315 -259 1001 0
153 -353 -368 1002 0
-369 9 -326 1003 0
-253 172 -275 1004 0
-383 -343 -282 1005 0
363 -279 -473 1006 0
-196 -201 -477 1007 0
180 253 -362 1008 0
306 318 71 1009 0
-357 83 319 1010 0
56 -172 -427 1011 0
10 -427 -491 1012 0
-293 279 -226 1013 0
459 -156 -107 1014 0
-420 118 -161 1015 0
60 -180 -360 1016 0
403 -14 449 1017 0
-320 -433 -411 1018 0
-83 -264 4 1019 0
-48 -321 -393 1020 0
-11 -113 -338 1021 0
412 -16 230 1022 0
135 -465 -95 1023 0
-188 475 315 1024 0
22 -471 -153 1025 0
-31 -337 -361 1026 0
3 -59 -115 1027 0
-4 227 423 1028 0
-12 13 -201 1029 0
-258 -322 -180 1030 0
253 373 85 1031 0
-351 372 -85 1032 0
303 -82 71 1033 0
-430 -489 -396 1034 0
57 -83 453 1035 0
-383 272 226 1036 0
-14 336 -108 1037 0
-434 -124 278 1038 0
-171 478 386 1039 0
159 -257 500 1040 0
201 171 382 1041 0
301 -218 -148 1042 0
400 85 -239 1043 0
235 216 -283 1044 0
400 -98 -422 1045 0
478 -424 -269 1046 0
-274 40 -208 1047 0
28 -3 -266 1048 0
-16 141 381 1049 0
291 -241 389 1050 0
284 183 15 1051 0
328 441 -316 1052 0
42 235 487 1053 0
-483 319 153 1054 0
414 -370 108 1055 0
78 -436 88 1056 0
126 444 -496 1057 0
-377 -39 -392 1058 0
-153 -186 489 1059 0
-75 -48 -229 1060 0
155 182 -138 1061 0
236 259 -484 1062 0
-434 416 -203 1063 0
16 415 -11 1064 0
147 108 -50 1065 0
-312 185 -259 1066 0
-419 -31 -35 1067 0
-185 -121 425 1068 0
163 363 -224 1069 0
-64 193 186 1070 0
-14 261 106 1071 0
-155 173 390 1072 0
405 -283 -396 1073 0
180 54 -284 1074 0
-369 -494 350 1075 0
-356 -260 141 1076 0
-316 -441 -190 1077 0
-251 305 33 1078 0
426 174 -207 1079 0
171 488 76 1080 0
-1 23 -260 1081 0
390 218 215 1082 0
164 22 288 1083 0
-478 -44 -432 1084 0
-462 425 -349 1085 0
-154 -266 414 1086 0
-459 155 -499 1087 0
156 327 -183 1088 0
-86 189 195 1089 0
-250 -460 97 1090 0
-375 35 -384 1091 0
-192 169 424 1092 0
-287 -459 -266 1093 0
217 -307 -228 1094 0
-28 267 -94 1095 0
6 -371 325 1096 0
102 -112 129 1097 0
-498 487 173 1098 0
-414 129 488 1099 0
234 53 -65 1100 0
-155 370 249 1101 0
175 239 445 1102 0
-388 316 153 1103 0
-278 315 -70 1104 0
-314 482 -227 1105 0
-110 289 397 1106 0
139 -368 428 1107 0
-11 256 -153 1108 0
-314 -153 -440 1109 0
180 181 439 1110 0
125 178 -74 1111 0
28 349 -433 1112 0
227 -261 -295 1113 0
490 358 -369 1114 0
465 -233 -86 1115 0
-406 165 21 1116 0
-21 -296 -11 1117 0
-383 -324 -239 1118 0
331 -326 298 1119 0
284 417 -226 1120 0
-417 -55 324 1121 0
389 -398 -53 1122 0
-160 324 -199 1123 0
-40 -449 312 1124 0
-252 240 -150 1125 0
56 -312 -256 1126 0
124 -337 -360 1127 0
348 -479 375 1128 0
-163 -221 65 1129 0
-50 -239 -75 1130 0
-93 229 -145 1131 0
-409 56 193 1132 0
-93 266 -6 1133 0
213 -322 -84 1134 0
-276 -211 37 1135 0
-486 -433 -153 1136 0
-441 482 405 1137 0
100 249 8 1138 0
104 -113 14 1139 0
478 393 91 1140 0
-14 -251 104 1141 0
256 -439 469 1142 0
199 344 464 1143 0
459 -404 -173 1144 0
488 -326 -256 1145 0
9 -120 -254 1146 0
75 214 194 1147 0
-175 272 -398 1148 0
-233 412 114 1149 0
74 -383 397 1150 0
-356 -301 -342 1151 0
290 400 -8 1152 0
139 28 2 1153 0
-2 102 456 1154 0
-349 -401 217 1155 0
465 150 138 1156 0
-388 -479 -26 1157 0
158 38 36 1158 0
151 -393 437 1159 0
-450 86 24 1160 0
-70 69 63 1161 0
-144 -258 -198 1162 0
-36 263 348 1163 0
42 171 -312 1164 0
182 -108 -66 1165 0
-441 -138 -74 1166 0
402 7 205 1167 0
109 394 -207 1168 0
491 -197 320 1169 0
-109 14 -430 1170 0
-46 -270 -171 1171 0
-81 -33 24 1172 0
45 124 318 1173 0
32 329 97 1174 0
108 211 -143 1175 0
211 -266 37 1176 0
59 -252 -329 1177 0
6 252 -373 1178 0
141 -80 -225 1179 0
-70 -165 -225 1180 0
-216 354 303 1181 0
320 -338 422 1182 0
491 359 430 1183 0
-373 208 474 1184 0
-24 -137 340 1185 0
-105 18 19 1186 0
-422 12 -80 1187 0
30 -5 -96 1188 0
490 52 -483 1189 0
-406 -150 -326 1190 0
-106 116 -16 1191 0
443 421 -71 1192 0
317 326 349 1193 0
-68 -73 -314 1194 0
43 -467 238 1195 0
213 -112 151 1196 0
-315 10 252 1197 0
454 -392 -430 1198 0
92 139 365 1199 0
-450 -251 285 1200 0
-38 -10 -122 1201 0
-387 284 144 1202 0
151 -203 115 1203 0
-294 79 365 1204 0
306 -473 -184 1205 0
398 462 -106 1206 0
-426 -339 -172 1207 0
-94 -431 -213 1208 0
-307 484 -465 1209 0
-3 -246 -206 1210 0
86 -398 -239 1211 0
-445 263 -177 1212 0
93 -74 242 1213 0
471 19 255 1214 0
332 -456 -74 1215 0
146 493 -87 1216 0
233 -42 117 1217 0
232 -346 -120 1218 0
474 -263 469 1219 0
94 49 -211 1220 0
421 -299 -253 1221 0
-409 235 233 1222 0
-144 -221 -443 1223 0
210 -237 463 1224 0
79 -45 -285 1225 0
27 -468 227 1226 0
-39 22 -178 1227 0
266 -305 363 1228 0
-93 -181 455 1229 0
-172 236 17 1230 0
370 272 -176 1231 0
-145 167 243 1232 0
482 -345 -37 1233 0
89 -3 231 1234 0
147 -169 81 1235 0
-70 191 -37 1236 0
87 -466 32 1237 0
232 226 428 1238 0
291 17 -123 1239 0
-464 435 141 1240 0
-431 -58 -310 1241 0
-104 266 -382 1242 0
-30 449 -95 1243 0
-363 394 484 1244 0
75 472 -83 1245 0
-124 -199 -206 1246 0
409 -405 172 1247 0
419 -372 -119 1248 0
-388 -50 19 1249 0
-347 -457 482 1250 0
26 -246 313 1251 0
-208 76 -66 1252 0
-388 14 -285 1253 0
-234 359 -216 1254 0
-285 -251 102 1255 0
120 410 -370 1256 0
-15 -479 -34 1257 0
-282 -348 -125 1258 0
-469 252 151 1259 0
475 489 -334 1260 0
-395 259 -389 1261 0
-302 451 109 1262 0
-255 413 -39 1263 0
180 -181 -276 1264 0
-182 242 362 1265 0
288 -239 309 1266 0
-147 156 -15 1267 0
-481 -420 -142 1268 0
-119 430 -377 1269 0
-72 89 -455 1270 0
110 263 -19 1271 0
92 -373 -381 1272 0
29 -353 191 1273 0
438 -488 291 1274 0
-344 435 317 1275 0
315 -107 -74 1276 0
-297 313 260 1277 0
-308 43 -225 1278 0
133 281 253 1279 0
-242 372 450 1280 0
-115 380 40 1281 0
481 -263 -229 1282 0
-281 -285 -229 1283 0
-314 269 -349 1284 0
-3 486 474 1285 0
-76 -279 20 1286 0
389 399 -312 1287 0
-407 346 200 1288 0
-339 -33 -468 1289 0
-370 54 152 1290 0
236 492 -70 1291 0
494 -421 295 1292 0
78 -7 42 1293 0
264 305 59 1294 0
436 -88 169 1295 0
-234 -219 449 1296 0
-353 -338 30 1297 0
112 -131 47 1298 0
306 275 -270 1299 0
-293 -272 -68 1300 0
-120 54 -77 1301 0
-211 440 -75 1302 0
-211 328 20 1303 0
303 104 103 1304 0
402 77 411 1305 0
392 434 -135 1306 0
431 -221 -220 1307 0
-306 171 476 1308 0
131 -295 144 1309 0
-371 -35 -190 1310 0
-445 215 -370 1311 0
233 -386 -366 1312 0
184 170 213 1313 0
-62 -399 -492 1314 0
-359 32 -379 1315 0
440 -248 488 1316 0
-250 147 485 1317 0
-497 125 102 1318 0
-269 262 -64 1319 0
242 496 -141 1320 0
180 445 -350 1321 0
-359 482 -157 1322 0
-97 226 -452 1323 0
76 -85 259 1324 0
-131 -14 -441 1325 0
116 351 458 1326 0
-210 414 -266 1327 0
311 -315 241 1328 0
-478 -218 458 1329 0
232 310 -124 1330 0
148 -51 411 1331 0
141 286 -106 1332 0
395 217 344 1333 0
394 -365 111 1334 0
494 -391 -474 1335 0
300 -442 -468 1336 0
-455 -316 368 1337 0
-299 -44 -52 1338 0
331 108 489 1339 0
-49 -403 160 1340 0
-189 -194 -279 1341 0
472 -323 -356 1342 0
240 -389 65 1343 0
213 -150 289 1344 0
-338 494 81 1345 0
45 139 472 1346 0
418 32 488 1347 0
-422 116 -424 1348 0
-410 374 -331 1349 0
15 303 243 1350 0
-200 -205 -331 1351 0
-34 229 -177 1352 0
318 439 -325 1353 0
-6 166 401 1354 0
-459 242 458 1355 0
175 -25 -198 1356 0
-351 -67 189 1357 0
-120 -474 448 1358 0
-337 481 -25 1359 0
182 372 -69 1360 0
308 438 -256 1361 0
372 -84 221 1362 0
-312 -299 -24 1363 0
178 500 -244 1364 0
411 -96 -154 1365 0
472 -245 -365 1366 0
56 322 -125 1367 0
113 -200 -389 1368 0
327 -104 240 1369 0
-319 -369 -101 1370 0
-360 315 287 1371 0
-484 -81 -111 1372 0
-69 53 129 1373 0
94 258 -478 1374 0
-469 156 284 1375 0
-84 -490 180 1376 0
160 -411 -335 1377 0
-47 262 494 1378 0
-389 441 387 1379 0
-229 258 128 1380 0
402 347 -352 1381 0
-187 -196 -199 1382 0
402 332 -52 1383 0
-413 104 -336 1384 0
-151 467 -193 1385 0
-143 -273 -38 1386 0
315 -210 134 1387 0
-456 -361 194 1388 0
-221 261 -100 1389 0
-139 210 470 1390 0
489 -149 98 1391 0
66 -359 113 1392 0
-484 41 343 1393 0
-19 -163 -75 1394 0
303 448 -33 1395 0
283 364 327 1396 0
249 248 -406 1397 0
69 381 174 1398 0
-251 179 -335 1399 0
352 92 -440 1400 0
94 -479 48 1401 0
321 -486 127 1402 0
259 255 400 1403 0
492 151 -21 1404 0
9 -492 -468 1405 0
231 88 -488 1406 0
-241 91 -486 1407 0
-486 -238 -145 1408 0
-234 183 -277 1409 0
282 -120 421 1410 0
-83 410 -142 1411 0
261 -307 451 1412 0
-345 -343 -176 1413 0
377 -116 -224 1414 0
24 407 468 1415 0
-297 -115 -180 1416 0
-439 275 -224 1417 0
275 -247 410 1418 0
160 -38 462 1419 0
484 -455 -375 1420 0
-346 -488 -338 1421 0
-188 232 390 1422 0
211 -213 360 1423 0
-476 491 105 1424 0
-322 109 391 1425 0
-351 -458 468 1426 0
-72 143 -145 1427 0
257 -208 -150 1428 0
-217 -147 321 1429 0
-323 -397 -220 1430 0
-87 428 -309 1431 0
-359 202 253 1432 0
234 -381 -117 1433 0
-452 437 482 1434 0
488 -324 -20 1435 0
-80 31 374 1436 0
-271 329 -137 1437 0
-438 -250 348 1438 0
-283 212 8 1439 0
33 389 89 1440 0
36 -231 216 1441 0
-129 -432 -251 1442 0
369 445 329 1443 0
41 -437 -258 1444 0
476 405 -142 1445 0
-391 297 -485 1446 0
407 -289 -39 1447 0
-235 -205 -208 1448 0
287 185 -165 1449 0
126 -464 -428 1450 0
-443 375 -23 1451 0
153 89 -86 1452 0
233 -344 -400 1453 0
339 -115 310 1454 0
-239 -451 125 1455 0
16 -405 -317 1456 0
445 -203 416 1457 0
92 -317 297 1458 0
262 -332 445 1459 0
-393 -319 50 1460 0
-31 -492 -125 1461 0
-238 -236 174 1462 0
464 -121 112 1463 0
-106 147 -409 1464 0
360 -331 82 1465 0
427 299 -362 1466 0
-25 -173 -411 1467 0
-359 -103 -427 1468 0
-319 480 135 1469 0
409 354 -463 1470 0
113 -432 412 1471 0
369 -206 402 1472 0
-159 -453 334 1473 0
88 124 -191 1474 0
-186 -396 -408 1475 0
-397 270 -296 1476 0
458 -87 -323 1477 0
49 -433 -251 1478 0
-69 263 -399 1479 0
384 444 480 1480 0
188 -4 268 1481 0
-48 -21 -149 1482 0
-421 325 -159 1483 0
-473 -297 -442 1484 0
-468 -65 -121 1485 0
402 -193 -194 1486 0
445 -292 245 1487 0
-470 352 214 1488 0
380 142 -336 1489 0
-52 -443 -60 1490 0
347 -445 -82 1491 0
-381 184 -148 1492 0
-484 387 471 1493 0
-267 -143 441 1494 0
-86 95 -340 1495 0
-100 14 242 1496 0
-258 353 -451 1497 0
-383 144 -131 1498 0
-469 165 400 1499 0
-256 417 500 1500 0
-18 -461 -490 1501 0
-356 361 358 1502 0
-275 -378 398 1503 0
-340 -367 -473 1504 0
-154 460 3 1505 0
-448 374 178 1506 0
-333 166 87 1507 0
271 440 412 1508 0
-118 -312 -362 1509 0
-329 -347 -439 1510 0
123 -77 -275 1511 0
-345 200 498 1512 0
214 -115 -335 1513 0
336 -484 416 1514 0
312 -73 397 1515 0
-43 -326 -368 1516 0
221 -185 -430 1517 0
314 56 287 1518 0
266 -25 -486 1519 0
-185 -108 56 1520 0
394 -408 283 1521 0
-14 208 -267 1522 0
67 -78 -414 1523 0
459 -352 35 1524 0
491 467 48 1525 0
-83 -5 447 1526 0
-339 -473 273 1527 0
64 222 -242 1528 0
58 -207 -54 1529 0
216 -414 -11 1530 0
499 -454 169 1531 0
-44 -393 132 1532 0
-423 123 23 1533 0
67 -336 -15 1534 0
154 25 -279 1535 0
418 437 -170 1536 0
-188 -99 -57 1537 0
-133 58 150 1538 0
326 165 96 1539 0
-302 210 -288 1540 0
423 417 420 1541 0
487 278 396 1542 0
99 98 -71 1543 0
-23 229 -338 1544 0
348 321 -157 1545 0
29 -19 -340 1546 0
201 243 139 1547 0
-481 435 346 1548 0
-126 298 -485 1549 0
87 360 86 1550 0
-146 409 -299 1551 0
-483 328 -136 1552 0
-347 -48 -228 1553 0
-412 312 -328 1554 0
402 -350 -451 1555 0
-381 238 -173 1556 0
-348 -38 427 1557 0
-15 -380 141 1558 0
-7 203 -26 1559 0
145 362 -248 1560 0
-97 130 -150 1561 0
-240 183 25 1562 0
240 -195 -499 1563 0
143 -229 -234 1564 0
105 214 51 1565 0
-412 468 403 1566 0
-424 85 -64 1567 0
263 308 -233 1568 0
-325 -299 228 1569 0
191 -338 96 1570 0
-400 -484 311 1571 0
450 -275 463 1572 0
-12 52 -493 1573 0
18 -394 -131 1574 0
249 48 115 1575 0
32 80 -459 1576 0
-357 358 -229 1577 0
190 65 120 1578 0
-395 284 123 1579 0
-313 55 -213 1580 0
-96 91 -137 1581 0
-18 224 -282 1582 0
-142 -320 -338 1583 0
67 278 289 1584 0
-457 153 -310 1585 0
-340 170 -184 1586 0
325 45 465 1587 0
-449 260 -135 1588 0
-210 251 -84 1589 0
-397 -471 472 1590 0
-231 41 304 1591 0
430 -429 438 1592 0
94 381 465 1593 0
85 438 -133 1594 0
-367 379 383 1595 0
-158 242 467 1596 0
374 214 -165 1597 0
77 176 395 1598 0
403 424 195 1599 0
-200 -343 -482 1600 0
329 356 -422 1601 0
42 -400 -457 1602 0
34 59 408 1603 0
-266 1 -34 1604 0
-286 -438 -396 1605 0
-53 -326 -254 1606 0
-78 308 -267 1607 0
-217 -258 -286 1608 0
211 67 -273 1609 0
-94 252 391 1610 0
469 88 -456 1611 0
-317 -361 -483 1612 0
-286 -177 -221 1613 0
39 -450 53 1614 0
-405 -89 26 1615 0
-302 -282 -379 1616 0
-45 -469 286 1617 0
-155 410 492 1618 0
338 139 -13 1619 0
-283 -97 -191 1620 0
-110 -487 1 1621 0
-435 -464 -339 1622 0
-291 250 418 1623 0
50 382 228 1624 0
-386 -478 397 1625 0
79 -173 -368 1626 0
467 -35 250 1627 0
-40 263 137 1628 0
-294 257 -53 1629 0
-89 427 330 1630 0
-464 350 235 1631 0
-214 384 16 1632 0
-60 411 294 1633 0
-298 99 -276 1634 0
349 -184 140 1635 0
375 -211 -393 1636 0
-300 -283 104 1637 0
442 277 -76 1638 0
141 219 278 1639 0
399 300 495 1640 0
155 -154 54 1641 0
-72 247 389 1642 0
312 457 191 1643 0
151 351 362 1644 0
454 443 -103 1645 0
-400 -140 -411 1646 0
-9 352 440 1647 0
186 103 -379 1648 0
187 347 -378 1649 0
-174 -8 457 1650 0
-427 -491 146 1651 0
203 254 -499 1652 0
63 -447 316 1653 0
-366 440 -197 1654 0
186 211 69 1655 0
-57 -458 -413 1656 0
-295 -6 382 1657 0
352 180 -267 1658 0
279 157 12 1659 0
276 -153 18 1660 0
-323 27 -411 1661 0
-62 102 -273 1662 0
176 451 -399 1663 0
395 411 192 1664 0
444 115 460 1665 0
409 -94 29 1666 0
338 -357 -336 1667 0
195 -34 446 1668 0
-440 408 417 1669 0
436 209 300 1670 0
87 -221 -364 1671 0
59 -265 -278 1672 0
-369 203 127 1673 0
334 394 -315 1674 0
-372 -149 407 1675 0
-239 303 -124 1676 0
151 -346 244 1677 0
-283 -139 276 1678 0
72 -99 215 1679 0
276 -296 -353 1680 0
-23 5 -234 1681 0
-277 -458 -461 1682 0
-332 420 95 1683 0
-424 -77 141 1684 0
-63 -307 -209 1685 0
318 493 -48 1686 0
-340 121 283 1687 0
-224 317 344 1688 0
433 486 -49 1689 0
-35 64 -314 1690 0
90 200 129 1691 0
-354 237 -261 1692 0
337 -222 -179 1693 0
264 -451 -24 1694 0
487 179 348 1695 0
213 145 -146 1696 0
446 -415 131 1697 0
-443 -394 -137 1698 0
-60 295 -187 1699 0
136 -261 196 1700 0
236 31 500 1701 0
-259 -295 -311 1702 0
218 -190 272 1703 0
-273 -459 446 1704 0
-213 -202 444 1705 0
499 65 200 1706 0
461 334 -370 1707 0
-93 -169 -249 1708 0
-231 -265 -19 1709 0
-412 77 -65 1710 0
-202 341 486 1711 0
393 342 -480 1712 0
469 324 317 1713 0
-380 -416 434 1714 0
119 196 192 1715 0
-451 -375 -72 1716 0
306 -332 145 1717 0
188 176 467 1718 0
-466 185 -78 1719 0
-133 -358 377 1720 0
45 -423 139 1721 0
-471 -402 -434 1722 0
351 54 -209 1723 0
269 488 -473 1724 0
-362 117 -479 1725 0
200 -32 409 1726 0
-300 404 233 1727 0
495 108 27 1728 0
-328 -456 -193 1729 0
-457 37 -419 1730 0
-151 -461 -342 1731 0
-415 311 -77 1732 0
-87 -223 160 1733 0
-191 -320 -215 1734 0
-148 90 -271 1735 0
115 208 -199 1736 0
108 -276 348 1737 0
355 -336 401 1738 0
-215 -270 -3 1739 0
407 -315 22 1740 0
409 -302 -392 1741 0
-417 -200 -239 1742 0
249 -248 -86 1743 0
-133 -493 377 1744 0
-94 242 -267 1745 0
-462 -399 51 1746 0
89 -410 318 1747 0
-60 180 217 1748 0
162 -4 -61 1749 0
-172 31 159 1750 0
209 -42 430 1751 0
472 404 -179 1752 0
53 164 -391 1753 0
492 477 165 1754 0
-307 282 -373 1755 0
195 255 -330 1756 0
-99 309 14 1757 0
-102 265 -388 1758 0
315 444 -481 1759 0
347 269 -340 1760 0
393 25 -306 1761 0
-493 86 432 1762 0
290 328 -420 1763 0
247 -121 18 1764 0
-427 -62 -413 1765 0
428 -82 -391 1766 0
-473 149 -51 1767 0
-324 379 80 1768 0
206 -4 349 1769 0
456 -482 -428 1770 0
-337 -483 -120 1771 0
-416 159 146 1772 0
-114 371 165 1773 0
-434 -227 47 1774 0
341 344 205 1775 0
-392 -19 -323 1776 0
257 -459 306 1777 0
-242 310 -90 1778 0
-206 -375 -131 1779 0
-168 -5 -200 1780 0
-197 -408 -169 1781 0
427 216 -356 1782 0
89 70 362 1783 0
398 -377 168 1784 0
-481 -187 -90 1785 0
-9 -478 -248 1786 0
-275 -459 391 1787 0
325 -302 -33 1788 0
239 381 278 1789 0
-156 168 -69 1790 0
242 485 280 1791 0
-1 -191 442 1792 0
439 -60 117 1793 0
-200 -392 -146 1794 0
135 455 217 1795 0
29 -485 98 1796 0
61 297 -203 1797 0
314 167 255 1798 0
433 -346 -181 1799 0
354 462 -193 1800 0
-411 429 376 1801 0
-401 478 217 1802 0
-87 -305 -481 1803 0
307 213 126 1804 0
54 -101 371 1805 0
47 303 -315 1806 0
78 253 471 1807 0
-167 118 365 1808 0
242 35 -281 1809 0
-122 -118 258 1810 0
-164 221 377 1811 0
250 150 -237 1812 0
-440 118 204 1813 0
-202 -271 158 1814 0
-485 50 -183 1815 0
114 -216 334 1816 0
16 -485 18 1817 0
336 -88 466 1818 0
436 63 -58 1819 0
-347 -22 378 1820 0
-54 -225 -62 1821 0
-472 7 440 1822 0
-336 78 -385 1823 0
454 -245 44 1824 0
-93 -37 -281 1825 0
372 309 -373 1826 0
371 -220 -397 1827 0
-84 -457 106 1828 0
-467 416 -87 1829 0
129 86 -24 1830 0
471 -48 -206 1831 0
17 367 63 1832 0
-55 396 -12 1833 0
-110 1 -225 1834 0
-497 77 148 1835 0
-126 438 205 1836 0
220 -181 261 1837 0
-198 -141 -145 1838 0
182 435 268 1839 0
-303 -273 -484 1840 0
138 -162 -499 1841 0
338 -21 191 1842 0
49 -130 258 1843 0
420 255 -160 1844 0
349 369 -402 1845 0
271 351 -348 1846 0
-368 -146 466 1847 0
-232 -145 108 1848 0
-50 348 59 1849 0
-34 -264 487 1850 0
-406 -426 241 1851 0
206 -186 -448 1852 0
-227 -328 -324 1853 0
126 -49 420 1854 0
-175 450 -381 1855 0
135 -100 241 1856 0
225 -287 -325 1857 0
-132 -48 61 1858 0
350 152 -365 1859 0
466 -175 -478 1860 0
-61 10 -393 1861 0
201 -105 487 1862 0
21 -222 -312 1863 0
-139 28 -48 1864 0
271 -313 118 1865 0
296 221 222 1866 0
97 -11 -288 1867 0
26 445 215 1868 0
16 273 -282 1869 0
193 38 354 1870 0
-347 -116 -473 1871 0
-289 -270 -417 1872 0
499 -439 341 1873 0
331 478 54 1874 0
-169 201 53 1875 0
34 -441 478 1876 0
-27 60 108 1877 0
-439 200 -308 1878 0
-394 -188 -78 1879 0
-42 -423 408 1880 0
-361 -51 -111 1881 0
-8 -235 276 1882 0
-272 -161 299 1883 0
15 47 -112 1884 0
147 -276 -163 1885 0
-485 147 -332 1886 0
-126 464 -80 1887 0
-325 429 438 1888 0
-186 -349 -259 1889 0
57 261 385 1890 0
380 229 402 1891 0
249 -215 -438 1892 0
185 -20 -80 1893 0
-54 332 -10 1894 0
-51 200 -375 1895 0
458 357 -84 1896 0
-296 110 460 1897 0
487 326 -99 1898 0
-279 280 81 1899 0
-155 413 75 1900 0
-449 72 462 1901 0
-39 38 -81 1902 0
387 77 258 1903 0
439 -429 445 1904 0
401 466 458 1905 0
84 -49 219 1906 0
-38 123 -280 1907 0
412 138 42 1908 0
-18 260 -440 1909 0
-401 -500 -208 1910 0
-163 -386 -234 1911 0
355 322 364 1912 0
-418 -70 98 1913 0
327 -5 319 1914 0
403 -243 -59 1915 0
-300 -186 -297 1916 0
-347 51 197 1917 0
-90 -134 298 1918 0
-140 162 -345 1919 0
273 452 -314 1920 0
416 -212 -106 1921 0
446 -13 -62 1922 0
21 170 487 1923 0
-230 -474 -368 1924 0
-46 -136 385 1925 0
188 -467 198 1926 0
483 29 491 1927 0
-359 119 -225 1928 0
-281 -435 -462 1929 0
-427 494 405 1930 0
-366 -453 252 1931 0
303 323 -271 1932 0
50 127 141 1933 0
341 223 191 1934 0
54 -26 455 1935 0
-214 54 -363 1936 0
-161 -309 393 1937 0
497 314 19 1938 0
-96 487 -101 1939 0
-321 338 -170 1940 0
132 -1 295 1941 0
34 184 382 1942 0
9 440 253 1943 0
197 -352 -487 1944 0
-37 369 244 1945 0
-135 -221 -250 1946 0
287 -388 -263 1947 0
-54 294 -448 1948 0
-158 114 447 1949 0
-162 -382 344 1950 0
166 123 -500 1951 0
-368 111 121 1952 0
50 -498 463 1953 0
-62 -271 -469 1954 0
-117 437 -70 1955 0
349 -440 107 1956 0
154 -164 492 1957 0
17 158 58 1958 0
-273 -15 -479 1959 0
32 -35 221 1960 0
485 316 441 1961 0
389 142 290 1962 0
484 131 -219 1963 0
-18 352 -324 1964 0
-394 60 -55 1965 0
111 -194 234 1966 0
-124 72 431 1967 0
-346 206 93 1968 0
160 473 275 1969 0
293 -260 -493 1970 0
-291 -27 179 1971 0
97 36 341 1972 0
79 140 492 1973 0
449 -71 -232 1974 0
204 136 -260 1975 0
323 302 -145 1976 0
114 -296 -116 1977 0
-382 -430 79 1978 0
-15 -81 43 1979 0
55 -16 493 1980 0
93 -471 172 1981 0
352 239 -365 1982 0
-83 124 -366 1983 0
-453 366 271 1984 0
66 -63 -395 1985 0
149 -424 -42 1986 0
429 478 84 1987 0
356 -283 -239 1988 0
272 225 336 1989 0
49 -130 -475 1990 0
419 231 20 1991 0
460 82 32 1992 0
-332 -246 -465 1993 0
456 396 177 1994 0
-242 -430 469 1995 0
465 174 202 1996 0
429 475 -1 1997 0
-6 399 12 1998 0
-470 -294 134 1999 0
267 -305 291 2000 0
-24 355 -362 2001 0
41 -95 -152 2002 0
296 -476 478 2003 0
425 260 139 2004 0
-17 -239 -6 2005 0
7 331 -426 2006 0
38 458 142 2007 0
-91 -409 -381 2008 0
252 -24 -41 2009 0
-435 -144 440 2010 0
186 -494 156 2011 0
241 -178 415 2012 0
-149 76 -287 2013 0
65 -72 -248 2014 0
-398 -167 49 2015 0
-92 -211 62 2016 0
-147 360 476 2017 0
279 111 -267 2018 0
468 336 -130 2019 0
-403 81 -113 2020 0
165 -77 -73 2021 0
-241 -130 -169 2022 0
-23 -131 254 2023 0
51 6 161 2024 0
73 -253 26 2025 0
-45 271 307 2026 0
259 81 -239 2027 0
-115 455 142 2028 0
-313 209 277 2029 0
-498 -406 -57 2030 0
-467 -40 416 2031 0
135 358 -150 2032 0
126 288 -348 2033 0
-385 195 41 2034 0
-466 160 215 2035 0
-123 69 378 2036 0
486 -229 41 2037 0
-277 -481 439 2038 0
-155 -179 440 2039 0
-477 -262 345 2040 0
440 -298 137 2041 0
-467 -227 -267 2042 0
333 300 -63 2043 0
468 438 -378 2044 0
360 -162 422 2045 0
-395 473 230 2046 0
292 256 -426 2047 0
138 -217 -148 2048 0
-202 371 251 2049 0
-365 281 -235 2050 0
-362 36 347 2051 0
465 -281 9 2052 0
-467 -194 -49 2053 0
486 -470 357 2054 0
-111 -206 -473 2055 0
-29 331 259 2056 0
-232 -362 85 2057 0
282 289 -37 2058 0
330 281 102 2059 0
-89 -477 -200 2060 0
476 91 297 2061 0
-171 390 16 2062 0
-123 -56 419 2063 0
-133 -220 222 2064 0
-192 438 -340 2065 0
-254 27 24 2066 0
-400 -46 -325 2067 0
110 -260 -307 2068 0
401 6 320 2069 0
442 362 -77 2070 0
40 348 452 2071 0
-474 -250 -144 2072 0
-209 142 239 2073 0
11 406 -57 2074 0
159 125 -439 2075 0
-326 422 -253 2076 0
263 -239 472 2077 0
41 -367 478 2078 0
465 163 -127 2079 0
112 18 -473 2080 0
433 -188 -226 2081 0
-422 -84 56 2082 0
-479 -228 -57 2083 0
-295 249 78 2084 0
361 -464 -171 2085 0
-132 348 211 2086 0
189 30 -370 2087 0
65 265 -129 2088 0
-100 144 -276 2089 0
428 285 322 2090 0
-211 217 -5 2091 0
-1 -245 47 2092 0
289 -417 -429 2093 0
460 -364 386 2094 0
152 -72 414 2095 0
-114 -181 -258 2096 0
-337 3 407 2097 0
-280 -227 -113 2098 0
65 54 -247 2099 0
202 -474 158 2100 0
-156 -249 -476 2101 0
-199 -327 -490 2102 0
158 349 -96 2103 0
-72 228 -328 2104 0
486 -112 -374 2105 0
481 422 -36 2106 0
-272 -172 -119 2107 0
103 14 -311 2108 0
217 6 -1 2109 0
275 361 367 2110 0
-442 -199 -263 2111 0
432 74 -238 2112 0
290 -370 268 2113 0
-447 224 -373 2114 0
194 -356 -72 2115 0
44 149 -204 2116 0
-376 -90 321 2117 0
-52 271 254 2118 0
-263 452 -399 2119 0
-397 93 -413 2120 0
333 -353 32 2121 0
154 -40 -172 2122 0
-400 -222 -100 2123 0
-334 -383 -497 2124 0
-173 194 272 2125 0
188 29 -98 2126 0
-314 165 -180 2127 0
44 -305 -46 2128 0
73 -184 -61 2129 0
-278 107 -33 2130 0
330 277 43 2131 0
-225 -283 -307 2132 0
-142 316 28 2133 0
-470 -112 -500 2134 0
-370 -155 -413 2135 0
-417 361 416 2136 0
368 356 -100 2137 0
224 -280 292 2138 0
-13 -293 228 2139 0
-457 362 -181 2140 0
335 438 -18 2141 0
21 20 -320 2142 0
145 -294 -479 2143 0
399 434 -298 2144 0
452 -361 -359 2145 0
447 109 -390 2146 0
102 -311 -233 2147 0
-252 480 -284 2148 0
304 331 -496 2149 0
400 -318 -445 2150 0
-353 488 -43 2151 0
-473 437 263 2152 0
-468 232 469 2153 0
-323 -179 266 2154 0
-353 472 -276 2155 0
55 -351 -436 2156 0
169 419 -393 2157 0
418 297 -7 2158 0
-166 422 -259 2159 0
-457 380 330 2160 0
339 8 47 2161 0
-89 12 -208 2162 0
-486 -285 -249 2163 0
160 -186 40 2164 0
415 87 -224 2165 0
-42 225 246 2166 0
-389 343 150 2167 0
-46 242 -374 2168 0
29 440 -265 2169 0
418 -126 -243 2170 0
154 357 76 2171 0
-456 -310 218 2172 0
-152 -352 -387 2173 0
-410 -459 288 2174 0
-77 -94 214 2175 0
-384 -306 -58 2176 0
355 259 -460 2177 0
-490 -84 95 2178 0
188 483 240 2179 0
-102 -95 65 2180 0
-197 327 200 2181 0
291 -289 162 2182 0
341 -408 180 2183 0
32 -322 279 2184 0
-458 -307 -484 2185 0
-367 81 -311 2186 0
4 -457 303 2187 0
-44 136 -161 2188 0
8 438 31 2189 0
-455 -469 385 2190 0
63 -313 -405 2191 0
91 205 320 2192 0
-66 348 -355 2193 0
304 -377 -366 2194 0
-453 -97 -247 2195 0
-469 -297 -268 2196 0
213 -144 193 2197 0
104 -376 -263 2198 0
-19 411 -245 2199 0
-32 50 -343 2200 0
-45 -193 483 2201 0
30 -386 -161 2202 0
-188 15 -79 2203 0
-42 -252 -365 2204 0
-357 -397 -98 2205 0
-119 -168 335 2206 0
377 157 478 2207 0
-37 227 -260 2208 0
-482 -472 -188 2209 0
-354 -186 -239 2210 0
-451 436 464 2211 0
72 -379 164 2212 0
-348 105 -408 2213 0
-327 -363 -265 2214 0
401 199 -395 2215 0
119 -458 99 2216 0
-237 -215 235 2217 0
397 -209 252 2218 0
-435 161 403 2219 0
405 339 365 2220 0
243 -453 83 2221 0
139 -492 228 2222 0
156 242 40 2223 0
-406 -138 -62 2224 0
-327 111 167 2225 0
187 -241 -83 2226 0
489 -24 465 2227 0
-311 -398 447 2228 0
106 -120 -9 2229 0
23 -470 -358 2230 0
-313 -270 -1 2231 0
132 -221 483 2232 0
476 401 187 2233 0
-140 240 421 2234 0
-78 -127 142 2235 0
230 72 424 2236 0
-131 425 377 2237 0
-80 -266 -430 2238 0
-403 328 304 2239 0
321 -17 85 2240 0
-68 -258 -4 2241 0
226 -227 -76 2242 0
-192 15 -367 2243 0
20 477 -163 2244 0
112 -323 -42 2245 0
139 480 135 2246 0
-50 -81 17 2247 0
-379 102 441 2248 0
382 435 -83 2249 0
348 148 -352 2250 0
43 373 -111 2251 0
205 27 459 2252 0
411 -216 -211 2253 0
254 -493 -50 2254 0
-208 424 366 2255 0
380 -408 458 2256 0
-65 -49 466 2257 0
-347 -13 -99 2258 0
193 447 391 2259 0
-23 -233 195 2260 0
317 370 356 2261 0
-423 -95 245 2262 0
-243 417 -173 2263 0
-371 -391 -299 2264 0
-64 435 -373 2265 0
315 -57 -87 2266 0
194 -187 31 2267 0
-192 -18 -277 2268 0
353 -494 377 2269 0
-73 -424 259 2270 0
281 69 -329 2271 0
296 -493 38 2272 0
109 -445 -123 2273 0
-446 -451 -285 2274 0
379 428 -438 2275 0
-166 -107 344 2276 0
109 174 -387 2277 0
59 460 -378 2278 0
-259 377 -7 2279 0
47 35 -212 2280 0
369 -465 17 2281 0
-111 -281 95 2282 0
-129 -158 -65 2283 0
-91 -105 -152 2284 0
-27 -47 7 2285 0
-373 -446 251 2286 0
340 -50 -457 2287 0
-53 405 175 2288 0
52 411 -170 2289 0
-465 446 -249 2290 0
-289 -486 -318 2291 0
480 -285 -141 2292 0
300 -24 -224 2293 0
370 -230 -277 2294 0
-198 44 345 2295 0
-221 296 376 2296 0
189 325 42 2297 0
-287 -235 318 2298 0
-68 -289 -221 2299 0
-386 376 385 2300 0
-333 -397 148 2301 0
347 -500 -212 2302 0
394 387 -465 2303 0
467 -204 -274 2304 0
65 -326 -401 2305 0
-265 264 -258 2306 0
-194 -157 -456 2307 0
419 -195 -381 2308 0
-438 -280 98 2309 0
62 -341 400 2310 0
-325 -362 -305 2311 0
23 200 -480 2312 0
-358 -458 233 2313 0
-400 -457 -165 2314 0
-476 375 -71 2315 0
-366 -168 113 2316 0
381 -337 497 2317 0
-135 -427 259 2318 0
-114 329 -18 2319 0
-257 -161 -332 2320 0
-379 -209 446 2321 0
-432 -377 478 2322 0
-144 1 -104 2323 0
-259 -226 -134 2324 0
-393 370 108 2325 0
-10 18 430 2326 0
-496 386 370 2327 0
-26 100 -103 2328 0
-330 -360 -239 2329 0
-191 385 68 2330 0
-102 -278 59 2331 0
-240 307 -20 2332 0
-165 338 -83 2333 0
450 389 -118 2334 0
-1 485 154 2335 0
-306 -261 277 2336 0
-92 -430 -451 2337 0
118 -383 -475 2338 0
140 35 6 2339 0
172 -306 -324 2340 0
-400 -177 388 2341 0
-322 -67 208 2342 0
-22 -467 -84 2343 0
-121 441 -179 2344 0
300 112 -174 2345 0
469 479 -116 2346 0
71 -32 440 2347 0
350 -394 -371 2348 0
188 375 394 2349 0
-213 476 339 2350 0
-307 246 358 2351 0
-203 89 -491 2352 0
279 105 57 2353 0
406 411 279 2354 0
71 339 -140 2355 0
-144 -192 193 2356 0
-105 266 436 2357 0
43 -205 -468 2358 0
-135 -153 140 2359 0
-122 178 274 2360 0
-297 -309 292 2361 0
-157 -481 -445 2362 0
-466 -206 339 2363 0
500 -400 -433 2364 0
-244 42 138 2365 0
-91 302 -14 2366 0
383 -478 -195 2367 0
169 322 -429 2368 0
479 170 -317 2369 0
-450 7 -414 2370 0
1 -326 267 2371 0
440 -253 429 2372 0
-431 -54 -313 2373 0
-37 374 -447 2374 0
211 194 -257 2375 0
231 -198 -365 2376 0
274 69 -445 2377 0
-166 -136 253 2378 0
-205 -189 311 2379 0
297 -292 385 2380 0
227 -44 -288 2381 0
-385 -156 329 2382 0
-343 -334 29 2383 0
367 -283 -264 2384 0
485 -111 -373 2385 0
278 464 -453 2386 0
-15 -312 -500 2387 0
-420 117 -1 2388 0
-42 -128 177 2389 0
477 175 -250 2390 0
-248 210 333 2391 0
-354 197 411 2392 0
-313 437 -485 2393 0
448 352 160 2394 0
60 -19 156 2395 0
-223 -302 -494 2396 0
428 362 457 2397 0
-15 217 421 2398 0
-221 453 -18 2399 0
132 -208 417 2400 0
489 93 68 2401 0
275 -461 408 2402 0
-483 23 228 2403 0
103 481 490 2404 0
-389 317 -444 2405 0
437 65 -183 2406 0
148 419 230 2407 0
225 -289 -243 2408 0
-461 201 314 2409 0
311 143 156 2410 0
227 442 -497 2411 0
305 -68 448 2412 0
-28 -288 219 2413 0
-144 16 -257 2414 0
131 -436 -356 2415 0
-164 -483 362 2416 0
-459 -447 190 2417 0
368 434 109 2418 0
-414 -238 149 2419 0
266 343 -4 2420 0
426 246 279 2421 0
82 424 -110 2422 0
121 -259 -113 2423 0
305 -442 -205 2424 0
172 280 16 2425 0
431 -104 -230 2426 0
343 498 -260 2427 0
-499 34 -75 2428 0
-435 -455 7 2429 0
395 4 -201 2430 0
67 -356 371 2431 0
-137 -451 330 2432 0
216 56 349 2433 0
-106 -80 273 2434 0
-468 -460 -156 2435 0
-494 255 -384 2436 0
269 74 179 2437 0
-263 -355 164 2438 0
-87 -75 437 2439 0
477 296 373 2440 0
81 238 443 2441 0
432 104 470 2442 0
-112 395 -321 2443 0
110 -439 251 2444 0
40 -327 -479 2445 0
375 -256 -176 2446 0
-278 398 238 2447 0
280 -372 110 2448 0
-263 -116 -366 2449 0
-440 -74 -446 2450 0
293 160 -8 2451 0
-72 287 -109 2452 0
105 107 -106 2453 0
17 300 -305 2454 0
-2 -278 484 2455 0
134 486 341 2456 0
380 387 352 2457 0
214 388 181 2458 0
186 -392 71 2459 0
315 44 296 2460 0
192 486 -236 2461 0
490 -452 51 2462 0
446 -365 361 2463 0
-3 437 480 2464 0
31 -442 100 2465 0
264 485 189 2466 0
35 -470 -278 2467 0
108 363 330 2468 0
212 154 -331 2469 0
213 109 334 2470 0
233 68 -24 2471 0
-332 20 11 2472 0
240 -189 167 2473 0
114 -350 -460 2474 0
-363 -232 140 2475 0
-50 209 54 2476 0
427 -352 -294 2477 0
323 124 300 2478 0
-395 44 -470 2479 0
-32 -272 -138 2480 0
-221 -187 -443 2481 0
303 149 179 2482 0
-96 -156 375 2483 0
-204 -348 497 2484 0
17 298 7 2485 0
-125 -93 479 2486 0
372 93 -489 2487 0
-50 -450 95 2488 0
-462 139 430 2489 0
-34 -7 -139 2490 0
309 487 -361 2491 0
192 -2 438 2492 0
-408 -357 -130 2493 0
-269 -356 -56 2494 0
435 199 321 2495 0
-171 -100 16 2496 0
441 35 -476 2497 0
94 74 -27 2498 0
-80 433 -94 2499 0
111 -155 -292 2500 0
267 432 142 2501 0
-93 -412 90 2502 0
447 298 322 2503 0
231 377 49 2504 0
466 2 336 2505 0
360 -383 -222 2506 0
-312 -74 370 2507 0
-48 434 -188 2508 0
11 -149 -195 2509 0
-7 -98 91 2510 0
-69 236 489 2511 0
-492 -341 318 2512 0
86 -118 174 2513 0
472 -39 -270 2514 0
74 198 -79 2515 0
-3 -480 204 2516 0
-193 -231 -474 2517 0
-203 21 156 2518 0
-168 -310 -35 2519 0
-391 158 -11 2520 0
-470 -308 -247 2521 0
-207 495 117 2522 0
-22 209 -323 2523 0
280 129 -161 2524 0
436 109 462 2525 0
-64 -71 108 2526 0
-317 226 435 2527 0
159 -296 170 2528 0
43 -500 285 2529 0
-392 344 83 2530 0
-492 371 -459 2531 0
-261 -492 61 2532 0
-206 -465 -499 2533 0
-152 -376 -364 2534 0
-96 253 -256 2535 0
146 401 -86 2536 0
22 -271 -137 2537 0
-326 43 -41 2538 0
314 -115 -454 2539 0
430 340 -265 2540 0
104 -473 303 2541 0
-162 442 433 2542 0
312 411 -496 2543 0
273 -194 -68 2544 0
-275 96 -414 2545 0
-25 -273 -214 2546 0
-156 444 134 2547 0
371 -369 -252 2548 0
-496 26 -469 2549 0
157 -71 324 2550 0
-194 -149 57 2551 0
-57 393 -196 2552 0
257 181 -132 2553 0
226 481 -110 2554 0
-41 106 241 2555 0
-108 -223 -316 2556 0
-302 -186 -458 2557 0
271 -190 -257 2558 0
289 51 350 2559 0
328 86 489 2560 0
191 410 69 2561 0
383 -283 488 2562 0
24 392 235 2563 0
241 323 -463 2564 0
249 -121 -407 2565 0
76 74 117 2566 0
75 498 -260 2567 0
-93 -397 -176 2568 0
-199 -490 -327 2569 0
22 116 -421 2570 0
-159 239 -178 2571 0
-331 50 -215 2572 0
-480 -345 378 2573 0
-54 204 -364 2574 0
-230 -344 -274 2575 0
164 426 344 2576 0
285 -423 320 2577 0
-402 202 -409 2578 0
-483 183 -474 2579 0
85 145 346 2580 0
168 309 481 2581 0
-1 -31 -20 2582 0
324 -437 47 2583 0
9 -323 -143 2584 0
-57 192 -98 2585 0
236 -382 301 2586 0
-465 348 325 2587 0
397 -247 -89 2588 0
-299 362 320 2589 0
-147 -260 -114 2590 0
-158 463 -209 2591 0
-354 283 -5 2592 0
448 -388 261 2593 0
-488 -413 -175 2594 0
419 179 -220 2595 0
-403 174 352 2596 0
483 -14 -111 2597 0
-398 -120 -345 2598 0
362 -158 351 2599 0
-394 359 -371 2600 0
484 347 -249 2601 0
183 -104 47 2602 0
-6 -121 288 2603 0
-98 77 -392 2604 0
-389 418 -193 2605 0
-55 194 497 2606 0
-288 -449 -273 2607 0
-345 233 -54 2608 0
22 137 228 2609 0
-468 425 -197 2610 0
224 213 233 2611 0
42 199 -481 2612 0
-324 437 -151 2613 0
204 -213 245 2614 0
363 -426 220 2615 0
-321 -187 -122 2616 0
292 163 371 2617 0
360 -440 181 2618 0
-433 -43 261 2619 0
-233 490 178 2620 0
-120 -380 282 2621 0
381 166 -407 2622 0
445 -499 223 2623 0
-386 150 22 2624 0
323 -274 230 2625 0
-57 378 -355 2626 0
-237 87 480 2627 0
-400 200 -181 2628 0
-125 -256 -188 2629 0
-27 372 -60 2630 0
6 142 270 2631 0
175 396 263 2632 0
-132 243 373 2633 0
-474 -54 129 2634 0
294 219 -24 2635 0
141 -240 314 2636 0
-496 -489 -493 2637 0
331 -351 -435 2638 0
-105 432 -8 2639 0
-272 -171 87 2640 0
364 222 -114 2641 0
11 473 281 2642 0
402 4 -24 2643 0
448 34 142 2644 0
-368 62 255 2645 0
82 -194 363 2646 0
324 -142 -496 2647 0
-53 -288 -68 2648 0
265 -363 -165 2649 0
-175 -179 120 2650 0
