p cnf 2650 2150
136 -415 162 501 0
-305 -307 265 502 0
368 -491 480 503 0
118 398 -238 504 0
207 -197 -465 505 0
-237 402 37 506 0
152 464 140 507 0
159 182 -380 508 0
180 -123 -446 509 0
-152 496 -113 510 0
68 314 -415 511 0
90 -382 245 512 0
60 451 -251 513 0
351 -191 -396 514 0
332 -8 410 515 0
42 -281 192 516 0
396 -192 -494 517 0
-416 -295 417 518 0
180 165 -60 519 0
427 309 384 520 0
317 -104 16 521 0
-480 -48 290 522 0
-20 379 -202 523 0
-79 442 -61 524 0
93 -481 280 525 0
-118 259 -70 526 0
-245 -83 66 527 0
136 -273 439 528 0
-176 -166 -18 529 0
-157 320 -497 530 0
-51 -73 -221 531 0
5 -248 252 532 0
228 478 190 533 0
-410 -285 426 534 0
50 -277 -348 535 0
-30 -318 -19 536 0
211 -99 -223 537 0
169 -259 -395 538 0
-359 318 63 539 0
464 192 -376 540 0
-161 37 -195 541 0
-363 -154 -327 542 0
233 -378 477 543 0
-336 66 -5 544 0
245 -306 -481 545 0
-113 -135 81 546 0
268 203 171 547 0
451 -174 -17 548 0
-71 92 111 549 0
1 -93 143 550 0
354 -166 -55 551 0
-429 79 419 552 0
331 -55 -486 553 0
-10 -215 286 554 0
110 -420 361 555 0
391 -114 420 556 0
29 262 185 557 0
-441 459 -491 558 0
-404 104 -439 559 0
497 -233 -429 560 0
-187 -478 206 561 0
-388 268 -440 562 0
100 447 309 563 0
89 -364 -303 564 0
-341 132 426 565 0
-459 -162 -379 566 0
-251 -252 -169 567 0
72 152 -133 568 0
312 -291 479 569 0
-409 -414 96 570 0
165 316 -398 571 0
315 -187 -193 572 0
499 -123 19 573 0
312 332 -165 574 0
167 -158 278 575 0
-61 282 111 576 0
-5 -170 414 577 0
318 -274 126 578 0
139 254 293 579 0
474 126 -462 580 0
-430 -436 5 581 0
-97 366 482 582 0
292 257 52 583 0
-149 256 -368 584 0
-418 223 74 585 0
-284 -415 70 586 0
-11 -325 251 587 0
-312 -323 414 588 0
366 291 300 589 0
-263 255 -75 590 0
104 -337 226 591 0
-494 -2 -91 592 0
-297 -263 -151 593 0
-480 -250 -95 594 0
-21 -274 22 595 0
-380 301 162 596 0
-397 -278 7 597 0
-500 153 98 598 0
206 -364 -442 599 0
256 198 -278 600 0
467 -338 158 601 0
-418 -55 -64 602 0
-452 -143 485 603 0
-228 441 -409 604 0
-166 -222 -206 605 0
-327 -35 101 606 0
-418 101 -70 607 0
-48 313 271 608 0
145 -119 -422 609 0
-320 -110 -216 610 0
331 313 463 611 0
-477 325 231 612 0
85 -28 484 613 0
-67 -49 34 614 0
-311 17 -449 615 0
-71 -194 -433 616 0
362 -57 303 617 0
46 -143 418 618 0
277 81 177 619 0
-64 280 407 620 0
-68 -111 -262 621 0
-232 -189 328 622 0
-384 174 -499 623 0
416 244 -42 624 0
95 479 499 625 0
-140 88 -59 626 0
-82 -43 124 627 0
100 166 401 628 0
107 -4 263 629 0
-265 290 -479 630 0
39 -186 -355 631 0
466 -124 8 632 0
-336 -170 75 633 0
-498 325 328 634 0
470 -309 71 635 0
19 152 -368 636 0
-497 179 -346 637 0
219 -215 359 638 0
294 -335 412 639 0
457 -332 -471 640 0
61 -256 -9 641 0
50 313 -237 642 0
-55 292 172 643 0
143 347 284 644 0
209 305 310 645 0
-249 361 52 646 0
-433 -3 484 647 0
187 5 -474 648 0
380 325 -70 649 0
-403 252 374 650 0
-322 185 -460 651 0
-436 492 459 652 0
184 10 445 653 0
-268 12 91 654 0
241 255 357 655 0
-163 416 -485 656 0
335 133 286 657 0
161 235 -430 658 0
350 96 265 659 0
-236 -20 315 660 0
222 -72 391 661 0
153 -192 -358 662 0
459 317 -351 663 0
475 345 -145 664 0
-321 438 -388 665 0
358 17 244 666 0
226 197 189 667 0
158 435 104 668 0
368 314 -412 669 0
161 -317 -332 670 0
-59 70 24 671 0
23 -335 94 672 0
122 213 -78 673 0
293 -330 -21 674 0
-257 162 123 675 0
-156 394 -308 676 0
-60 -121 111 677 0
255 -487 -495 678 0
335 307 -250 679 0
-147 349 -97 680 0
224 -478 -395 681 0
16 -267 118 682 0
16 -66 -453 683 0
-433 185 192 684 0
-187 246 466 685 0
479 -430 385 686 0
-346 -98 -435 687 0
51 232 500 688 0
72 -157 -76 689 0
435 162 -245 690 0
-12 294 373 691 0
496 416 -374 692 0
39 387 -251 693 0
-161 463 494 694 0
-129 182 -370 695 0
373 -189 -241 696 0
-333 -260 -67 697 0
455 -433 -466 698 0
-214 128 54 699 0
289 392 -118 700 0
487 195 -280 701 0
-107 202 -119 702 0
-326 160 -181 703 0
408 -269 -293 704 0
-126 69 -5 705 0
178 299 66 706 0
271 456 491 707 0
3 234 358 708 0
-410 -460 230 709 0
332 40 -80 710 0
-439 -352 -489 711 0
-449 361 138 712 0
-381 224 -396 713 0
-28 -289 469 714 0
493 182 33 715 0
170 -47 -334 716 0
264 248 453 717 0
298 -253 407 718 0
-282 99 -213 719 0
-140 87 2 720 0
266 -155 500 721 0
329 -345 93 722 0
309 300 248 723 0
-387 140 -48 724 0
-488 167 40 725 0
287 -89 -57 726 0
405 -27 -319 727 0
47 54 270 728 0
470 -30 -309 729 0
116 270 446 730 0
78 388 -152 731 0
-485 335 -463 732 0
-379 -327 -96 733 0
272 47 468 734 0
-444 -213 430 735 0
-246 347 228 736 0
-493 402 -121 737 0
-470 -156 432 738 0
343 76 -361 739 0
-259 144 -308 740 0
-83 409 -156 741 0
-369 166 -341 742 0
78 -129 500 743 0
-298 205 -130 744 0
-184 47 -296 745 0
-382 397 10 746 0
379 477 -281 747 0
458 -60 -408 748 0
-408 443 -177 749 0
233 -445 -123 750 0
122 104 -423 751 0
459 305 -183 752 0
-464 -307 -121 753 0
188 403 177 754 0
131 -295 461 755 0
-354 -303 -369 756 0
-334 215 -255 757 0
-168 408 431 758 0
-250 -364 439 759 0
497 190 333 760 0
-225 495 292 761 0
403 116 332 762 0
139 487 -375 763 0
170 314 -249 764 0
332 254 -477 765 0
-163 -195 15 766 0
-51 196 -169 767 0
416 246 165 768 0
254 -267 76 769 0
-295 -428 -328 770 0
176 -75 111 771 0
474 -24 40 772 0
329 -444 -195 773 0
117 332 -23 774 0
-321 420 -456 775 0
433 349 -129 776 0
-43 80 -430 777 0
-209 -400 -382 778 0
65 -307 212 779 0
388 -16 277 780 0
-165 -183 133 781 0
-201 -465 430 782 0
-366 492 24 783 0
-460 -157 247 784 0
-234 -127 314 785 0
311 -52 -172 786 0
91 274 341 787 0
-94 305 -229 788 0
-211 404 -299 789 0
-456 335 199 790 0
371 434 238 791 0
-371 80 389 792 0
333 427 361 793 0
128 316 -200 794 0
-36 -342 -500 795 0
-134 203 425 796 0
-193 -343 -348 797 0
110 -18 -176 798 0
79 -15 495 799 0
189 374 -426 800 0
-381 -217 -445 801 0
-393 256 -159 802 0
268 403 273 803 0
35 461 -151 804 0
-318 -312 -23 805 0
47 -22 -48 806 0
500 347 106 807 0
341 -62 -6 808 0
319 -127 -65 809 0
-328 187 -201 810 0
445 316 179 811 0
-165 -498 267 812 0
175 -377 -137 813 0
-30 -113 -408 814 0
136 -271 -9 815 0
66 61 -455 816 0
-402 328 397 817 0
-4 183 -452 818 0
162 -114 309 819 0
48 -208 471 820 0
255 330 440 821 0
-119 292 13 822 0
-106 -231 -201 823 0
-480 -334 -377 824 0
76 219 -7 825 0
217 -73 -243 826 0
487 -240 325 827 0
-475 -424 -456 828 0
-460 -134 -1 829 0
-355 -334 390 830 0
-260 404 -452 831 0
-453 -141 136 832 0
87 156 440 833 0
-208 478 -152 834 0
309 -236 -268 835 0
480 2 92 836 0
-19 164 -25 837 0
235 241 10 838 0
432 -259 -232 839 0
-77 -81 -24 840 0
-149 242 491 841 0
-342 259 317 842 0
472 77 117 843 0
118 227 431 844 0
267 487 -55 845 0
-324 77 468 846 0
397 164 -428 847 0
-104 -38 255 848 0
210 -4 161 849 0
452 -388 37 850 0
485 -309 -430 851 0
-96 -281 -334 852 0
394 353 -127 853 0
54 427 -55 854 0
-297 267 62 855 0
-453 -185 55 856 0
493 -165 51 857 0
227 20 433 858 0
-326 141 -282 859 0
-447 472 422 860 0
24 -111 155 861 0
70 90 -130 862 0
238 254 160 863 0
-58 -209 -101 864 0
-151 -76 88 865 0
447 -131 310 866 0
-204 475 198 867 0
-394 326 253 868 0
13 -446 484 869 0
455 421 359 870 0
202 38 -420 871 0
190 168 442 872 0
-496 324 -71 873 0
-212 466 -46 874 0
452 492 279 875 0
-17 75 -192 876 0
190 -174 -42 877 0
337 -307 412 878 0
-70 -159 -124 879 0
415 177 429 880 0
256 356 -346 881 0
203 151 -74 882 0
-361 -2 -22 883 0
357 185 276 884 0
324 -37 -213 885 0
302 -39 58 886 0
2 363 488 887 0
225 389 294 888 0
-181 -118 -325 889 0
-27 379 -369 890 0
305 329 210 891 0
-36 151 176 892 0
431 466 414 893 0
205 314 -225 894 0
-485 -333 -9 895 0
113 -15 98 896 0
83 199 -59 897 0
-411 340 -228 898 0
244 224 132 899 0
310 -12 -142 900 0
327 187 -294 901 0
258 17 -499 902 0
66 455 -184 903 0
263 380 -478 904 0
-181 -120 16 905 0
288 283 187 906 0
-35 185 263 907 0
-423 90 25 908 0
-121 487 -231 909 0
-417 -99 420 910 0
5 -171 -251 911 0
117 -475 -85 912 0
481 -476 -345 913 0
437 152 -279 914 0
-442 421 -239 915 0
-34 213 126 916 0
-248 -454 12 917 0
-181 -180 -56 918 0
-470 201 430 919 0
492 192 -248 920 0
362 388 499 921 0
448 174 163 922 0
110 99 285 923 0
182 456 77 924 0
487 -489 167 925 0
156 -433 -447 926 0
354 417 -477 927 0
-359 -91 94 928 0
202 -41 -304 929 0
-276 -494 68 930 0
-164 104 -377 931 0
-215 -25 -13 932 0
-229 430 -202 933 0
-139 -297 -453 934 0
330 344 -231 935 0
-192 -344 -421 936 0
-176 -112 339 937 0
487 336 -263 938 0
32 146 78 939 0
155 72 -221 940 0
329 40 205 941 0
387 283 407 942 0
454 -53 349 943 0
-253 -354 -118 944 0
-454 -332 198 945 0
71 -37 -231 946 0
291 -270 47 947 0
-443 454 -237 948 0
-492 -354 -243 949 0
228 -17 207 950 0
369 271 366 951 0
81 -154 -198 952 0
-368 -73 143 953 0
-476 356 -291 954 0
209 222 204 955 0
-52 354 -302 956 0
-95 11 -486 957 0
-215 -183 340 958 0
343 -169 301 959 0
308 351 432 960 0
234 245 64 961 0
128 272 -192 962 0
-266 32 330 963 0
-339 -150 -403 964 0
-479 -142 -500 965 0
320 76 -371 966 0
434 -346 -469 967 0
190 396 -157 968 0
125 460 -299 969 0
252 210 184 970 0
-271 351 -344 971 0
453 -161 53 972 0
-258 295 -358 973 0
265 -22 -421 974 0
123 162 -458 975 0
378 -141 -206 976 0
454 -435 -94 977 0
-218 492 497 978 0
299 267 405 979 0
344 292 19 980 0
58 340 166 981 0
336 101 335 982 0
307 -134 -402 983 0
-322 43 -201 984 0
6 56 339 985 0
29 -102 -226 986 0
-276 154 275 987 0
238 -15 14 988 0
365 259 -316 989 0
-179 458 289 990 0
374 332 255 991 0
-477 -193 -205 992 0
107 496 343 993 0
-3 303 398 994 0
-120 -138 386 995 0
205 118 377 996 0
48 -408 -404 997 0
-404 -10 -493 998 0
-75 -174 -354 999 0
-404 13 482 1000 0
-61 160 69 1001 0
-375 126 118 1002 0
46 21 89 1003 0
-242 460 -159 1004 0
-269 130 54 1005 0
455 -123 400 1006 0
11 -116 -338 1007 0
-495 -362 302 1008 0
212 -102 -206 1009 0
-375 -235 -293 1010 0
314 -414 -373 1011 0
278 28 -485 1012 0
-367 360 423 1013 0
166 477 -264 1014 0
171 -434 -280 1015 0
-74 207 -245 1016 0
-190 -280 -82 1017 0
-100 244 -306 1018 0
103 157 32 1019 0
245 -114 402 1020 0
247 4 -482 1021 0
-340 -187 268 1022 0
-111 -422 -252 1023 0
-475 -419 -40 1024 0
155 -392 408 1025 0
-468 -203 176 1026 0
-34 456 358 1027 0
296 -112 324 1028 0
426 -232 -494 1029 0
84 204 -232 1030 0
-86 339 -248 1031 0
477 111 -328 1032 0
-272 350 -473 1033 0
-112 246 -53 1034 0
-149 -487 466 1035 0
470 -11 368 1036 0
463 -268 270 1037 0
307 189 330 1038 0
-412 450 284 1039 0
-296 206 273 1040 0
48 -474 -7 1041 0
1 -398 -474 1042 0
158 -115 251 1043 0
-81 148 -440 1044 0
-104 -306 -7 1045 0
433 384 262 1046 0
473 -227 45 1047 0
391 -307 -147 1048 0
-142 287 -350 1049 0
-329 -166 -270 1050 0
-55 -374 75 1051 0
-149 222 -312 1052 0
-160 383 278 1053 0
-241 3 -400 1054 0
431 -304 125 1055 0
306 -485 290 1056 0
-15 -7 -447 1057 0
415 -384 -231 1058 0
-245 50 -283 1059 0
239 -197 124 1060 0
-113 63 -385 1061 0
-35 -2 135 1062 0
336 -158 192 1063 0
-471 -430 -264 1064 0
-300 188 -197 1065 0
-51 -130 -143 1066 0
400 491 247 1067 0
314 -472 307 1068 0
-24 68 -300 1069 0
-32 -113 144 1070 0
-491 -433 -281 1071 0
-391 -481 121 1072 0
95 251 -426 1073 0
-152 301 -389 1074 0
-197 -221 182 1075 0
193 -23 338 1076 0
-350 480 -405 1077 0
-496 -282 -180 1078 0
310 457 350 1079 0
-146 329 -286 1080 0
314 14 366 1081 0
121 -306 -491 1082 0
-481 -231 71 1083 0
235 54 310 1084 0
-220 497 468 1085 0
-446 -172 -363 1086 0
-18 172 206 1087 0
138 -347 102 1088 0
-110 -330 -91 1089 0
424 305 -133 1090 0
6 -239 398 1091 0
122 81 37 1092 0
306 -319 -185 1093 0
253 -355 342 1094 0
-105 -161 -187 1095 0
47 -298 94 1096 0
427 303 -71 1097 0
238 -233 -145 1098 0
-137 171 234 1099 0
328 246 -101 1100 0
-395 178 435 1101 0
-246 228 244 1102 0
355 -412 243 1103 0
-305 162 -478 1104 0
-394 -224 -498 1105 0
-125 -244 -176 1106 0
188 396 364 1107 0
-266 483 28 1108 0
-333 247 -338 1109 0
-195 -58 456 1110 0
175 -314 -79 1111 0
135 83 -372 1112 0
-299 10 -39 1113 0
228 -464 -480 1114 0
485 137 285 1115 0
-493 401 281 1116 0
428 -70 460 1117 0
-493 326 -459 1118 0
-74 458 -13 1119 0
-79 6 -19 1120 0
-359 117 42 1121 0
432 183 -186 1122 0
-396 169 403 1123 0
247 140 256 1124 0
-155 -245 474 1125 0
11 -6 -192 1126 0
342 341 260 1127 0
-309 -221 -356 1128 0
-380 -480 -50 1129 0
248 295 -29 1130 0
95 -278 486 1131 0
12 -145 260 1132 0
31 -38 -384 1133 0
-91 334 -188 1134 0
259 -72 101 1135 0
415 149 485 1136 0
364 -436 -376 1137 0
-175 -331 -438 1138 0
315 386 -107 1139 0
327 425 54 1140 0
142 -469 -418 1141 0
-439 -177 -446 1142 0
422 -293 337 1143 0
454 -487 -192 1144 0
437 340 68 1145 0
-496 -74 -362 1146 0
-228 -95 -348 1147 0
-500 17 10 1148 0
338 327 -427 1149 0
-15 287 -289 1150 0
136 16 330 1151 0
184 156 312 1152 0
-166 498 146 1153 0
128 -109 321 1154 0
-161 -382 -354 1155 0
217 347 3 1156 0
477 276 -395 1157 0
-411 77 -265 1158 0
-30 -183 -397 1159 0
439 498 55 1160 0
-240 -418 -335 1161 0
-37 -497 -136 1162 0
324 -422 132 1163 0
96 -137 -271 1164 0
-333 -1 -332 1165 0
-302 -141 255 1166 0
349 100 -140 1167 0
388 43 -99 1168 0
-116 395 404 1169 0
81 -396 -403 1170 0
128 -115 -220 1171 0
443 362 154 1172 0
-394 380 282 1173 0
-203 225 -380 1174 0
-226 315 -222 1175 0
425 235 -301 1176 0
416 465 -363 1177 0
-39 16 307 1178 0
-249 334 -89 1179 0
242 -11 25 1180 0
-206 -215 77 1181 0
-410 69 60 1182 0
430 43 -37 1183 0
168 -418 -74 1184 0
476 231 -281 1185 0
280 212 -75 1186 0
-349 141 432 1187 0
330 95 -107 1188 0
-336 331 -33 1189 0
481 -446 -55 1190 0
-108 262 -267 1191 0
498 173 -367 1192 0
-481 320 -405 1193 0
107 91 24 1194 0
457 221 -294 1195 0
234 -17 146 1196 0
249 -271 -209 1197 0
295 -280 -189 1198 0
400 -122 -39 1199 0
-66 -218 358 1200 0
347 314 475 1201 0
-246 248 -358 1202 0
-61 147 140 1203 0
-315 -401 43 1204 0
256 347 16 1205 0
25 -205 -246 1206 0
-263 492 -128 1207 0
306 140 204 1208 0
182 258 297 1209 0
322 -150 -260 1210 0
303 -15 -486 1211 0
126 -228 338 1212 0
398 377 -248 1213 0
25 -341 -460 1214 0
66 -299 -462 1215 0
-240 -249 -11 1216 0
-343 -257 55 1217 0
309 120 -246 1218 0
-288 5 330 1219 0
-404 395 431 1220 0
82 -236 -478 1221 0
477 -136 -330 1222 0
202 -407 -375 1223 0
257 402 216 1224 0
299 -253 -282 1225 0
-466 265 133 1226 0
-487 -317 269 1227 0
162 -254 -31 1228 0
-45 71 -384 1229 0
320 -317 -104 1230 0
-59 -369 -410 1231 0
204 -385 163 1232 0
239 -77 -208 1233 0
-138 285 -397 1234 0
14 276 -161 1235 0
317 -439 51 1236 0
-163 330 11 1237 0
255 307 178 1238 0
305 -442 -169 1239 0
-298 -107 -25 1240 0
-270 56 -86 1241 0
171 -289 -317 1242 0
-259 -168 -6 1243 0
-154 296 -384 1244 0
39 -422 -230 1245 0
6 -409 439 1246 0
254 362 486 1247 0
206 -449 94 1248 0
-398 362 -415 1249 0
-247 -183 -319 1250 0
-395 -280 -138 1251 0
179 417 -298 1252 0
177 -31 -78 1253 0
409 9 416 1254 0
291 198 466 1255 0
-227 -465 -395 1256 0
-460 238 87 1257 0
435 -150 -55 1258 0
135 339 -328 1259 0
201 380 -98 1260 0
167 -250 329 1261 0
430 -450 -150 1262 0
239 359 -81 1263 0
-318 472 339 1264 0
431 -304 338 1265 0
206 -378 -234 1266 0
120 135 468 1267 0
-277 -108 175 1268 0
154 183 -29 1269 0
321 365 -119 1270 0
-463 381 52 1271 0
-106 -475 -192 1272 0
-122 373 -317 1273 0
59 240 426 1274 0
332 -184 408 1275 0
-365 -442 180 1276 0
-452 87 -28 1277 0
229 -109 -375 1278 0
-218 120 61 1279 0
-108 -234 7 1280 0
409 194 -88 1281 0
-390 318 -326 1282 0
207 361 -307 1283 0
-290 -155 -198 1284 0
-117 -284 124 1285 0
-44 -86 -417 1286 0
-197 -389 130 1287 0
-45 244 432 1288 0
-114 282 449 1289 0
470 -293 90 1290 0
128 439 -328 1291 0
-84 -155 -342 1292 0
-161 -184 399 1293 0
-412 468 40 1294 0
-22 17 -489 1295 0
181 403 190 1296 0
-270 -381 64 1297 0
-246 -126 353 1298 0
143 -218 -177 1299 0
50 395 390 1300 0
-41 482 -444 1301 0
445 -65 33 1302 0
-246 -383 -70 1303 0
335 -89 293 1304 0
173 -180 -182 1305 0
-14 -467 295 1306 0
458 314 -301 1307 0
379 385 263 1308 0
-227 402 235 1309 0
-256 399 -209 1310 0
160 246 242 1311 0
-138 300 464 1312 0
-287 203 273 1313 0
57 256 -192 1314 0
-46 -218 -133 1315 0
472 -193 245 1316 0
-494 -249 -320 1317 0
-390 491 -300 1318 0
-119 -298 67 1319 0
-189 -237 25 1320 0
51 165 3 1321 0
-164 105 64 1322 0
-113 329 162 1323 0
38 216 345 1324 0
194 -52 -306 1325 0
-9 316 -436 1326 0
155 -64 251 1327 0
-395 -224 25 1328 0
-103 224 365 1329 0
320 219 223 1330 0
312 495 98 1331 0
-2 -398 -211 1332 0
96 372 360 1333 0
-226 430 -108 1334 0
15 51 179 1335 0
-252 266 481 1336 0
-443 353 282 1337 0
-117 295 85 1338 0
-387 -398 467 1339 0
286 470 295 1340 0
12 -7 -324 1341 0
-247 142 463 1342 0
-44 19 -105 1343 0
-306 335 324 1344 0
-308 -235 -365 1345 0
-72 -472 163 1346 0
332 -425 -496 1347 0
189 -488 -181 1348 0
-331 472 -457 1349 0
-197 -286 -436 1350 0
299 259 181 1351 0
-70 113 375 1352 0
-379 375 31 1353 0
-94 265 -276 1354 0
432 -396 405 1355 0
-122 232 79 1356 0
153 474 132 1357 0
24 97 -56 1358 0
463 178 474 1359 0
-442 223 -154 1360 0
423 -200 -16 1361 0
-116 381 97 1362 0
-112 -69 244 1363 0
-130 -202 77 1364 0
-74 -123 -144 1365 0
152 -97 -179 1366 0
-459 -14 -97 1367 0
356 81 308 1368 0
-111 346 -180 1369 0
51 -276 -221 1370 0
33 279 478 1371 0
120 409 -359 1372 0
407 -130 -171 1373 0
485 280 451 1374 0
472 -248 112 1375 0
-64 -29 279 1376 0
43 217 -461 1377 0
360 473 -390 1378 0
430 -493 -12 1379 0
469 434 377 1380 0
-13 217 -396 1381 0
-391 -252 228 1382 0
-463 30 -127 1383 0
92 344 430 1384 0
-458 -425 -499 1385 0
141 393 -228 1386 0
-464 -486 -236 1387 0
-136 251 395 1388 0
50 -427 -59 1389 0
245 -317 -202 1390 0
-74 -486 -356 1391 0
125 -398 -229 1392 0
-187 383 -101 1393 0
-464 5 -201 1394 0
-255 -371 307 1395 0
155 243 450 1396 0
186 -350 -425 1397 0
-436 148 217 1398 0
177 69 -280 1399 0
460 125 -336 1400 0
-404 -373 -500 1401 0
-489 -254 23 1402 0
-68 -392 373 1403 0
213 18 19 1404 0
448 109 -108 1405 0
-488 -108 128 1406 0
261 -358 -423 1407 0
263 382 -320 1408 0
282 -345 -320 1409 0
-381 -42 121 1410 0
-131 81 -378 1411 0
-115 -264 -221 1412 0
-137 370 109 1413 0
431 292 218 1414 0
481 -129 25 1415 0
130 79 348 1416 0
415 -47 -2 1417 0
93 22 -348 1418 0
-112 75 -349 1419 0
142 411 88 1420 0
39 -488 -41 1421 0
-237 -492 -356 1422 0
-111 42 253 1423 0
-245 93 -427 1424 0
-125 -488 444 1425 0
186 -339 -137 1426 0
-444 427 480 1427 0
319 321 -496 1428 0
279 106 109 1429 0
405 -486 -376 1430 0
-302 342 335 1431 0
-379 -243 -127 1432 0
-165 303 192 1433 0
-154 -361 -237 1434 0
348 166 -109 1435 0
-488 192 302 1436 0
303 -184 -61 1437 0
6 222 -293 1438 0
5 -319 -306 1439 0
51 139 -74 1440 0
-102 -106 201 1441 0
453 -311 283 1442 0
-162 -369 31 1443 0
51 -183 -433 1444 0
39 -240 -316 1445 0
268 367 278 1446 0
-182 252 -113 1447 0
-386 243 417 1448 0
-66 -427 -354 1449 0
-313 -102 372 1450 0
-80 -494 -420 1451 0
97 -422 487 1452 0
63 -259 -336 1453 0
206 -75 422 1454 0
-475 -389 -416 1455 0
183 232 -56 1456 0
399 -486 -406 1457 0
443 397 -211 1458 0
-408 64 -142 1459 0
2 438 -313 1460 0
417 482 192 1461 0
-494 371 -381 1462 0
-95 -451 -259 1463 0
-155 -272 -135 1464 0
-400 356 445 1465 0
182 -348 -149 1466 0
146 -237 -316 1467 0
-295 449 -68 1468 0
172 104 -411 1469 0
428 145 424 1470 0
470 3 -430 1471 0
17 322 380 1472 0
-265 -90 -241 1473 0
-129 80 -255 1474 0
-236 443 -221 1475 0
367 -401 -320 1476 0
310 -26 -7 1477 0
-343 411 -410 1478 0
213 109 -233 1479 0
27 -473 -449 1480 0
-147 -376 159 1481 0
-151 21 -182 1482 0
352 -246 32 1483 0
-239 -11 -332 1484 0
-445 -232 170 1485 0
225 -362 227 1486 0
116 -168 216 1487 0
-147 -352 -383 1488 0
196 -495 -300 1489 0
281 -426 346 1490 0
88 470 -263 1491 0
304 339 111 1492 0
219 -286 151 1493 0
363 166 122 1494 0
-284 101 96 1495 0
413 78 7 1496 0
-170 -362 34 1497 0
-434 432 -10 1498 0
-175 -174 232 1499 0
285 446 83 1500 0
480 84 453 1501 0
175 206 250 1502 0
-324 142 277 1503 0
-454 370 473 1504 0
-442 -344 -490 1505 0
424 -454 190 1506 0
121 -431 210 1507 0
-35 125 -13 1508 0
231 43 -103 1509 0
-222 67 -228 1510 0
-108 -477 495 1511 0
-53 -481 -307 1512 0
-276 481 237 1513 0
386 -20 363 1514 0
179 -205 272 1515 0
80 207 274 1516 0
-436 -408 375 1517 0
-414 -254 341 1518 0
-294 213 -101 1519 0
316 380 -463 1520 0
-156 235 -448 1521 0
-445 357 89 1522 0
-326 242 436 1523 0
398 -85 -219 1524 0
359 387 -438 1525 0
316 60 -251 1526 0
-384 -494 288 1527 0
414 -269 -295 1528 0
205 -321 -347 1529 0
-405 -425 449 1530 0
-363 320 258 1531 0
-344 -470 -1 1532 0
-307 -378 -256 1533 0
-50 -198 222 1534 0
-9 -19 -51 1535 0
-24 -333 413 1536 0
-476 237 394 1537 0
-463 101 439 1538 0
-251 379 -20 1539 0
-241 228 -39 1540 0
-6 404 -484 1541 0
497 -24 473 1542 0
178 -190 -195 1543 0
409 371 -209 1544 0
209 -208 410 1545 0
76 405 -214 1546 0
20 -151 -346 1547 0
-39 -108 176 1548 0
98 -272 396 1549 0
30 115 278 1550 0
-61 -28 -497 1551 0
-333 17 -32 1552 0
97 -10 428 1553 0
82 -469 -336 1554 0
-80 331 -199 1555 0
-261 361 -181 1556 0
-144 -134 308 1557 0
-78 431 432 1558 0
-281 -119 211 1559 0
-188 336 293 1560 0
22 -287 -276 1561 0
184 -372 -64 1562 0
-176 442 270 1563 0
73 376 246 1564 0
-86 152 -395 1565 0
-196 -420 -415 1566 0
427 69 61 1567 0
415 215 -95 1568 0
395 -283 220 1569 0
223 264 -361 1570 0
-470 342 -443 1571 0
445 500 435 1572 0
409 135 -184 1573 0
-240 193 180 1574 0
-221 -229 -308 1575 0
269 397 -252 1576 0
-172 402 -289 1577 0
-185 -41 -31 1578 0
482 -313 -416 1579 0
378 -463 131 1580 0
-304 -464 213 1581 0
-342 -277 273 1582 0
78 -318 356 1583 0
-209 -457 139 1584 0
265 56 -127 1585 0
151 344 -50 1586 0
75 265 -175 1587 0
406 -179 -381 1588 0
168 -494 145 1589 0
-94 -215 -275 1590 0
-4 -44 133 1591 0
467 -278 -415 1592 0
-134 270 -89 1593 0
-169 7 285 1594 0
311 80 416 1595 0
352 482 380 1596 0
384 -56 466 1597 0
-96 395 194 1598 0
144 210 299 1599 0
72 -473 254 1600 0
61 429 -441 1601 0
-440 463 453 1602 0
-175 -301 -428 1603 0
469 443 -11 1604 0
-374 -316 7 1605 0
-383 -246 129 1606 0
113 -245 214 1607 0
-131 -42 37 1608 0
463 38 297 1609 0
65 -58 -50 1610 0
-270 -322 -491 1611 0
-443 203 45 1612 0
362 17 246 1613 0
445 -117 -5 1614 0
148 -280 -245 1615 0
-83 -96 -462 1616 0
-496 -115 -347 1617 0
287 393 83 1618 0
386 75 -383 1619 0
30 -265 -349 1620 0
440 273 -7 1621 0
49 -78 -54 1622 0
-79 -67 -220 1623 0
172 -111 38 1624 0
-153 -14 142 1625 0
126 112 150 1626 0
-230 292 389 1627 0
413 -494 -373 1628 0
390 -313 -144 1629 0
-229 -319 259 1630 0
22 -416 -58 1631 0
242 -384 -178 1632 0
34 91 -412 1633 0
-120 -295 -73 1634 0
223 110 -464 1635 0
-42 -117 185 1636 0
394 453 -176 1637 0
130 -175 310 1638 0
-70 409 368 1639 0
-245 267 -214 1640 0
156 34 294 1641 0
-231 136 -242 1642 0
441 -204 -207 1643 0
451 -30 60 1644 0
83 396 194 1645 0
-441 463 154 1646 0
-225 -119 311 1647 0
64 471 370 1648 0
318 -47 -222 1649 0
289 315 -312 1650 0
-100 -206 128 1651 0
-292 -76 -372 1652 0
175 375 -385 1653 0
-179 281 269 1654 0
157 332 431 1655 0
345 -247 -491 1656 0
-485 -305 -84 1657 0
-152 -89 308 1658 0
-266 -162 309 1659 0
162 278 471 1660 0
344 -16 -48 1661 0
-318 84 -17 1662 0
245 -398 -66 1663 0
305 -321 -439 1664 0
-400 407 -14 1665 0
92 16 34 1666 0
-473 -446 -7 1667 0
52 -34 272 1668 0
311 254 87 1669 0
-409 -412 -126 1670 0
2 90 -6 1671 0
-84 -270 249 1672 0
-243 30 -332 1673 0
-49 379 366 1674 0
428 -386 -178 1675 0
-481 341 89 1676 0
-22 -217 291 1677 0
-320 -419 -456 1678 0
361 -396 -196 1679 0
240 -322 90 1680 0
77 -98 202 1681 0
104 -31 -486 1682 0
403 -227 288 1683 0
385 -45 458 1684 0
436 111 286 1685 0
-364 227 -230 1686 0
-277 -42 261 1687 0
436 386 -67 1688 0
-14 91 -175 1689 0
1 -374 319 1690 0
331 -332 -179 1691 0
-34 -146 -168 1692 0
9 297 59 1693 0
432 -142 269 1694 0
-485 -80 -379 1695 0
28 21 341 1696 0
142 290 110 1697 0
-213 -393 83 1698 0
336 -285 -400 1699 0
-424 187 -484 1700 0
-72 -153 201 1701 0
-293 -300 -222 1702 0
459 -148 177 1703 0
-29 463 136 1704 0
463 -380 -154 1705 0
87 395 220 1706 0
-284 60 313 1707 0
-186 255 -29 1708 0
43 67 -430 1709 0
-480 366 356 1710 0
-495 -61 229 1711 0
-314 432 37 1712 0
314 44 -156 1713 0
-423 -200 -193 1714 0
-409 -490 -115 1715 0
97 -394 31 1716 0
-389 -372 -138 1717 0
258 431 8 1718 0
220 -14 357 1719 0
-3 -19 151 1720 0
454 58 -485 1721 0
177 308 412 1722 0
-352 -31 -444 1723 0
-156 134 -172 1724 0
317 -327 332 1725 0
496 -38 -374 1726 0
331 199 -284 1727 0
480 -303 463 1728 0
-20 386 -223 1729 0
491 -141 -442 1730 0
-391 464 278 1731 0
39 109 -349 1732 0
133 -272 -332 1733 0
301 86 382 1734 0
-349 200 127 1735 0
-87 43 -103 1736 0
238 485 -300 1737 0
-46 -169 -285 1738 0
43 -47 -49 1739 0
-175 232 -34 1740 0
-195 30 -279 1741 0
-325 75 -397 1742 0
-5 -245 462 1743 0
280 -201 362 1744 0
-105 -152 493 1745 0
-97 393 351 1746 0
-287 -386 101 1747 0
348 -412 -322 1748 0
-169 -428 -231 1749 0
-409 330 -19 1750 0
215 -213 497 1751 0
451 365 215 1752 0
-397 -280 -472 1753 0
327 348 -369 1754 0
-54 480 -248 1755 0
272 -279 -29 1756 0
-163 -427 -53 1757 0
-219 162 -315 1758 0
472 341 76 1759 0
147 281 -202 1760 0
288 -73 472 1761 0
246 -237 310 1762 0
-301 -421 -392 1763 0
-132 -297 262 1764 0
375 -488 417 1765 0
-224 342 -405 1766 0
-416 -288 -379 1767 0
176 -123 -295 1768 0
21 -39 79 1769 0
147 217 -294 1770 0
412 -157 -69 1771 0
426 349 231 1772 0
-317 373 -151 1773 0
266 -477 -185 1774 0
-238 -305 -482 1775 0
-386 214 373 1776 0
425 -236 466 1777 0
65 -50 -133 1778 0
482 -172 98 1779 0
273 -299 -376 1780 0
-198 264 -206 1781 0
-394 -358 350 1782 0
-288 31 -236 1783 0
339 -30 304 1784 0
338 368 -229 1785 0
266 -50 283 1786 0
174 -162 327 1787 0
154 184 83 1788 0
106 -49 420 1789 0
64 394 -214 1790 0
-491 -483 -256 1791 0
53 434 478 1792 0
352 -372 -201 1793 0
224 -297 335 1794 0
-215 402 -395 1795 0
196 46 266 1796 0
-246 -62 -154 1797 0
119 178 149 1798 0
-289 139 -221 1799 0
-491 261 454 1800 0
200 348 -280 1801 0
117 -258 -244 1802 0
206 -5 -244 1803 0
205 -404 -488 1804 0
-185 234 381 1805 0
195 499 -138 1806 0
416 264 245 1807 0
-182 -162 153 1808 0
276 -477 -128 1809 0
-411 319 149 1810 0
-274 -213 -56 1811 0
-264 -42 -159 1812 0
145 429 438 1813 0
-484 385 437 1814 0
-371 165 -180 1815 0
-50 -56 -253 1816 0
-36 -435 -33 1817 0
466 248 -121 1818 0
-134 -472 63 1819 0
319 -450 -129 1820 0
75 107 382 1821 0
185 -195 -387 1822 0
312 -389 295 1823 0
371 -411 124 1824 0
362 274 108 1825 0
-28 41 -457 1826 0
200 -266 -337 1827 0
-84 135 19 1828 0
402 434 63 1829 0
286 -355 -201 1830 0
354 308 -268 1831 0
-384 372 453 1832 0
223 -73 215 1833 0
-285 -440 113 1834 0
238 -305 397 1835 0
195 -429 -179 1836 0
-40 300 -240 1837 0
64 57 278 1838 0
-343 473 -499 1839 0
-376 -113 -450 1840 0
-134 -206 8 1841 0
45 -64 458 1842 0
-313 -391 -236 1843 0
303 -441 -253 1844 0
-388 -359 -114 1845 0
62 228 44 1846 0
115 18 -265 1847 0
-340 3 -384 1848 0
149 107 -183 1849 0
338 -435 -141 1850 0
-98 254 -290 1851 0
386 -28 -108 1852 0
-439 -321 -212 1853 0
-68 422 430 1854 0
-311 -73 427 1855 0
-128 77 136 1856 0
196 74 375 1857 0
327 -227 -482 1858 0
159 107 484 1859 0
-243 -188 22 1860 0
477 1 445 1861 0
1 -162 -48 1862 0
486 67 -195 1863 0
319 274 366 1864 0
-200 419 -202 1865 0
-385 445 -287 1866 0
164 155 -257 1867 0
-360 -121 -237 1868 0
24 104 469 1869 0
-93 124 -387 1870 0
-440 -415 151 1871 0
192 -375 194 1872 0
201 -104 -396 1873 0
353 -29 32 1874 0
354 194 -418 1875 0
158 25 341 1876 0
4 -391 -75 1877 0
323 259 338 1878 0
349 -218 187 1879 0
-98 -359 500 1880 0
-482 -235 -389 1881 0
185 -386 21 1882 0
96 -211 490 1883 0
-317 453 -428 1884 0
-489 -342 270 1885 0
-459 123 290 1886 0
150 372 -355 1887 0
6 -45 -306 1888 0
289 220 -58 1889 0
-323 252 -162 1890 0
64 -237 153 1891 0
336 -373 197 1892 0
-24 -173 -338 1893 0
35 486 -178 1894 0
-201 399 -69 1895 0
470 190 297 1896 0
-433 134 -20 1897 0
-416 87 -475 1898 0
427 43 -318 1899 0
-95 -384 431 1900 0
-58 107 -377 1901 0
-206 -474 -337 1902 0
-80 53 73 1903 0
321 -86 7 1904 0
437 353 341 1905 0
-404 -180 461 1906 0
-268 475 282 1907 0
197 -151 -138 1908 0
-377 -118 -60 1909 0
27 341 -423 1910 0
158 427 419 1911 0
140 -110 -247 1912 0
111 156 -117 1913 0
205 489 -337 1914 0
306 36 -129 1915 0
10 -136 100 1916 0
214 -221 -1 1917 0
-466 -193 -371 1918 0
209 370 13 1919 0
-62 -113 42 1920 0
219 -173 202 1921 0
323 85 55 1922 0
399 -149 369 1923 0
177 281 241 1924 0
-411 257 164 1925 0
426 348 -211 1926 0
-11 -417 -250 1927 0
-357 -294 371 1928 0
343 434 -226 1929 0
-265 -79 -222 1930 0
67 -418 -172 1931 0
301 106 404 1932 0
-336 370 -28 1933 0
-13 249 -23 1934 0
-358 -308 -428 1935 0
-353 145 206 1936 0
208 334 408 1937 0
209 329 -229 1938 0
442 408 107 1939 0
-339 189 -223 1940 0
-160 -315 375 1941 0
239 159 -178 1942 0
377 -203 130 1943 0
321 211 240 1944 0
212 -117 -40 1945 0
-47 108 -175 1946 0
-58 -292 464 1947 0
-375 380 -151 1948 0
468 -472 99 1949 0
309 410 499 1950 0
-183 -58 114 1951 0
314 219 -123 1952 0
-277 17 -447 1953 0
-281 64 131 1954 0
-302 -387 -322 1955 0
312 318 -230 1956 0
-79 44 82 1957 0
288 -84 22 1958 0
-141 -119 -410 1959 0
166 -7 -143 1960 0
-346 55 262 1961 0
203 -487 -292 1962 0
408 -477 255 1963 0
165 179 -374 1964 0
382 256 306 1965 0
148 -457 9 1966 0
224 391 -52 1967 0
265 -424 209 1968 0
415 -391 455 1969 0
-419 -387 154 1970 0
-186 -346 -283 1971 0
-183 -275 -26 1972 0
376 4 -231 1973 0
-57 68 243 1974 0
-86 -138 -407 1975 0
96 -194 108 1976 0
-219 67 -29 1977 0
-135 -308 169 1978 0
330 90 -218 1979 0
-103 -289 -395 1980 0
-18 449 -237 1981 0
-472 -173 -282 1982 0
98 -367 31 1983 0
386 -415 204 1984 0
-143 107 -168 1985 0
428 484 -70 1986 0
-238 87 360 1987 0
-467 -490 -419 1988 0
20 287 -375 1989 0
363 382 -126 1990 0
494 127 -119 1991 0
-448 -137 92 1992 0
-128 301 170 1993 0
-148 464 -292 1994 0
408 8 410 1995 0
8 -222 316 1996 0
-143 -86 -307 1997 0
-364 32 99 1998 0
-377 -117 173 1999 0
229 -28 90 2000 0
164 291 443 2001 0
-424 -87 -273 2002 0
190 -199 88 2003 0
-383 -162 -65 2004 0
61 314 196 2005 0
17 88 444 2006 0
-16 290 -451 2007 0
-266 66 377 2008 0
-393 442 324 2009 0
166 158 -219 2010 0
339 -22 170 2011 0
-131 -192 -232 2012 0
380 222 144 2013 0
64 -115 499 2014 0
149 277 71 2015 0
235 -419 31 2016 0
-120 371 188 2017 0
-446 -123 -431 2018 0
313 -418 128 2019 0
499 490 -222 2020 0
-164 -301 158 2021 0
-113 423 -37 2022 0
-377 481 -34 2023 0
-275 490 -240 2024 0
-31 385 25 2025 0
-105 -391 -14 2026 0
196 -370 382 2027 0
72 168 -364 2028 0
-143 -129 68 2029 0
-177 442 209 2030 0
-395 7 -465 2031 0
16 -250 307 2032 0
-472 384 259 2033 0
-146 -161 422 2034 0
462 262 254 2035 0
440 330 182 2036 0
-436 31 -135 2037 0
446 219 -188 2038 0
-461 -172 428 2039 0
-182 181 -320 2040 0
-405 426 7 2041 0
222 32 309 2042 0
4 -357 -165 2043 0
-407 -152 -38 2044 0
461 259 406 2045 0
383 -463 -125 2046 0
382 487 131 2047 0
-201 -71 26 2048 0
-205 -355 295 2049 0
313 1 141 2050 0
-248 -141 424 2051 0
-413 128 396 2052 0
-440 113 -448 2053 0
387 277 162 2054 0
-449 158 -33 2055 0
-51 -233 -382 2056 0
-125 273 301 2057 0
18 -54 450 2058 0
-100 438 -192 2059 0
-339 113 -452 2060 0
-414 150 406 2061 0
-148 337 391 2062 0
-137 -220 231 2063 0
318 -123 59 2064 0
-149 -173 -427 2065 0
-125 -253 90 2066 0
-178 377 -493 2067 0
-226 213 -291 2068 0
-146 329 239 2069 0
203 75 -224 2070 0
455 125 -316 2071 0
-123 312 -478 2072 0
-329 52 448 2073 0
-28 -292 142 2074 0
-68 -260 -312 2075 0
71 -4 283 2076 0
-398 -439 -401 2077 0
-210 373 -213 2078 0
-106 -266 489 2079 0
61 -469 43 2080 0
-91 -305 -310 2081 0
-258 6 -56 2082 0
409 -250 428 2083 0
-141 91 -240 2084 0
-15 177 467 2085 0
358 453 117 2086 0
-259 -223 359 2087 0
-396 216 449 2088 0
381 236 386 2089 0
-351 185 66 2090 0
-181 -236 -16 2091 0
-443 -252 -492 2092 0
179 15 -206 2093 0
-167 275 -430 2094 0
-92 -385 -235 2095 0
170 -121 -409 2096 0
-203 429 -262 2097 0
452 414 -401 2098 0
421 469 91 2099 0
455 -228 -229 2100 0
-234 111 -17 2101 0
-486 57 467 2102 0
231 -101 14 2103 0
-422 298 -59 2104 0
464 109 -56 2105 0
462 217 444 2106 0
251 -289 -384 2107 0
-298 -465 -410 2108 0
380 295 275 2109 0
246 185 393 2110 0
-14 373 427 2111 0
219 -202 330 2112 0
-73 313 35 2113 0
437 -365 95 2114 0
485 -12 256 2115 0
-150 109 -38 2116 0
266 200 -300 2117 0
453 -356 220 2118 0
-151 -53 -234 2119 0
-440 -195 206 2120 0
-373 66 -120 2121 0
16 -344 434 2122 0
-183 126 -257 2123 0
-48 -422 268 2124 0
-119 -500 -220 2125 0
-379 393 41 2126 0
-96 -273 204 2127 0
-328 58 399 2128 0
-367 456 105 2129 0
-300 357 379 2130 0
493 -476 -265 2131 0
128 17 418 2132 0
259 -110 470 2133 0
-226 370 -289 2134 0
-381 -241 -216 2135 0
383 -62 -186 2136 0
94 478 -108 2137 0
68 417 -1 2138 0
416 300 394 2139 0
-439 -256 430 2140 0
-307 -72 -378 2141 0
132 440 405 2142 0
208 -53 123 2143 0
-323 477 -435 2144 0
137 348 267 2145 0
-228 -154 -466 2146 0
43 155 129 2147 0
-115 203 450 2148 0
388 -3 -271 2149 0
-94 -173 352 2150 0
219 241 313 2151 0
-219 35 -389 2152 0
450 -191 -82 2153 0
-150 -104 392 2154 0
-127 -433 299 2155 0
225 350 108 2156 0
-35 -28 -283 2157 0
318 -232 348 2158 0
221 -341 -454 2159 0
244 487 167 2160 0
-166 -251 133 2161 0
-171 84 -214 2162 0
-105 193 -299 2163 0
84 -493 222 2164 0
-41 -37 68 2165 0
167 187 -255 2166 0
293 -339 428 2167 0
-53 -483 -186 2168 0
-315 -111 -175 2169 0
404 -420 -129 2170 0
-471 426 -416 2171 0
-195 -229 -338 2172 0
-234 12 314 2173 0
-327 462 -346 2174 0
-73 103 234 2175 0
-343 -312 133 2176 0
240 304 -374 2177 0
500 188 418 2178 0
18 -407 364 2179 0
424 188 -48 2180 0
-226 302 402 2181 0
420 -47 177 2182 0
306 -150 -220 2183 0
320 -73 222 2184 0
360 206 -403 2185 0
308 150 413 2186 0
-272 -286 367 2187 0
-442 -223 76 2188 0
401 -372 396 2189 0
117 -402 166 2190 0
333 -259 -466 2191 0
282 -290 -431 2192 0
365 -212 -341 2193 0
283 -325 -374 2194 0
-368 -229 322 2195 0
75 416 -468 2196 0
-382 393 -330 2197 0
199 483 89 2198 0
252 -269 156 2199 0
440 -383 387 2200 0
-59 -276 -146 2201 0
-77 422 -8 2202 0
-28 499 393 2203 0
-33 77 -370 2204 0
60 -20 -274 2205 0
403 493 -230 2206 0
-101 -40 -491 2207 0
388 463 -392 2208 0
375 -249 -17 2209 0
-447 98 302 2210 0
427 413 85 2211 0
-176 -294 453 2212 0
230 317 125 2213 0
-26 -296 106 2214 0
-419 451 -381 2215 0
-7 224 -2 2216 0
114 343 -236 2217 0
-348 139 344 2218 0
-490 -226 459 2219 0
15 -491 -387 2220 0
314 386 8 2221 0
105 340 -159 2222 0
-152 302 -13 2223 0
99 -486 253 2224 0
-198 1 -320 2225 0
-194 455 32 2226 0
-330 189 246 2227 0
10 -320 266 2228 0
-44 -28 192 2229 0
256 -356 -426 2230 0
-14 -429 -117 2231 0
48 -223 434 2232 0
59 98 444 2233 0
-403 -133 -446 2234 0
368 306 160 2235 0
78 102 -311 2236 0
294 -29 27 2237 0
153 -448 39 2238 0
-9 -248 117 2239 0
224 -368 -48 2240 0
404 -430 -11 2241 0
141 -304 281 2242 0
-51 -470 59 2243 0
260 340 -72 2244 0
-169 304 -305 2245 0
398 217 -453 2246 0
-422 -97 400 2247 0
250 -377 159 2248 0
-442 -411 336 2249 0
-10 -203 207 2250 0
-428 402 183 2251 0
-381 -408 17 2252 0
-18 -396 118 2253 0
333 53 -92 2254 0
391 -234 -192 2255 0
-329 220 -335 2256 0
141 375 -270 2257 0
-23 3 36 2258 0
234 406 -55 2259 0
104 80 431 2260 0
-484 -131 -424 2261 0
-464 -140 281 2262 0
42 -433 300 2263 0
36 -170 -475 2264 0
485 -390 310 2265 0
267 100 -253 2266 0
-137 -1 -133 2267 0
-356 -148 247 2268 0
-375 -360 324 2269 0
-30 -59 -348 2270 0
-51 371 -367 2271 0
30 477 -323 2272 0
492 -353 -354 2273 0
-471 -137 -240 2274 0
-189 36 116 2275 0
298 -344 -446 2276 0
44 459 398 2277 0
54 425 3 2278 0
-122 -105 441 2279 0
-41 319 -77 2280 0
-163 -435 69 2281 0
281 226 268 2282 0
270 -78 360 2283 0
-395 429 341 2284 0
-107 -419 178 2285 0
451 -133 412 2286 0
-402 462 4 2287 0
91 238 -216 2288 0
-383 -16 138 2289 0
-452 -147 298 2290 0
-20 -160 -92 2291 0
-204 379 257 2292 0
-133 358 -120 2293 0
-255 404 102 2294 0
424 -375 90 2295 0
-319 -120 -202 2296 0
-203 242 183 2297 0
336 305 -3 2298 0
319 262 487 2299 0
99 168 -198 2300 0
-178 -388 60 2301 0
260 397 318 2302 0
-485 -184 460 2303 0
-389 12 181 2304 0
129 -21 72 2305 0
322 247 406 2306 0
-368 -348 -415 2307 0
160 -142 -240 2308 0
-94 -64 -68 2309 0
-79 -395 -219 2310 0
-471 14 -349 2311 0
-256 102 439 2312 0
-362 -294 -201 2313 0
323 -387 -26 2314 0
-376 -447 -46 2315 0
-211 -162 389 2316 0
331 -283 -161 2317 0
174 -184 492 2318 0
-479 -404 3 2319 0
-276 -36 254 2320 0
137 500 -486 2321 0
-374 461 481 2322 0
348 -406 -172 2323 0
-77 -141 300 2324 0
-476 -173 -23 2325 0
367 -36 192 2326 0
13 -348 71 2327 0
-498 -387 -355 2328 0
-259 -247 235 2329 0
-83 -449 98 2330 0
110 149 91 2331 0
250 -180 -147 2332 0
302 -498 125 2333 0
-143 231 -310 2334 0
-463 319 -288 2335 0
418 375 -263 2336 0
-283 370 272 2337 0
-328 -241 -121 2338 0
-220 230 -383 2339 0
-246 454 -178 2340 0
-470 210 137 2341 0
232 -364 18 2342 0
453 -58 173 2343 0
88 355 458 2344 0
91 233 338 2345 0
-360 -425 338 2346 0
287 -357 319 2347 0
-88 477 -34 2348 0
-130 -164 -52 2349 0
-343 -104 -194 2350 0
-82 218 235 2351 0
-138 17 -219 2352 0
-314 493 -188 2353 0
-300 72 -324 2354 0
72 304 198 2355 0
-170 231 475 2356 0
60 -393 -146 2357 0
10 322 86 2358 0
-239 134 86 2359 0
69 -185 25 2360 0
371 -214 -88 2361 0
325 232 -14 2362 0
-330 118 224 2363 0
-218 416 115 2364 0
489 204 -192 2365 0
-474 174 364 2366 0
164 255 107 2367 0
-120 45 360 2368 0
286 -306 188 2369 0
-316 296 -451 2370 0
-458 15 -112 2371 0
-216 -349 -438 2372 0
489 -155 126 2373 0
-398 -344 192 2374 0
-110 -79 467 2375 0
337 -36 -290 2376 0
12 383 499 2377 0
393 -173 -488 2378 0
-53 345 430 2379 0
-362 444 113 2380 0
-403 -142 258 2381 0
-196 201 -166 2382 0
-67 -275 -359 2383 0
-358 204 -188 2384 0
-250 173 -203 2385 0
411 -116 -374 2386 0
-337 -45 -28 2387 0
-61 199 -170 2388 0
404 300 -145 2389 0
387 281 194 2390 0
-229 21 232 2391 0
157 112 480 2392 0
-438 -71 131 2393 0
73 334 -91 2394 0
170 -70 213 2395 0
-325 47 55 2396 0
423 -206 426 2397 0
211 4 341 2398 0
43 296 253 2399 0
267 -107 -319 2400 0
247 4 -53 2401 0
-457 -410 -197 2402 0
310 -455 195 2403 0
41 -291 293 2404 0
-277 -172 -203 2405 0
-450 244 -179 2406 0
-313 -147 -367 2407 0
95 -407 132 2408 0
-170 328 133 2409 0
254 -100 -490 2410 0
-25 -363 408 2411 0
471 163 297 2412 0
-14 391 -341 2413 0
-43 390 100 2414 0
-495 277 -306 2415 0
-314 27 -382 2416 0
-470 -238 -361 2417 0
449 212 -452 2418 0
-126 -291 -223 2419 0
-203 -460 -195 2420 0
334 59 441 2421 0
433 -279 -485 2422 0
245 -303 345 2423 0
32 6 118 2424 0
428 113 -348 2425 0
-407 316 140 2426 0
-416 139 -380 2427 0
20 -183 -222 2428 0
-479 327 -287 2429 0
-181 -259 -466 2430 0
-170 -83 363 2431 0
358 264 295 2432 0
38 -356 451 2433 0
22 -407 -424 2434 0
-208 -307 491 2435 0
-298 266 -66 2436 0
-439 -400 197 2437 0
-25 254 -180 2438 0
-68 -217 57 2439 0
-109 437 153 2440 0
-65 -304 25 2441 0
-56 -136 42 2442 0
88 -312 -215 2443 0
387 133 398 2444 0
401 -492 30 2445 0
-371 402 212 2446 0
-141 451 153 2447 0
255 329 -253 2448 0
-261 -463 -161 2449 0
414 335 73 2450 0
-86 -110 -59 2451 0
-146 -297 433 2452 0
-400 -123 -18 2453 0
368 -275 314 2454 0
455 87 -20 2455 0
-467 -342 -239 2456 0
-203 462 70 2457 0
-173 436 -164 2458 0
-333 331 120 2459 0
81 450 -380 2460 0
51 489 -351 2461 0
-468 421 -61 2462 0
-285 -276 99 2463 0
-395 -307 -416 2464 0
76 210 -238 2465 0
121 -127 275 2466 0
345 -419 439 2467 0
344 294 102 2468 0
216 381 -190 2469 0
385 -162 210 2470 0
-155 -47 465 2471 0
-96 -339 488 2472 0
112 152 351 2473 0
-82 -50 88 2474 0
140 -430 469 2475 0
453 -469 -65 2476 0
-185 211 71 2477 0
376 323 -342 2478 0
-85 -56 -208 2479 0
-460 -132 -324 2480 0
29 85 -450 2481 0
219 -305 256 2482 0
-132 -72 118 2483 0
361 -315 83 2484 0
23 316 -293 2485 0
301 -392 -447 2486 0
-455 -204 -422 2487 0
340 -487 23 2488 0
-88 337 -495 2489 0
175 213 431 2490 0
-382 -332 -16 2491 0
-421 147 119 2492 0
-443 489 -461 2493 0
-259 -332 497 2494 0
111 360 396 2495 0
-134 296 356 2496 0
75 -264 24 2497 0
177 42 62 2498 0
28 269 -409 2499 0
-90 -35 -462 2500 0
-344 -149 -172 2501 0
316 56 145 2502 0
72 121 263 2503 0
242 -216 -87 2504 0
-39 207 448 2505 0
427 -477 -453 2506 0
103 -478 12 2507 0
320 -313 173 2508 0
74 -64 -37 2509 0
390 -284 -209 2510 0
-406 -56 24 2511 0
-359 -431 3 2512 0
113 349 122 2513 0
-265 -117 289 2514 0
272 315 -170 2515 0
-31 74 316 2516 0
354 -412 78 2517 0
-271 -32 -95 2518 0
475 331 -329 2519 0
-147 -431 263 2520 0
-33 -3 -26 2521 0
173 375 471 2522 0
-209 337 -179 2523 0
326 252 -433 2524 0
433 -99 -299 2525 0
263 -387 207 2526 0
98 -217 -120 2527 0
-97 -462 16 2528 0
330 496 -154 2529 0
-344 -308 -165 2530 0
-44 -139 -459 2531 0
216 -205 48 2532 0
141 -258 493 2533 0
364 268 316 2534 0
470 159 153 2535 0
-391 165 9 2536 0
413 -63 -168 2537 0
-366 126 -23 2538 0
-457 298 -123 2539 0
266 344 -325 2540 0
-73 433 -468 2541 0
-198 -134 -194 2542 0
-264 178 -493 2543 0
-86 -3 -255 2544 0
143 -353 468 2545 0
82 -148 -347 2546 0
-346 113 -190 2547 0
362 -26 -314 2548 0
27 -209 196 2549 0
115 -453 255 2550 0
480 -226 25 2551 0
-450 -241 -73 2552 0
-246 111 66 2553 0
112 206 -437 2554 0
-78 -15 -263 2555 0
-341 376 108 2556 0
376 484 -108 2557 0
177 361 175 2558 0
-378 442 -231 2559 0
-273 119 438 2560 0
124 111 -218 2561 0
132 77 -178 2562 0
-443 365 -306 2563 0
-51 88 -429 2564 0
400 200 -227 2565 0
-359 101 -499 2566 0
-263 -127 -211 2567 0
-410 -403 -257 2568 0
-115 351 191 2569 0
61 -281 -297 2570 0
258 423 -37 2571 0
-412 -227 357 2572 0
-462 -474 385 2573 0
418 -390 91 2574 0
-119 381 281 2575 0
152 -440 445 2576 0
-62 359 -469 2577 0
-350 401 -121 2578 0
422 -2 84 2579 0
-499 -272 303 2580 0
242 90 -394 2581 0
-230 -10 -176 2582 0
380 -450 -206 2583 0
43 -429 134 2584 0
-3 107 -464 2585 0
-22 143 125 2586 0
359 -240 -227 2587 0
-30 -369 24 2588 0
-61 -11 134 2589 0
377 310 422 2590 0
-274 187 96 2591 0
-214 -373 170 2592 0
10 427 175 2593 0
-233 -385 55 2594 0
343 152 459 2595 0
-305 284 32 2596 0
-171 75 161 2597 0
-12 103 329 2598 0
-62 26 -311 2599 0
114 -146 -237 2600 0
458 357 186 2601 0
127 -332 126 2602 0
86 352 224 2603 0
240 -205 -419 2604 0
-414 -25 449 2605 0
-120 306 -248 2606 0
-152 -299 -416 2607 0
-43 404 -332 2608 0
5 190 349 2609 0
-68 -323 -149 2610 0
-426 231 -267 2611 0
-477 -269 -224 2612 0
-307 -495 -391 2613 0
-293 18 -427 2614 0
-248 -416 -359 2615 0
283 266 318 2616 0
214 38 200 2617 0
-373 295 -265 2618 0
155 -165 127 2619 0
362 -276 -53 2620 0
411 -209 117 2621 0
240 233 -207 2622 0
142 -130 175 2623 0
353 -448 119 2624 0
-256 215 443 2625 0
-363 -77 123 2626 0
110 -302 -394 2627 0
-294 407 -392 2628 0
-283 460 184 2629 0
256 -387 -322 2630 0
312 -293 141 2631 0
493 -174 -31 2632 0
-291 301 -314 2633 0
-403 258 -405 2634 0
227 -249 -463 2635 0
299 -440 -78 2636 0
269 -333 -305 2637 0
-168 -293 408 2638 0
-107 206 359 2639 0
233 -33 343 2640 0
247 315 419 2641 0
-56 451 -23 2642 0
179 415 112 2643 0
-137 -409 163 2644 0
-215 77 412 2645 0
-127 363 -345 2646 0
-60 249 -426 2647 0
25 -423 154 2648 0
158 -257 -15 2649 0
290 -46 310 2650 0
