p cnf 2650 2150
-15 -48 436 501 0
291 349 -484 502 0
-440 -198 155 503 0
-123 -417 117 504 0
475 -153 -199 505 0
-446 -350 -149 506 0
480 285 124 507 0
-305 -77 396 508 0
-13 -359 -294 509 0
240 -60 402 510 0
-429 312 -398 511 0
-319 225 6 512 0
-425 266 203 513 0
-480 307 64 514 0
-211 240 -158 515 0
405 -71 380 516 0
-160 -44 -60 517 0
440 377 9 518 0
428 -374 -114 519 0
-492 499 -103 520 0
-84 -391 386 521 0
436 439 373 522 0
-150 -136 -274 523 0
179 405 -97 524 0
321 431 330 525 0
124 -229 -183 526 0
-13 284 466 527 0
-66 -71 -88 528 0
-79 -405 -237 529 0
354 120 24 530 0
205 -82 -271 531 0
153 150 -120 532 0
-435 468 329 533 0
-477 -47 -235 534 0
14 -274 -73 535 0
216 -152 67 536 0
145 99 137 537 0
-250 176 -306 538 0
-215 -287 207 539 0
64 168 79 540 0
-249 351 -282 541 0
334 123 -469 542 0
-80 -334 -168 543 0
-189 -151 403 544 0
360 395 311 545 0
-407 -463 294 546 0
329 -183 -351 547 0
467 333 -500 548 0
131 -185 -27 549 0
-489 275 -417 550 0
113 -376 411 551 0
-86 168 154 552 0
-50 407 264 553 0
-233 33 -486 554 0
122 45 -215 555 0
411 121 -15 556 0
332 77 34 557 0
265 -227 461 558 0
483 304 440 559 0
-138 -408 -153 560 0
110 166 198 561 0
22 -96 -474 562 0
423 -242 -256 563 0
207 130 394 564 0
321 12 -277 565 0
202 -3 -164 566 0
-192 -352 -252 567 0
-237 375 -411 568 0
-215 -386 -498 569 0
463 38 429 570 0
-165 27 415 571 0
-207 -462 315 572 0
-303 -228 -469 573 0
-79 69 296 574 0
399 -63 66 575 0
146 80 333 576 0
-236 -433 -336 577 0
-497 21 278 578 0
2 -167 157 579 0
464 -69 -149 580 0
-163 -485 -129 581 0
-358 170 -81 582 0
186 -276 -84 583 0
-250 291 262 584 0
340 -156 -402 585 0
439 -348 -102 586 0
-420 88 368 587 0
124 -236 -151 588 0
264 -259 -64 589 0
266 48 -287 590 0
176 -5 -162 591 0
11 18 -164 592 0
145 389 153 593 0
357 486 229 594 0
-199 -308 147 595 0
18 -188 376 596 0
163 181 401 597 0
216 440 75 598 0
-365 21 216 599 0
74 476 -477 600 0
-94 -84 -431 601 0
-178 -294 420 602 0
404 -247 -401 603 0
373 438 150 604 0
254 63 57 605 0
125 -496 169 606 0
-256 81 67 607 0
148 240 356 608 0
-69 454 27 609 0
279 381 208 610 0
5 -306 383 611 0
345 183 462 612 0
-32 277 486 613 0
337 -414 463 614 0
-274 197 6 615 0
173 -213 460 616 0
-52 412 438 617 0
-438 357 -356 618 0
236 241 17 619 0
207 451 421 620 0
-292 247 92 621 0
248 -256 -314 622 0
-493 -271 -182 623 0
496 -98 320 624 0
-53 -68 142 625 0
-89 204 -430 626 0
-266 -387 -96 627 0
477 -231 82 628 0
85 -288 -244 629 0
-6 140 350 630 0
-17 -494 -109 631 0
-163 223 409 632 0
-118 -427 -251 633 0
-127 101 167 634 0
-153 308 78 635 0
-312 -233 326 636 0
385 -218 157 637 0
359 -391 -269 638 0
-143 -354 239 639 0
-456 127 500 640 0
-293 315 -442 641 0
396 392 18 642 0
-162 300 275 643 0
-419 384 -370 644 0
70 480 -298 645 0
328 291 -442 646 0
-434 -161 390 647 0
-231 15 232 648 0
-366 -133 457 649 0
-213 150 156 650 0
-455 128 -43 651 0
-10 -363 234 652 0
270 -181 401 653 0
205 -174 168 654 0
330 374 -242 655 0
-332 404 358 656 0
-108 49 255 657 0
281 -105 223 658 0
-133 -137 -209 659 0
-261 378 -206 660 0
437 -258 -477 661 0
30 -157 -348 662 0
446 64 -222 663 0
392 -292 -383 664 0
180 378 -382 665 0
-421 -120 416 666 0
495 -101 259 667 0
141 296 -390 668 0
-492 283 -36 669 0
183 -174 -11 670 0
-431 342 -372 671 0
-245 125 392 672 0
-382 -489 374 673 0
223 -82 280 674 0
-228 -171 486 675 0
398 485 -212 676 0
293 306 -44 677 0
15 369 221 678 0
246 212 -126 679 0
-50 167 -388 680 0
-204 -165 207 681 0
-140 230 -422 682 0
257 -122 214 683 0
258 26 -446 684 0
268 -474 -116 685 0
-439 -184 241 686 0
21 187 -2 687 0
-198 245 -458 688 0
263 497 288 689 0
-143 -275 -398 690 0
92 2 -269 691 0
-62 421 -388 692 0
218 -113 314 693 0
-39 -15 452 694 0
-126 -132 259 695 0
260 175 337 696 0
-190 394 293 697 0
-287 -8 -209 698 0
195 -324 327 699 0
-464 413 23 700 0
52 -426 322 701 0
140 -66 449 702 0
177 -399 271 703 0
-113 15 -499 704 0
436 278 -168 705 0
-19 -324 -211 706 0
-445 -198 474 707 0
112 -59 -474 708 0
264 -118 247 709 0
100 -355 -241 710 0
-376 340 49 711 0
271 336 488 712 0
-86 -38 -247 713 0
189 28 -476 714 0
329 -393 63 715 0
384 150 162 716 0
185 326 361 717 0
422 -176 306 718 0
489 34 45 719 0
138 453 -68 720 0
-407 331 379 721 0
-436 -334 71 722 0
-4 -372 288 723 0
-465 147 -244 724 0
382 -74 -87 725 0
88 304 356 726 0
-355 -482 -467 727 0
189 -81 431 728 0
74 310 207 729 0
-212 -27 -144 730 0
330 377 -173 731 0
86 -142 -23 732 0
-87 486 -105 733 0
202 365 -43 734 0
-474 -132 -407 735 0
-49 -114 126 736 0
470 340 111 737 0
469 -419 170 738 0
59 -72 -474 739 0
285 -104 55 740 0
-387 139 495 741 0
-353 -426 -188 742 0
459 -266 -213 743 0
-219 -439 281 744 0
-491 -469 375 745 0
379 -398 -85 746 0
127 499 142 747 0
124 -250 -475 748 0
-299 460 -9 749 0
-389 65 -263 750 0
-490 108 484 751 0
214 99 -403 752 0
310 221 406 753 0
-211 384 212 754 0
-244 497 104 755 0
-6 -139 -489 756 0
492 423 187 757 0
-213 1 68 758 0
-445 274 107 759 0
71 -105 82 760 0
266 -126 -180 761 0
404 40 -321 762 0
307 -495 -149 763 0
338 -271 275 764 0
-451 -481 -208 765 0
-483 252 -279 766 0
-497 -392 -15 767 0
-488 -252 -368 768 0
277 -348 65 769 0
-377 -119 169 770 0
-246 51 -490 771 0
-138 -39 -324 772 0
-368 321 211 773 0
-94 431 -473 774 0
190 -473 121 775 0
217 174 389 776 0
-333 426 264 777 0
60 -178 -445 778 0
304 245 398 779 0
-336 -225 293 780 0
-78 -248 331 781 0
-477 188 -130 782 0
264 -56 -334 783 0
-132 237 -274 784 0
50 -264 -276 785 0
366 -216 88 786 0
-151 -314 272 787 0
-271 16 -497 788 0
-317 -370 -483 789 0
-462 371 12 790 0
-26 257 66 791 0
413 -19 -92 792 0
434 340 -450 793 0
-261 408 -212 794 0
446 321 220 795 0
-183 24 -363 796 0
213 -240 -136 797 0
415 -251 343 798 0
-452 -468 193 799 0
-94 -382 -110 800 0
-235 343 341 801 0
230 -18 261 802 0
197 198 121 803 0
309 -361 -378 804 0
-169 155 -447 805 0
-423 -451 -257 806 0
-196 42 -13 807 0
330 -461 -168 808 0
-186 476 264 809 0
-416 -447 182 810 0
-237 225 302 811 0
-352 23 278 812 0
-376 -217 -67 813 0
-161 360 -167 814 0
-205 251 -67 815 0
-10 148 -308 816 0
379 -385 9 817 0
181 88 -142 818 0
168 136 241 819 0
338 234 79 820 0
228 209 74 821 0
275 266 -349 822 0
264 -161 -24 823 0
146 -381 -474 824 0
-72 -11 270 825 0
8 489 -228 826 0
163 310 -141 827 0
100 326 397 828 0
-408 -369 -280 829 0
-330 314 -153 830 0
467 -476 -109 831 0
156 379 -233 832 0
367 -240 -249 833 0
133 -25 -113 834 0
-341 -35 381 835 0
-54 -140 -306 836 0
-463 -288 284 837 0
407 -178 216 838 0
-136 -150 -441 839 0
54 93 330 840 0
-341 -174 -62 841 0
228 401 -216 842 0
-266 433 -260 843 0
-24 57 -246 844 0
-328 29 184 845 0
-439 -395 499 846 0
-363 -217 -461 847 0
-383 146 102 848 0
-96 60 490 849 0
434 210 -420 850 0
163 336 462 851 0
493 49 -72 852 0
111 85 273 853 0
352 -208 -384 854 0
115 265 334 855 0
425 292 -149 856 0
-195 -497 375 857 0
-225 377 482 858 0
-368 114 71 859 0
-143 65 254 860 0
252 -438 388 861 0
-369 405 -426 862 0
-128 127 -110 863 0
228 323 -474 864 0
-289 -232 -327 865 0
266 -370 -397 866 0
-299 423 -382 867 0
306 239 -387 868 0
-64 227 -21 869 0
315 10 -53 870 0
244 -108 -389 871 0
451 458 -326 872 0
126 -72 166 873 0
-42 -180 339 874 0
-150 -46 -141 875 0
91 -411 345 876 0
393 476 259 877 0
198 -314 -364 878 0
-160 408 -361 879 0
-475 181 -147 880 0
-91 -43 381 881 0
-464 -90 498 882 0
326 80 248 883 0
-443 475 38 884 0
301 -20 472 885 0
499 -211 -474 886 0
-313 -263 446 887 0
-12 -409 224 888 0
454 -487 -133 889 0
-16 370 155 890 0
-254 161 -344 891 0
389 299 -280 892 0
243 -476 -71 893 0
-22 132 386 894 0
-94 -101 124 895 0
460 -377 181 896 0
464 -196 -56 897 0
63 454 -10 898 0
319 -196 -435 899 0
-94 276 280 900 0
127 209 313 901 0
43 -268 -327 902 0
-163 169 445 903 0
-445 -319 248 904 0
-6 53 437 905 0
126 -216 -361 906 0
150 -416 -139 907 0
451 -257 200 908 0
-373 180 -286 909 0
51 353 -156 910 0
396 -349 -139 911 0
-24 -108 310 912 0
419 -429 -148 913 0
-473 168 172 914 0
293 -55 359 915 0
141 192 -410 916 0
-381 317 -171 917 0
-229 -496 335 918 0
84 330 -259 919 0
208 -408 -204 920 0
-289 -65 -270 921 0
-392 -190 338 922 0
47 -330 126 923 0
74 -154 179 924 0
-126 491 -302 925 0
-295 250 240 926 0
267 162 53 927 0
-104 459 -217 928 0
94 483 -303 929 0
273 -118 336 930 0
-402 354 -105 931 0
10 -179 193 932 0
113 243 -68 933 0
-270 -49 -463 934 0
-190 73 -231 935 0
-94 -135 -406 936 0
-381 478 -403 937 0
-455 94 276 938 0
457 -484 105 939 0
124 -495 -25 940 0
167 -394 483 941 0
89 273 -145 942 0
82 -27 264 943 0
-7 86 -483 944 0
-439 -249 302 945 0
-289 242 -272 946 0
288 -251 -373 947 0
209 341 217 948 0
267 454 155 949 0
-91 -47 -487 950 0
-336 -242 143 951 0
-281 88 -71 952 0
-149 -36 354 953 0
-441 -156 389 954 0
460 158 -189 955 0
237 489 65 956 0
-35 386 168 957 0
-418 99 241 958 0
264 34 320 959 0
-95 -434 -109 960 0
-431 -271 397 961 0
365 -466 -499 962 0
239 115 -145 963 0
71 -410 228 964 0
193 148 -280 965 0
-420 492 456 966 0
71 -93 -269 967 0
277 -152 -386 968 0
-239 -220 35 969 0
118 -101 469 970 0
281 424 -366 971 0
132 247 4 972 0
56 171 -228 973 0
16 -19 -463 974 0
-101 -9 -486 975 0
376 -470 -387 976 0
223 -367 34 977 0
-163 153 -388 978 0
-34 349 -225 979 0
148 -34 -150 980 0
63 -123 -182 981 0
-409 -288 -99 982 0
-372 -159 -300 983 0
-248 118 497 984 0
-382 303 -310 985 0
297 131 229 986 0
-331 -393 -235 987 0
409 -235 119 988 0
291 -498 -484 989 0
-154 24 -105 990 0
379 269 21 991 0
-257 170 468 992 0
133 318 -327 993 0
270 406 -170 994 0
434 242 418 995 0
-76 -323 -434 996 0
51 -28 448 997 0
423 422 -120 998 0
177 -30 -16 999 0
-131 -379 58 1000 0
200 -149 -87 1001 0
-246 327 -309 1002 0
6 -464 163 1003 0
-38 -198 -19 1004 0
289 318 333 1005 0
-337 364 2 1006 0
301 111 478 1007 0
-203 -108 132 1008 0
-382 109 -282 1009 0
247 -357 -413 1010 0
-410 462 -390 1011 0
225 -10 -84 1012 0
174 147 -38 1013 0
-413 -285 -151 1014 0
-370 225 -400 1015 0
398 168 183 1016 0
44 -478 176 1017 0
175 313 176 1018 0
-212 -421 -303 1019 0
389 428 384 1020 0
79 -285 -224 1021 0
-35 -85 299 1022 0
-65 150 -404 1023 0
-432 161 413 1024 0
447 374 242 1025 0
-88 135 -258 1026 0
-273 -240 -258 1027 0
-470 427 70 1028 0
331 342 228 1029 0
-69 -478 -109 1030 0
-237 -197 421 1031 0
277 51 -129 1032 0
211 420 -443 1033 0
-276 -123 -342 1034 0
347 -399 -92 1035 0
329 -216 34 1036 0
439 -215 -357 1037 0
-428 112 -42 1038 0
22 -193 325 1039 0
-479 -85 59 1040 0
189 181 -94 1041 0
-177 -268 -422 1042 0
414 -289 -126 1043 0
-287 342 210 1044 0
180 213 -14 1045 0
-107 175 -356 1046 0
250 -242 25 1047 0
-281 -71 -238 1048 0
17 -380 -251 1049 0
467 -351 479 1050 0
-454 485 210 1051 0
-270 -14 161 1052 0
166 24 249 1053 0
-27 3 47 1054 0
-211 294 484 1055 0
-290 -295 148 1056 0
341 -446 -421 1057 0
328 -432 118 1058 0
446 -278 -197 1059 0
488 62 -94 1060 0
301 306 268 1061 0
59 385 15 1062 0
-366 -41 -317 1063 0
-496 334 -478 1064 0
-383 -338 -254 1065 0
-92 -184 300 1066 0
339 278 16 1067 0
185 -348 -55 1068 0
275 -227 -239 1069 0
-363 431 -92 1070 0
137 -37 438 1071 0
-278 279 -292 1072 0
-200 473 342 1073 0
-314 -459 421 1074 0
-417 267 -336 1075 0
-447 16 -425 1076 0
-206 -327 -172 1077 0
-227 -178 363 1078 0
46 396 168 1079 0
42 -217 41 1080 0
-338 -393 2 1081 0
438 -224 -48 1082 0
475 -478 381 1083 0
244 -478 347 1084 0
-164 316 14 1085 0
-145 -388 -420 1086 0
-304 215 233 1087 0
-194 480 -188 1088 0
-200 416 -17 1089 0
-226 211 119 1090 0
-68 492 14 1091 0
-227 -453 2 1092 0
381 42 256 1093 0
471 229 414 1094 0
235 146 -266 1095 0
473 461 306 1096 0
142 -165 468 1097 0
182 -87 -345 1098 0
-384 138 -255 1099 0
-211 -14 -300 1100 0
366 -255 380 1101 0
-113 -447 -331 1102 0
441 -479 -12 1103 0
75 -33 -61 1104 0
82 -487 -343 1105 0
-332 -96 193 1106 0
-74 450 317 1107 0
-156 -305 424 1108 0
-32 343 -175 1109 0
-397 -183 -395 1110 0
-139 115 69 1111 0
-352 88 -109 1112 0
303 -447 202 1113 0
227 -430 -209 1114 0
-181 -370 -407 1115 0
-374 162 258 1116 0
-54 80 149 1117 0
-32 325 -483 1118 0
352 -357 293 1119 0
245 445 332 1120 0
192 -94 50 1121 0
-439 -281 -485 1122 0
-310 -258 -265 1123 0
353 -144 -81 1124 0
437 369 -318 1125 0
-454 -347 377 1126 0
38 -236 279 1127 0
326 152 392 1128 0
401 22 154 1129 0
-445 317 -105 1130 0
434 -402 480 1131 0
341 -28 24 1132 0
-68 -374 -116 1133 0
-140 273 -265 1134 0
313 61 225 1135 0
480 -415 122 1136 0
-390 457 -461 1137 0
276 468 34 1138 0
-269 390 12 1139 0
-437 458 300 1140 0
-121 -365 488 1141 0
104 135 468 1142 0
-145 -486 418 1143 0
202 -425 -259 1144 0
350 119 324 1145 0
295 -40 415 1146 0
-326 -452 -392 1147 0
-80 -33 -250 1148 0
122 296 -186 1149 0
-89 28 -333 1150 0
140 481 294 1151 0
278 282 116 1152 0
476 -430 202 1153 0
98 19 -278 1154 0
-450 -351 349 1155 0
205 -199 361 1156 0
-427 -101 -296 1157 0
-213 171 -327 1158 0
-143 487 334 1159 0
464 -175 366 1160 0
353 -225 318 1161 0
-483 -413 -340 1162 0
274 -327 107 1163 0
148 -192 -68 1164 0
35 -314 152 1165 0
-160 237 37 1166 0
148 464 -7 1167 0
32 194 -86 1168 0
-313 -445 -164 1169 0
-257 43 -412 1170 0
13 -208 237 1171 0
-24 -264 -78 1172 0
-279 69 183 1173 0
-190 288 438 1174 0
-122 -102 -129 1175 0
-116 -90 -483 1176 0
344 468 -248 1177 0
-289 -46 -450 1178 0
219 -16 -269 1179 0
483 28 113 1180 0
221 108 -220 1181 0
27 -202 -62 1182 0
176 -494 -346 1183 0
-129 -374 9 1184 0
-143 161 269 1185 0
-46 -28 354 1186 0
-389 207 150 1187 0
416 -302 -49 1188 0
400 257 -262 1189 0
-206 440 -255 1190 0
-439 206 -229 1191 0
360 441 42 1192 0
-423 -271 -41 1193 0
-126 278 141 1194 0
-448 -79 431 1195 0
133 431 -117 1196 0
116 -202 -34 1197 0
-337 -393 186 1198 0
40 -409 251 1199 0
-97 -270 357 1200 0
4 335 -490 1201 0
68 306 -465 1202 0
199 -33 144 1203 0
-395 367 205 1204 0
-144 123 315 1205 0
-500 366 -247 1206 0
378 -202 57 1207 0
-460 263 182 1208 0
41 -256 315 1209 0
-282 40 -230 1210 0
420 -486 268 1211 0
158 63 -187 1212 0
-240 -355 -123 1213 0
-432 -472 -231 1214 0
-111 312 -228 1215 0
135 172 336 1216 0
386 113 -348 1217 0
-110 -3 -138 1218 0
287 -102 -243 1219 0
168 -28 -448 1220 0
-55 -354 -419 1221 0
382 -103 -302 1222 0
-177 -334 -282 1223 0
-58 457 -416 1224 0
-204 44 179 1225 0
27 -310 67 1226 0
-374 -72 442 1227 0
-400 -385 98 1228 0
-248 -499 420 1229 0
314 416 481 1230 0
104 442 77 1231 0
443 -15 -372 1232 0
84 1 -92 1233 0
431 51 -22 1234 0
234 298 -430 1235 0
54 341 325 1236 0
-115 -356 -492 1237 0
-460 -28 -65 1238 0
62 -390 132 1239 0
-23 -128 -294 1240 0
-248 -187 -206 1241 0
-3 -228 49 1242 0
481 -304 139 1243 0
440 241 -486 1244 0
-286 -213 -324 1245 0
424 -346 -15 1246 0
179 -147 84 1247 0
-167 274 -216 1248 0
-100 -221 -193 1249 0
342 226 499 1250 0
336 -45 403 1251 0
81 404 99 1252 0
422 195 22 1253 0
432 356 221 1254 0
422 -479 175 1255 0
234 -382 -427 1256 0
-230 227 468 1257 0
367 59 -120 1258 0
-470 -35 378 1259 0
162 86 219 1260 0
230 -4 -343 1261 0
-416 15 176 1262 0
-7 -434 170 1263 0
334 314 37 1264 0
180 486 -1 1265 0
52 -100 137 1266 0
10 -252 366 1267 0
-441 455 50 1268 0
164 393 -110 1269 0
-492 144 -75 1270 0
-255 82 451 1271 0
4 -409 250 1272 0
-136 -175 -395 1273 0
278 -415 47 1274 0
96 45 160 1275 0
367 -353 -173 1276 0
-42 -98 -417 1277 0
-100 -201 476 1278 0
-279 -181 116 1279 0
354 -189 -67 1280 0
211 31 -344 1281 0
-159 -375 418 1282 0
-73 -454 465 1283 0
467 -113 -33 1284 0
-244 -372 -3 1285 0
-307 429 -305 1286 0
-414 -245 -265 1287 0
-336 207 500 1288 0
-4 -351 34 1289 0
-445 -471 -202 1290 0
158 -89 430 1291 0
-306 381 -118 1292 0
186 116 -189 1293 0
302 -251 158 1294 0
-238 -286 486 1295 0
335 -344 -150 1296 0
-49 6 225 1297 0
476 -198 467 1298 0
306 324 -265 1299 0
347 -266 496 1300 0
268 -38 -155 1301 0
-351 -144 245 1302 0
-40 320 -429 1303 0
152 396 91 1304 0
-442 101 -424 1305 0
253 424 -325 1306 0
-395 -50 193 1307 0
-259 -377 -410 1308 0
-271 459 270 1309 0
84 -386 245 1310 0
-376 -273 250 1311 0
-31 -140 83 1312 0
-271 320 495 1313 0
-50 -259 -51 1314 0
262 53 -287 1315 0
-294 -433 6 1316 0
-30 224 -37 1317 0
406 -239 -161 1318 0
-205 -73 404 1319 0
232 122 266 1320 0
30 -455 16 1321 0
-187 -147 -206 1322 0
-10 464 197 1323 0
136 -331 104 1324 0
288 129 452 1325 0
53 -496 70 1326 0
71 378 -17 1327 0
383 314 268 1328 0
-19 -29 -345 1329 0
196 -219 -476 1330 0
355 80 -445 1331 0
-198 -221 -277 1332 0
413 -52 96 1333 0
322 160 -88 1334 0
349 146 41 1335 0
464 -474 -228 1336 0
-295 -149 360 1337 0
481 -479 -153 1338 0
-348 -418 -250 1339 0
-97 -61 426 1340 0
-223 -372 -411 1341 0
52 454 -269 1342 0
283 -426 296 1343 0
-347 -385 -359 1344 0
-455 316 128 1345 0
459 420 -363 1346 0
250 69 -137 1347 0
425 234 169 1348 0
-298 5 94 1349 0
209 282 -315 1350 0
-83 -236 329 1351 0
479 -38 -68 1352 0
-51 180 20 1353 0
-437 -329 -321 1354 0
82 256 -38 1355 0
-24 245 286 1356 0
72 309 -59 1357 0
-424 2 307 1358 0
-491 45 104 1359 0
-300 141 -334 1360 0
-198 -230 -13 1361 0
-347 225 -440 1362 0
269 358 354 1363 0
-228 54 52 1364 0
-389 487 484 1365 0
-110 418 -376 1366 0
121 490 117 1367 0
403 37 84 1368 0
-489 -356 -395 1369 0
489 -270 385 1370 0
-231 305 335 1371 0
467 -123 -141 1372 0
355 -290 -66 1373 0
-388 -399 347 1374 0
-276 -205 -1 1375 0
-420 467 -430 1376 0
-177 -151 272 1377 0
-465 307 -455 1378 0
-452 -399 283 1379 0
467 434 -337 1380 0
152 -373 -179 1381 0
387 358 -68 1382 0
134 186 29 1383 0
-26 202 316 1384 0
-252 32 -99 1385 0
233 292 -338 1386 0
429 -325 457 1387 0
257 367 -365 1388 0
-48 162 245 1389 0
-453 -242 -154 1390 0
-384 -43 222 1391 0
337 -80 -346 1392 0
7 -275 421 1393 0
141 -243 192 1394 0
-85 329 -319 1395 0
-415 -340 345 1396 0
-405 317 -328 1397 0
162 120 31 1398 0
-355 -407 -166 1399 0
-301 -188 368 1400 0
433 -94 -149 1401 0
-113 -168 306 1402 0
156 -437 -212 1403 0
276 -5 141 1404 0
299 -477 -32 1405 0
-167 349 195 1406 0
-62 439 -279 1407 0
258 238 -363 1408 0
63 236 -353 1409 0
-253 375 -305 1410 0
90 484 392 1411 0
71 -370 -198 1412 0
476 83 -384 1413 0
-184 237 -459 1414 0
-417 335 353 1415 0
-498 -107 382 1416 0
393 197 56 1417 0
-166 -359 307 1418 0
-64 -292 -28 1419 0
241 -418 -268 1420 0
312 318 240 1421 0
391 -323 -153 1422 0
-425 398 101 1423 0
114 -452 162 1424 0
99 463 392 1425 0
368 -217 13 1426 0
-293 500 409 1427 0
322 125 -202 1428 0
-272 328 -307 1429 0
13 198 -360 1430 0
175 -115 -150 1431 0
190 -134 230 1432 0
-378 203 100 1433 0
-117 -12 -270 1434 0
-41 -68 7 1435 0
-164 -138 -326 1436 0
-110 156 -201 1437 0
207 20 355 1438 0
-321 -81 362 1439 0
322 405 431 1440 0
-26 234 -272 1441 0
-282 21 86 1442 0
-39 -219 424 1443 0
53 -492 -267 1444 0
-253 341 406 1445 0
91 207 -160 1446 0
327 215 -467 1447 0
-462 455 485 1448 0
111 62 207 1449 0
-353 -227 -245 1450 0
13 -405 -20 1451 0
-94 -439 422 1452 0
121 140 -96 1453 0
150 475 -174 1454 0
-383 -490 -110 1455 0
233 78 151 1456 0
387 101 192 1457 0
-332 -142 -44 1458 0
242 326 173 1459 0
-339 -278 213 1460 0
418 -1 2 1461 0
-399 427 1 1462 0
-275 -130 -393 1463 0
49 -273 -209 1464 0
164 -402 200 1465 0
386 3 172 1466 0
10 161 -256 1467 0
383 -96 -487 1468 0
-369 -142 -201 1469 0
80 324 302 1470 0
-287 -2 -151 1471 0
-135 -19 -179 1472 0
204 -351 236 1473 0
50 -228 -256 1474 0
-375 423 189 1475 0
381 127 171 1476 0
-282 233 -423 1477 0
-172 14 374 1478 0
227 -20 -236 1479 0
-30 -63 192 1480 0
461 -294 120 1481 0
435 -186 161 1482 0
-162 -75 175 1483 0
12 -455 -161 1484 0
-323 380 92 1485 0
321 19 310 1486 0
463 180 324 1487 0
295 -421 -430 1488 0
-19 299 -14 1489 0
-128 -115 -291 1490 0
-41 -370 99 1491 0
-191 -450 66 1492 0
-97 -120 483 1493 0
-84 63 -46 1494 0
-15 35 -21 1495 0
-334 77 294 1496 0
-74 -23 489 1497 0
-480 -456 -353 1498 0
-294 88 -83 1499 0
465 329 491 1500 0
-247 -19 189 1501 0
-24 -376 428 1502 0
-230 53 148 1503 0
-129 -301 -32 1504 0
-157 -5 -219 1505 0
-339 153 437 1506 0
-152 -465 -149 1507 0
253 136 -483 1508 0
-182 -242 197 1509 0
-44 124 393 1510 0
-42 204 -29 1511 0
-494 -109 282 1512 0
1 -51 68 1513 0
-349 360 -493 1514 0
496 45 406 1515 0
-241 297 283 1516 0
322 123 -160 1517 0
-498 -201 442 1518 0
-58 309 -377 1519 0
-42 -248 381 1520 0
167 12 -237 1521 0
-382 -379 -174 1522 0
-227 327 -419 1523 0
-193 156 -185 1524 0
467 -163 -347 1525 0
-432 -354 -25 1526 0
-1 -164 -304 1527 0
-312 -457 352 1528 0
119 -380 -201 1529 0
87 12 -106 1530 0
354 -260 -144 1531 0
261 384 -44 1532 0
218 20 471 1533 0
350 257 -464 1534 0
-129 128 219 1535 0
-46 490 84 1536 0
184 422 116 1537 0
-112 41 -390 1538 0
126 488 30 1539 0
483 466 -467 1540 0
-284 490 279 1541 0
146 451 288 1542 0
329 -57 263 1543 0
-188 -425 429 1544 0
-217 474 -432 1545 0
-447 -186 338 1546 0
459 267 -493 1547 0
419 28 425 1548 0
-394 -293 233 1549 0
161 265 -281 1550 0
156 -425 113 1551 0
40 -128 -462 1552 0
-453 -68 -15 1553 0
95 -193 -46 1554 0
230 -359 177 1555 0
-290 268 -347 1556 0
354 -61 278 1557 0
143 -126 -496 1558 0
-306 23 164 1559 0
-140 309 -138 1560 0
-74 348 49 1561 0
-187 480 -452 1562 0
142 -101 267 1563 0
-340 267 452 1564 0
298 -274 429 1565 0
278 113 6 1566 0
-229 411 83 1567 0
-395 -151 376 1568 0
420 -466 92 1569 0
476 82 -170 1570 0
482 210 -362 1571 0
323 -145 302 1572 0
178 -447 183 1573 0
-30 274 159 1574 0
267 223 -292 1575 0
330 -320 249 1576 0
302 -444 -239 1577 0
388 376 -49 1578 0
-147 -440 -149 1579 0
49 -128 145 1580 0
302 318 -21 1581 0
314 -381 385 1582 0
349 128 -47 1583 0
152 472 -203 1584 0
463 215 -264 1585 0
-285 -70 -82 1586 0
323 486 370 1587 0
-394 -98 483 1588 0
-474 -80 430 1589 0
46 -428 -272 1590 0
-421 42 -311 1591 0
318 255 332 1592 0
163 -5 311 1593 0
113 422 -306 1594 0
420 -156 216 1595 0
265 -246 384 1596 0
-21 -90 -215 1597 0
31 459 -338 1598 0
371 -352 -316 1599 0
-256 -343 2 1600 0
196 -148 419 1601 0
-372 217 226 1602 0
-255 488 -257 1603 0
-424 -14 -355 1604 0
361 330 -442 1605 0
-322 -203 -430 1606 0
-179 102 178 1607 0
315 383 477 1608 0
-282 336 86 1609 0
-498 -169 -136 1610 0
-277 -113 424 1611 0
-327 -103 -298 1612 0
240 -288 -385 1613 0
174 -242 114 1614 0
-314 -4 223 1615 0
118 246 -409 1616 0
494 232 -30 1617 0
3 -179 26 1618 0
-226 -196 -86 1619 0
-373 33 -345 1620 0
-377 -480 -351 1621 0
-296 225 262 1622 0
95 377 -141 1623 0
250 -185 101 1624 0
-470 -91 263 1625 0
-99 -198 332 1626 0
-38 64 -393 1627 0
287 109 -311 1628 0
125 254 283 1629 0
137 -427 -496 1630 0
489 -95 129 1631 0
-451 248 -427 1632 0
258 415 -48 1633 0
140 -324 68 1634 0
-397 217 -83 1635 0
-381 24 430 1636 0
-317 11 -339 1637 0
308 202 -212 1638 0
-15 -471 -2 1639 0
-215 310 486 1640 0
-118 -410 64 1641 0
-374 492 89 1642 0
-27 -275 199 1643 0
95 -129 119 1644 0
-171 -398 351 1645 0
-10 -379 1 1646 0
-88 360 -497 1647 0
166 -293 -469 1648 0
-245 -254 -148 1649 0
-66 354 -191 1650 0
-494 -261 500 1651 0
358 421 359 1652 0
-124 26 -269 1653 0
255 -49 -302 1654 0
-489 120 411 1655 0
263 213 269 1656 0
26 -186 29 1657 0
-336 -223 -95 1658 0
139 475 161 1659 0
-277 41 -125 1660 0
110 117 64 1661 0
43 -48 -383 1662 0
-26 -116 -223 1663 0
-181 -63 -197 1664 0
291 -404 162 1665 0
-8 -90 -3 1666 0
276 182 391 1667 0
124 221 454 1668 0
184 -357 457 1669 0
-495 -86 252 1670 0
108 -234 -338 1671 0
-339 104 -485 1672 0
140 148 56 1673 0
-455 -463 231 1674 0
-466 48 225 1675 0
-289 -258 7 1676 0
236 238 -148 1677 0
-407 46 -293 1678 0
222 -292 373 1679 0
380 207 -385 1680 0
-207 339 -60 1681 0
-433 -481 118 1682 0
168 20 -439 1683 0
394 -365 500 1684 0
-346 44 -362 1685 0
160 82 -341 1686 0
494 -163 -403 1687 0
179 -425 -162 1688 0
172 -425 -207 1689 0
54 359 -31 1690 0
467 -348 -167 1691 0
-212 -117 -235 1692 0
325 347 -87 1693 0
-40 -391 470 1694 0
-250 370 41 1695 0
199 -66 -422 1696 0
-58 -318 125 1697 0
-115 -134 -226 1698 0
315 -178 -295 1699 0
177 95 240 1700 0
76 409 -440 1701 0
-11 -105 256 1702 0
-445 -273 -230 1703 0
240 118 -83 1704 0
137 -106 -30 1705 0
62 -53 -493 1706 0
371 -468 368 1707 0
-378 402 471 1708 0
-359 -133 -292 1709 0
321 -178 456 1710 0
-277 -320 488 1711 0
316 -213 -148 1712 0
-215 -461 253 1713 0
-378 -465 -98 1714 0
41 422 -89 1715 0
-308 277 201 1716 0
265 -410 -17 1717 0
-171 -18 183 1718 0
-156 210 179 1719 0
-388 236 -299 1720 0
-79 -315 201 1721 0
-136 -10 -309 1722 0
498 -250 -459 1723 0
-106 -262 -343 1724 0
-5 263 149 1725 0
-321 -449 481 1726 0
-315 -250 -211 1727 0
-357 -253 -350 1728 0
45 166 -76 1729 0
66 32 390 1730 0
410 44 283 1731 0
-275 465 305 1732 0
-66 -386 308 1733 0
275 412 -182 1734 0
-431 67 385 1735 0
188 491 92 1736 0
-333 -419 -357 1737 0
458 -218 -82 1738 0
-144 499 -316 1739 0
-134 261 331 1740 0
-139 173 -101 1741 0
14 454 314 1742 0
82 151 200 1743 0
10 -267 399 1744 0
415 -288 -352 1745 0
139 -284 356 1746 0
-309 161 -17 1747 0
-352 -415 266 1748 0
268 -157 -170 1749 0
-109 208 205 1750 0
429 -2 -61 1751 0
-360 397 -247 1752 0
291 -140 -110 1753 0
-480 -174 -124 1754 0
-37 -61 -412 1755 0
-33 199 -151 1756 0
-286 80 -498 1757 0
-446 -449 -196 1758 0
-289 -439 442 1759 0
188 -398 337 1760 0
-70 408 -352 1761 0
-499 196 -452 1762 0
-330 382 -60 1763 0
-397 -116 -227 1764 0
343 -339 225 1765 0
-179 16 353 1766 0
357 156 367 1767 0
125 330 -418 1768 0
177 -85 -229 1769 0
-76 -262 -357 1770 0
-96 380 -256 1771 0
75 -279 136 1772 0
-437 -378 -67 1773 0
-264 499 -498 1774 0
256 283 290 1775 0
-267 117 -17 1776 0
252 300 -204 1777 0
309 5 338 1778 0
-426 -211 -162 1779 0
285 -333 -431 1780 0
122 -271 -219 1781 0
-357 449 260 1782 0
70 -40 -44 1783 0
-142 92 79 1784 0
430 285 126 1785 0
-120 282 -145 1786 0
-246 -265 -299 1787 0
184 -28 376 1788 0
253 -467 450 1789 0
-479 -487 -458 1790 0
377 436 173 1791 0
-15 -242 23 1792 0
-496 -65 70 1793 0
-376 -164 64 1794 0
-83 -71 -88 1795 0
-471 230 55 1796 0
177 462 161 1797 0
241 176 321 1798 0
210 35 164 1799 0
55 -103 -384 1800 0
-488 494 -437 1801 0
-286 417 -185 1802 0
-69 291 -95 1803 0
456 148 32 1804 0
134 -259 66 1805 0
-160 -393 483 1806 0
403 9 56 1807 0
124 -26 -86 1808 0
-308 -17 314 1809 0
-93 -262 -404 1810 0
441 -77 119 1811 0
-357 -7 -339 1812 0
200 374 -347 1813 0
499 -19 -122 1814 0
-165 -179 -450 1815 0
239 -170 -7 1816 0
-219 -265 139 1817 0
-135 -213 -36 1818 0
-317 -483 449 1819 0
-351 31 294 1820 0
254 -52 158 1821 0
345 -29 72 1822 0
-126 -475 466 1823 0
-127 361 -267 1824 0
-16 -246 438 1825 0
-341 494 -400 1826 0
215 192 -485 1827 0
-67 231 157 1828 0
-447 365 -133 1829 0
-410 -283 200 1830 0
-375 -113 104 1831 0
-259 164 -286 1832 0
-140 297 468 1833 0
414 -69 -450 1834 0
160 328 -285 1835 0
-158 207 -203 1836 0
41 -83 47 1837 0
387 -342 -20 1838 0
-110 -3 -453 1839 0
215 -466 -3 1840 0
-33 -108 -246 1841 0
473 -395 -162 1842 0
-183 378 -45 1843 0
278 -416 -443 1844 0
-198 447 259 1845 0
-499 -241 -489 1846 0
-151 -54 51 1847 0
-6 -67 374 1848 0
-452 154 387 1849 0
334 210 361 1850 0
-215 318 208 1851 0
-477 198 -461 1852 0
-451 356 46 1853 0
53 496 90 1854 0
391 -65 -442 1855 0
418 469 381 1856 0
263 128 120 1857 0
-375 434 427 1858 0
232 -484 282 1859 0
-107 163 350 1860 0
-494 484 334 1861 0
-231 -77 116 1862 0
81 -415 419 1863 0
-58 371 -68 1864 0
-291 -28 391 1865 0
85 -214 -180 1866 0
-20 466 -422 1867 0
334 95 209 1868 0
263 -243 78 1869 0
183 361 155 1870 0
460 176 268 1871 0
-378 -376 -279 1872 0
-80 470 -20 1873 0
-12 46 -239 1874 0
257 -153 -371 1875 0
-332 -469 -390 1876 0
182 480 479 1877 0
213 -215 83 1878 0
-308 364 -466 1879 0
-259 -434 -490 1880 0
-370 306 -394 1881 0
296 461 -360 1882 0
142 414 -272 1883 0
-211 -257 417 1884 0
409 -72 -144 1885 0
138 413 237 1886 0
-408 -279 -416 1887 0
415 155 -345 1888 0
233 419 -228 1889 0
-297 -343 459 1890 0
121 -300 -162 1891 0
-173 423 -366 1892 0
-100 468 -241 1893 0
338 148 -277 1894 0
-370 245 403 1895 0
12 -25 19 1896 0
-141 -320 164 1897 0
494 -343 -457 1898 0
379 -66 -19 1899 0
-35 303 -116 1900 0
-216 -311 379 1901 0
171 -465 -237 1902 0
-261 -34 -436 1903 0
-70 -228 -84 1904 0
-84 17 -285 1905 0
439 468 323 1906 0
-153 -51 -344 1907 0
-240 197 -489 1908 0
-433 263 276 1909 0
99 -310 -208 1910 0
-174 136 -343 1911 0
-364 -54 -78 1912 0
-10 -39 380 1913 0
-372 424 -267 1914 0
-244 -6 -136 1915 0
49 258 467 1916 0
60 -493 461 1917 0
-395 392 329 1918 0
451 22 422 1919 0
491 -169 98 1920 0
-419 44 -60 1921 0
419 281 -409 1922 0
361 -376 166 1923 0
163 212 -176 1924 0
278 -401 -144 1925 0
100 -300 -179 1926 0
168 428 -8 1927 0
443 123 147 1928 0
-396 164 -232 1929 0
79 376 5 1930 0
-380 -105 190 1931 0
492 -255 462 1932 0
483 -471 -114 1933 0
264 184 484 1934 0
193 -33 -459 1935 0
115 246 26 1936 0
270 -117 -323 1937 0
89 -170 -440 1938 0
-375 4 -33 1939 0
196 79 348 1940 0
-340 414 132 1941 0
-274 -432 309 1942 0
-23 101 -397 1943 0
466 111 9 1944 0
289 -456 116 1945 0
-356 367 -219 1946 0
437 157 251 1947 0
-328 -301 -348 1948 0
108 135 -295 1949 0
351 -174 424 1950 0
255 -343 -491 1951 0
123 -124 -489 1952 0
-142 -18 275 1953 0
144 33 384 1954 0
-279 -109 -257 1955 0
-436 -392 -116 1956 0
180 262 89 1957 0
85 -60 176 1958 0
-8 408 355 1959 0
123 88 30 1960 0
281 -253 -19 1961 0
-63 465 -396 1962 0
-64 358 375 1963 0
-411 -119 13 1964 0
453 -332 -70 1965 0
-486 368 16 1966 0
483 -80 307 1967 0
83 -210 234 1968 0
-178 -87 37 1969 0
-257 299 -82 1970 0
-217 -47 354 1971 0
-402 -208 -315 1972 0
300 225 155 1973 0
-44 398 -10 1974 0
-38 -255 -200 1975 0
339 133 -442 1976 0
-268 308 171 1977 0
-445 108 -432 1978 0
173 -139 -243 1979 0
-68 310 -449 1980 0
-130 -309 395 1981 0
-37 -437 242 1982 0
-404 6 -53 1983 0
219 90 -489 1984 0
82 188 -39 1985 0
86 -363 -301 1986 0
-239 -403 -373 1987 0
302 -312 -401 1988 0
473 419 500 1989 0
-497 -292 -395 1990 0
337 -281 343 1991 0
71 495 -477 1992 0
299 -389 -477 1993 0
-436 18 -84 1994 0
264 132 -271 1995 0
-381 92 237 1996 0
413 -465 -154 1997 0
-173 -128 217 1998 0
-116 -122 -352 1999 0
-355 -59 284 2000 0
168 241 463 2001 0
-353 446 -367 2002 0
-36 -252 113 2003 0
-331 -475 -478 2004 0
-243 89 -448 2005 0
-114 -334 99 2006 0
-373 -365 -488 2007 0
413 173 -157 2008 0
52 220 -47 2009 0
-243 245 -399 2010 0
245 -45 339 2011 0
-422 166 248 2012 0
-65 117 80 2013 0
-191 365 -442 2014 0
-46 -430 -48 2015 0
250 -366 148 2016 0
-489 -453 -161 2017 0
70 -53 319 2018 0
-53 -45 -459 2019 0
-130 -69 226 2020 0
422 -248 55 2021 0
46 359 95 2022 0
-276 -460 449 2023 0
12 213 442 2024 0
-329 30 23 2025 0
-263 -471 209 2026 0
260 -241 -214 2027 0
354 -444 281 2028 0
-248 -154 -425 2029 0
484 341 254 2030 0
91 150 -456 2031 0
311 -196 -132 2032 0
243 -444 293 2033 0
-256 478 -342 2034 0
62 390 19 2035 0
166 -406 102 2036 0
207 58 286 2037 0
-268 492 260 2038 0
113 148 177 2039 0
162 -41 -397 2040 0
-425 451 -421 2041 0
-455 -304 -358 2042 0
-21 -485 4 2043 0
-283 -218 246 2044 0
149 -387 142 2045 0
474 196 -431 2046 0
477 -119 -352 2047 0
-404 337 269 2048 0
51 268 265 2049 0
-169 -418 19 2050 0
-192 260 334 2051 0
493 -69 181 2052 0
-40 492 317 2053 0
16 463 -22 2054 0
-125 463 410 2055 0
83 219 191 2056 0
-431 298 209 2057 0
275 366 -402 2058 0
-352 -268 342 2059 0
269 -319 -467 2060 0
-215 -374 310 2061 0
-339 176 136 2062 0
-130 -110 409 2063 0
-339 -390 472 2064 0
362 377 257 2065 0
-221 94 333 2066 0
-320 178 -161 2067 0
112 -435 -483 2068 0
352 385 -247 2069 0
-440 68 -496 2070 0
-7 -45 330 2071 0
-214 -452 207 2072 0
-334 -473 68 2073 0
-381 87 -352 2074 0
-33 430 -10 2075 0
361 -247 400 2076 0
-191 446 -317 2077 0
404 -326 -253 2078 0
-285 234 323 2079 0
-308 215 -32 2080 0
-129 -280 -111 2081 0
-221 -329 -469 2082 0
88 152 -271 2083 0
-298 -242 340 2084 0
309 76 -443 2085 0
31 163 -82 2086 0
141 -123 -410 2087 0
-103 -209 -227 2088 0
-343 260 -196 2089 0
-470 -178 116 2090 0
189 -265 -418 2091 0
437 -203 -142 2092 0
-41 -38 88 2093 0
62 -304 46 2094 0
40 77 -123 2095 0
265 -49 -297 2096 0
340 -364 227 2097 0
-24 -316 -327 2098 0
-477 -66 -6 2099 0
382 -378 105 2100 0
-500 19 -268 2101 0
159 -336 -319 2102 0
18 -244 347 2103 0
179 -380 282 2104 0
-391 -130 240 2105 0
-417 -430 240 2106 0
11 85 -365 2107 0
251 127 181 2108 0
-131 -328 89 2109 0
-115 -110 490 2110 0
-425 -186 60 2111 0
89 91 56 2112 0
-488 492 -41 2113 0
-220 -351 -60 2114 0
-353 -132 -332 2115 0
-26 -40 326 2116 0
263 -367 -166 2117 0
-394 202 -7 2118 0
-302 -448 -121 2119 0
296 -275 -218 2120 0
-470 158 139 2121 0
-369 -362 -141 2122 0
262 119 483 2123 0
374 221 -157 2124 0
-286 131 452 2125 0
369 -488 283 2126 0
-422 145 -320 2127 0
-75 -197 314 2128 0
465 376 493 2129 0
-443 446 144 2130 0
35 -447 -11 2131 0
-178 262 430 2132 0
-21 -97 -184 2133 0
476 -487 -74 2134 0
-292 -373 410 2135 0
-413 89 58 2136 0
-94 -225 496 2137 0
207 105 -412 2138 0
-436 17 331 2139 0
347 300 -77 2140 0
-127 168 -400 2141 0
461 -156 -279 2142 0
-432 -385 342 2143 0
-241 446 184 2144 0
-189 -335 325 2145 0
-139 -96 -370 2146 0
314 30 -15 2147 0
-457 92 288 2148 0
-55 -331 -7 2149 0
307 250 118 2150 0
324 490 491 2151 0
265 112 -114 2152 0
-402 -116 -1 2153 0
-435 -291 246 2154 0
-23 56 -296 2155 0
160 -264 -285 2156 0
54 -132 -277 2157 0
-485 165 -326 2158 0
-471 -485 -345 2159 0
84 452 385 2160 0
-402 500 447 2161 0
422 207 -406 2162 0
67 398 431 2163 0
9 -474 -68 2164 0
-317 -370 -85 2165 0
-291 349 490 2166 0
-312 470 -418 2167 0
-407 475 -64 2168 0
-222 -179 327 2169 0
-500 -17 84 2170 0
180 487 -467 2171 0
-494 -198 -201 2172 0
407 -35 -296 2173 0
-226 -167 196 2174 0
-111 -280 -482 2175 0
470 33 471 2176 0
-440 -89 -4 2177 0
-86 -413 224 2178 0
-249 456 -298 2179 0
-337 458 -487 2180 0
-119 416 193 2181 0
82 357 -69 2182 0
277 128 -46 2183 0
395 48 -49 2184 0
-295 128 -237 2185 0
182 399 -293 2186 0
-77 106 113 2187 0
122 -400 -435 2188 0
77 -203 322 2189 0
427 -423 -467 2190 0
-97 309 -495 2191 0
-120 -463 190 2192 0
249 -4 98 2193 0
-126 160 -138 2194 0
75 -491 -497 2195 0
10 244 1 2196 0
-451 -5 10 2197 0
177 -382 464 2198 0
-172 322 500 2199 0
351 327 100 2200 0
392 317 -4 2201 0
-448 -325 -234 2202 0
229 492 -479 2203 0
52 -298 366 2204 0
-226 324 184 2205 0
119 -42 480 2206 0
292 318 -338 2207 0
332 -380 300 2208 0
441 244 406 2209 0
448 -247 21 2210 0
309 -281 419 2211 0
-212 71 413 2212 0
-237 -444 -466 2213 0
-64 -186 437 2214 0
-74 6 186 2215 0
-225 3 52 2216 0
403 -378 223 2217 0
399 148 313 2218 0
-229 -487 482 2219 0
-55 464 498 2220 0
467 186 127 2221 0
-481 -362 5 2222 0
396 405 29 2223 0
-9 -325 117 2224 0
241 23 244 2225 0
-223 -50 159 2226 0
-140 297 -53 2227 0
-424 -273 486 2228 0
-423 29 -203 2229 0
30 -55 -430 2230 0
-105 -98 93 2231 0
-234 -141 -307 2232 0
196 305 23 2233 0
-88 78 381 2234 0
432 181 41 2235 0
-293 371 -471 2236 0
423 -386 -352 2237 0
-212 -176 155 2238 0
36 -48 -51 2239 0
-352 -17 -197 2240 0
-38 -377 -412 2241 0
87 50 57 2242 0
123 42 65 2243 0
41 -26 -354 2244 0
222 -85 234 2245 0
-493 399 -469 2246 0
457 81 290 2247 0
-271 -85 92 2248 0
281 41 -234 2249 0
480 -146 -487 2250 0
36 76 -194 2251 0
271 -362 320 2252 0
73 -355 -125 2253 0
22 -256 -43 2254 0
-136 -118 81 2255 0
99 363 439 2256 0
-495 -92 -129 2257 0
-29 -439 -277 2258 0
71 384 492 2259 0
-20 -332 -468 2260 0
182 165 216 2261 0
-255 408 -15 2262 0
276 -135 -223 2263 0
141 -287 111 2264 0
45 455 -229 2265 0
258 50 410 2266 0
-132 -139 -92 2267 0
-173 -122 384 2268 0
306 281 -107 2269 0
-491 416 -298 2270 0
-170 270 -276 2271 0
-164 -224 -385 2272 0
-484 75 -336 2273 0
298 246 -375 2274 0
470 70 -278 2275 0
166 -261 -177 2276 0
4 451 260 2277 0
-277 -296 -224 2278 0
-495 -201 485 2279 0
494 55 499 2280 0
-215 -258 371 2281 0
-149 -354 420 2282 0
272 -195 160 2283 0
351 -345 -252 2284 0
275 -16 428 2285 0
250 -233 401 2286 0
269 361 -407 2287 0
-136 -149 -191 2288 0
-401 -116 435 2289 0
418 61 -465 2290 0
353 149 -361 2291 0
490 -238 -260 2292 0
225 -189 -78 2293 0
-276 -476 -170 2294 0
81 -395 241 2295 0
153 442 366 2296 0
372 -83 348 2297 0
-148 -163 -317 2298 0
-288 -268 7 2299 0
295 -325 475 2300 0
249 -474 43 2301 0
323 -28 490 2302 0
402 -13 384 2303 0
-421 481 125 2304 0
-295 370 468 2305 0
-63 -147 -445 2306 0
-352 -264 16 2307 0
68 99 313 2308 0
-315 -327 -307 2309 0
-20 -414 -308 2310 0
22 -225 245 2311 0
293 479 -17 2312 0
198 45 395 2313 0
-150 276 454 2314 0
57 282 182 2315 0
-159 404 454 2316 0
179 -1 79 2317 0
343 257 61 2318 0
-93 304 357 2319 0
154 363 427 2320 0
330 461 -64 2321 0
-222 -299 -294 2322 0
-344 -146 -265 2323 0
-276 414 -237 2324 0
-88 156 -482 2325 0
153 -407 -136 2326 0
455 198 114 2327 0
-325 -449 -408 2328 0
460 336 -127 2329 0
-260 -393 420 2330 0
-294 -317 41 2331 0
-52 -450 -364 2332 0
281 420 -183 2333 0
-81 -162 -98 2334 0
118 255 -25 2335 0
-335 -78 456 2336 0
437 492 -354 2337 0
3 339 -488 2338 0
-11 335 -127 2339 0
-285 239 403 2340 0
-460 235 -326 2341 0
175 436 -449 2342 0
105 189 -208 2343 0
-239 -321 244 2344 0
54 50 381 2345 0
-496 -92 -474 2346 0
-426 -233 273 2347 0
-269 207 -264 2348 0
-274 352 55 2349 0
-463 -101 207 2350 0
40 156 251 2351 0
-280 -355 160 2352 0
451 -164 339 2353 0
225 216 -126 2354 0
123 41 -132 2355 0
241 469 418 2356 0
458 124 9 2357 0
11 30 265 2358 0
468 265 -58 2359 0
-50 21 -355 2360 0
-13 305 67 2361 0
-107 -395 489 2362 0
406 408 -405 2363 0
221 -437 336 2364 0
404 -121 455 2365 0
-471 62 -150 2366 0
-148 200 52 2367 0
246 -27 317 2368 0
442 -316 48 2369 0
-333 369 -460 2370 0
107 448 216 2371 0
380 -236 181 2372 0
208 -90 493 2373 0
-255 165 28 2374 0
89 -480 -100 2375 0
100 85 249 2376 0
21 -39 218 2377 0
266 -52 -131 2378 0
149 286 -147 2379 0
-239 -198 -20 2380 0
285 -176 248 2381 0
355 -431 -123 2382 0
77 -154 -45 2383 0
61 -158 478 2384 0
-336 -477 48 2385 0
-209 130 229 2386 0
-236 79 -28 2387 0
160 404 -230 2388 0
-362 -254 -376 2389 0
425 400 -127 2390 0
94 -343 -321 2391 0
102 80 -163 2392 0
-157 436 -122 2393 0
398 188 149 2394 0
-52 -162 -215 2395 0
-173 127 214 2396 0
-295 379 -388 2397 0
153 -61 -290 2398 0
-357 -167 186 2399 0
294 118 268 2400 0
41 78 146 2401 0
178 -58 -285 2402 0
48 236 307 2403 0
-440 -350 492 2404 0
306 160 67 2405 0
267 274 360 2406 0
-421 -450 -279 2407 0
404 229 26 2408 0
210 462 -89 2409 0
477 -292 342 2410 0
-199 -39 382 2411 0
-394 10 -135 2412 0
105 -81 341 2413 0
142 171 -496 2414 0
394 282 -273 2415 0
254 104 334 2416 0
-321 -341 316 2417 0
325 165 -18 2418 0
444 468 494 2419 0
-336 -207 -85 2420 0
-425 54 213 2421 0
-301 -412 3 2422 0
51 419 37 2423 0
358 -375 -177 2424 0
-377 416 149 2425 0
310 -268 192 2426 0
-438 358 -403 2427 0
-307 -353 -260 2428 0
69 206 -457 2429 0
-40 78 -335 2430 0
-93 -450 67 2431 0
443 -193 199 2432 0
-267 -161 415 2433 0
186 -185 296 2434 0
-66 309 153 2435 0
418 -151 -189 2436 0
-170 -494 -254 2437 0
203 -309 128 2438 0
-17 -129 57 2439 0
-334 292 -470 2440 0
-263 -206 -336 2441 0
-32 -107 -83 2442 0
-26 -315 387 2443 0
-275 62 379 2444 0
48 -378 -332 2445 0
61 45 -57 2446 0
368 -456 -247 2447 0
-78 -315 -395 2448 0
444 -299 -70 2449 0
66 -329 471 2450 0
166 30 -13 2451 0
96 -126 -97 2452 0
308 346 -417 2453 0
314 -447 363 2454 0
-350 -398 152 2455 0
-294 -319 246 2456 0
-163 -175 -404 2457 0
272 -227 -316 2458 0
-163 119 124 2459 0
83 310 468 2460 0
-373 321 312 2461 0
-462 346 382 2462 0
-360 217 -103 2463 0
457 -201 -265 2464 0
141 -158 232 2465 0
463 103 -416 2466 0
305 69 -45 2467 0
243 -159 20 2468 0
412 -195 -104 2469 0
-45 157 421 2470 0
183 134 -205 2471 0
62 388 -228 2472 0
-464 -253 439 2473 0
-156 -353 -281 2474 0
-469 -375 -274 2475 0
264 -43 -170 2476 0
-480 123 434 2477 0
-340 -204 -338 2478 0
-68 -283 231 2479 0
67 295 114 2480 0
-57 99 70 2481 0
-68 -47 -166 2482 0
-375 448 464 2483 0
32 49 -116 2484 0
490 475 -255 2485 0
-219 450 -386 2486 0
123 405 464 2487 0
-331 -31 471 2488 0
315 436 12 2489 0
-185 -354 -183 2490 0
374 -191 -344 2491 0
-115 183 240 2492 0
-352 43 -272 2493 0
352 455 -382 2494 0
226 467 183 2495 0
274 -168 -143 2496 0
378 428 -36 2497 0
314 138 315 2498 0
363 -415 -330 2499 0
34 -134 107 2500 0
278 11 382 2501 0
289 -239 91 2502 0
-469 -196 -213 2503 0
-412 -324 112 2504 0
183 306 28 2505 0
38 358 -426 2506 0
6 -260 -290 2507 0
414 -270 177 2508 0
-219 -315 -312 2509 0
-450 -331 -340 2510 0
102 85 120 2511 0
417 480 -137 2512 0
-81 388 51 2513 0
472 41 -133 2514 0
-174 175 -123 2515 0
233 176 58 2516 0
203 3 465 2517 0
298 275 431 2518 0
337 415 358 2519 0
3 -213 -111 2520 0
413 -391 304 2521 0
492 244 410 2522 0
-58 468 -24 2523 0
302 343 -441 2524 0
-192 208 -236 2525 0
-429 -148 75 2526 0
253 -472 -284 2527 0
155 -265 -342 2528 0
195 301 -307 2529 0
115 484 -298 2530 0
-195 -365 -327 2531 0
-157 -343 303 2532 0
-101 -202 35 2533 0
-29 93 -456 2534 0
167 -388 112 2535 0
349 27 134 2536 0
-200 468 -27 2537 0
-310 263 124 2538 0
-102 421 337 2539 0
-305 173 -73 2540 0
112 -399 -17 2541 0
330 -386 379 2542 0
-137 -445 423 2543 0
247 -152 252 2544 0
-489 -260 -19 2545 0
-417 -324 -133 2546 0
281 -25 36 2547 0
-393 -235 410 2548 0
469 141 257 2549 0
261 -467 -171 2550 0
-296 -278 -363 2551 0
-377 -299 5 2552 0
184 289 219 2553 0
341 -336 -14 2554 0
-435 -65 -432 2555 0
-199 111 -420 2556 0
-66 -351 490 2557 0
-190 268 200 2558 0
-291 -484 284 2559 0
-69 -83 -369 2560 0
-418 -302 145 2561 0
-286 30 -394 2562 0
173 -93 -7 2563 0
-65 -451 365 2564 0
-187 -119 488 2565 0
498 183 -264 2566 0
451 -49 -314 2567 0
128 -274 290 2568 0
-485 -203 -71 2569 0
20 87 169 2570 0
7 270 206 2571 0
-92 361 61 2572 0
39 86 30 2573 0
414 -301 -330 2574 0
37 -111 499 2575 0
-220 140 448 2576 0
-44 364 -423 2577 0
-190 -65 359 2578 0
444 146 367 2579 0
-58 -209 74 2580 0
436 -310 -495 2581 0
-253 162 429 2582 0
438 -21 443 2583 0
-10 180 371 2584 0
-195 -217 -124 2585 0
280 -263 453 2586 0
379 -60 44 2587 0
109 24 244 2588 0
-68 -448 -182 2589 0
-441 -377 -430 2590 0
-17 -272 -329 2591 0
378 -137 -93 2592 0
-188 -197 -283 2593 0
-330 -122 260 2594 0
312 265 -240 2595 0
173 351 -353 2596 0
-288 -113 -357 2597 0
-363 296 187 2598 0
104 353 122 2599 0
249 200 -484 2600 0
-157 -350 95 2601 0
-362 57 87 2602 0
-82 164 13 2603 0
-329 -149 200 2604 0
-492 -338 -238 2605 0
-155 -448 85 2606 0
-462 60 198 2607 0
164 194 112 2608 0
-313 417 -10 2609 0
-54 -67 33 2610 0
-16 -127 101 2611 0
-20 420 -140 2612 0
107 151 446 2613 0
-407 118 -103 2614 0
-319 338 -484 2615 0
376 -217 -322 2616 0
-426 -142 463 2617 0
-157 -210 -194 2618 0
186 -4 -202 2619 0
-373 -309 143 2620 0
-392 -239 166 2621 0
36 -281 -456 2622 0
-13 -413 344 2623 0
487 -289 -72 2624 0
-257 372 -228 2625 0
371 473 -323 2626 0
373 -212 -96 2627 0
296 312 -44 2628 0
-17 5 95 2629 0
301 -148 175 2630 0
467 61 371 2631 0
405 -395 306 2632 0
415 -53 171 2633 0
-377 2 345 2634 0
-138 492 -136 2635 0
78 -287 -418 2636 0
325 -170 448 2637 0
-478 499 155 2638 0
482 499 -110 2639 0
426 345 -491 2640 0
498 -483 -65 2641 0
380 92 -439 2642 0
-361 -75 -226 2643 0
-67 -117 -48 2644 0
192 394 314 2645 0
116 213 287 2646 0
445 399 -163 2647 0
439 -34 138 2648 0
23 429 35 2649 0
480 -422 -278 2650 0
