p cnf 2650 2150
-357 349 -4 501 0
164 315 423 502 0
-463 488 476 503 0
-89 -67 472 504 0
393 -176 11 505 0
-245 165 248 506 0
-426 498 -346 507 0
-39 2 261 508 0
-388 338 -499 509 0
83 -212 -122 510 0
344 -391 283 511 0
393 -287 256 512 0
-168 192 348 513 0
-423 311 92 514 0
343 356 -92 515 0
-287 149 -81 516 0
-396 -475 90 517 0
-422 104 354 518 0
-139 -404 138 519 0
320 -92 492 520 0
-469 197 235 521 0
242 -62 410 522 0
192 258 326 523 0
-316 -198 -296 524 0
-178 -203 -488 525 0
-186 -445 -458 526 0
9 -100 -303 527 0
-72 -342 -421 528 0
-473 470 374 529 0
-64 -10 -199 530 0
28 49 -263 531 0
354 -73 -295 532 0
-172 -474 492 533 0
-57 -12 115 534 0
380 -187 89 535 0
367 43 -284 536 0
-466 267 133 537 0
-405 142 -108 538 0
320 -456 248 539 0
63 373 -453 540 0
152 292 -221 541 0
414 294 -240 542 0
-33 188 -241 543 0
284 213 -453 544 0
-454 -160 -246 545 0
408 240 434 546 0
-231 -94 -214 547 0
-10 -44 -239 548 0
183 -325 -342 549 0
-435 432 -185 550 0
-66 9 367 551 0
254 92 115 552 0
-143 91 210 553 0
193 -349 -219 554 0
355 -158 345 555 0
236 404 -179 556 0
383 232 387 557 0
-66 -492 -464 558 0
177 -97 224 559 0
133 -432 397 560 0
298 77 148 561 0
-458 212 248 562 0
-121 436 163 563 0
62 365 96 564 0
-368 -129 414 565 0
-395 186 405 566 0
270 417 -498 567 0
201 -387 452 568 0
-18 -315 445 569 0
176 -418 153 570 0
-181 -121 -202 571 0
274 46 -163 572 0
362 110 318 573 0
89 -19 -330 574 0
304 2 471 575 0
158 -144 -406 576 0
399 46 87 577 0
154 441 297 578 0
60 106 -246 579 0
226 237 116 580 0
-226 -86 -267 581 0
420 -453 414 582 0
-413 351 -301 583 0
205 116 -257 584 0
-77 433 174 585 0
-254 -324 337 586 0
63 231 404 587 0
-85 -300 206 588 0
-454 458 -287 589 0
-143 366 109 590 0
74 -280 286 591 0
481 -234 365 592 0
105 -275 -329 593 0
-351 -55 224 594 0
-164 -375 -436 595 0
-386 -34 -171 596 0
59 -414 473 597 0
-320 -223 126 598 0
1 -400 -423 599 0
-249 31 260 600 0
-166 -276 -395 601 0
195 63 -345 602 0
328 157 -377 603 0
455 68 369 604 0
-204 -118 -431 605 0
-417 144 -396 606 0
500 282 469 607 0
119 65 -174 608 0
-378 -119 -251 609 0
-349 -81 358 610 0
-21 -449 -270 611 0
-61 -123 -83 612 0
330 -335 102 613 0
210 -151 99 614 0
-346 -446 337 615 0
-46 39 478 616 0
-24 293 -177 617 0
-206 448 -125 618 0
-432 -222 -284 619 0
447 153 38 620 0
303 -51 -119 621 0
339 -154 -313 622 0
-5 -367 -351 623 0
-409 -168 -410 624 0
-118 335 -393 625 0
423 -286 467 626 0
172 -233 -60 627 0
10 -477 -48 628 0
-89 -483 -64 629 0
-206 -269 143 630 0
-467 -484 321 631 0
-435 178 283 632 0
-474 -292 299 633 0
-265 256 140 634 0
-61 17 29 635 0
-227 -233 -471 636 0
-417 118 -275 637 0
-302 -103 124 638 0
-272 -363 420 639 0
309 463 -181 640 0
473 450 -160 641 0
480 229 -41 642 0
412 386 397 643 0
200 96 -41 644 0
-385 -226 287 645 0
147 44 25 646 0
310 466 -469 647 0
-365 312 -385 648 0
-228 116 332 649 0
-342 -130 131 650 0
432 378 -348 651 0
-267 85 -133 652 0
41 216 -45 653 0
-119 -230 191 654 0
-196 -422 -408 655 0
-110 291 -300 656 0
287 -437 -296 657 0
223 454 293 658 0
491 -223 466 659 0
-147 -60 -407 660 0
418 46 -400 661 0
-434 -257 -323 662 0
-20 121 -267 663 0
-500 -82 497 664 0
-62 5 -46 665 0
192 458 -285 666 0
143 38 318 667 0
457 -270 -58 668 0
-474 457 360 669 0
-474 -403 46 670 0
-320 22 -458 671 0
77 139 95 672 0
-394 443 -333 673 0
147 -73 -344 674 0
-328 261 -181 675 0
-292 47 -111 676 0
-449 -116 291 677 0
118 9 414 678 0
-349 -111 425 679 0
-30 -414 73 680 0
-250 11 -156 681 0
-342 -445 -48 682 0
80 38 391 683 0
169 -172 -132 684 0
90 296 -39 685 0
-287 -21 156 686 0
194 -121 58 687 0
-93 -402 -122 688 0
-460 281 154 689 0
-39 210 464 690 0
-153 -88 -404 691 0
130 -299 -337 692 0
113 158 462 693 0
-361 -500 -378 694 0
-196 448 -411 695 0
-500 -148 -16 696 0
-436 -279 270 697 0
413 13 -207 698 0
457 4 220 699 0
222 14 162 700 0
68 -430 199 701 0
118 232 -85 702 0
429 -116 72 703 0
261 481 102 704 0
-313 -80 -61 705 0
430 222 -418 706 0
-188 175 363 707 0
179 -325 -473 708 0
406 -197 102 709 0
-119 262 -439 710 0
225 383 87 711 0
-401 -419 409 712 0
448 461 198 713 0
420 -150 429 714 0
-405 67 114 715 0
399 -257 -275 716 0
-213 -384 -11 717 0
230 89 -102 718 0
217 -41 114 719 0
401 108 -461 720 0
220 200 -196 721 0
89 74 -380 722 0
-58 106 -2 723 0
250 68 123 724 0
-372 4 174 725 0
349 210 -102 726 0
-460 -372 414 727 0
48 -245 -167 728 0
104 -398 -130 729 0
-303 193 338 730 0
378 438 265 731 0
290 -114 325 732 0
-138 -173 -403 733 0
312 304 -356 734 0
-35 -298 259 735 0
-198 269 -8 736 0
383 342 123 737 0
419 -420 423 738 0
-429 355 75 739 0
444 -269 -31 740 0
-380 -10 480 741 0
-190 247 -205 742 0
-230 407 -413 743 0
447 260 306 744 0
159 -294 -222 745 0
144 402 -442 746 0
-90 250 85 747 0
-280 34 360 748 0
-148 -100 -73 749 0
415 109 436 750 0
-294 -291 269 751 0
-375 485 -480 752 0
462 89 99 753 0
-465 216 -81 754 0
-149 -176 222 755 0
236 278 50 756 0
400 -306 -87 757 0
136 102 -436 758 0
184 155 373 759 0
301 -272 -299 760 0
-253 7 -286 761 0
-419 137 244 762 0
326 306 86 763 0
-180 188 -53 764 0
487 -331 43 765 0
16 171 -333 766 0
289 10 398 767 0
-190 -72 185 768 0
171 417 -37 769 0
-96 270 484 770 0
333 468 -282 771 0
-473 22 -7 772 0
-391 -166 478 773 0
-200 378 -70 774 0
15 338 -493 775 0
-148 -410 -214 776 0
-459 296 -246 777 0
-47 -14 449 778 0
250 -184 -324 779 0
-487 11 -28 780 0
79 265 -457 781 0
-256 98 -313 782 0
299 168 -240 783 0
259 -11 92 784 0
258 -235 -252 785 0
351 -151 299 786 0
159 -91 269 787 0
356 -297 462 788 0
362 51 289 789 0
392 204 -355 790 0
434 -454 370 791 0
248 243 341 792 0
-162 102 -263 793 0
-277 388 144 794 0
-193 -153 77 795 0
-499 -88 175 796 0
-154 428 -298 797 0
258 55 -495 798 0
386 -242 -323 799 0
183 149 204 800 0
120 204 274 801 0
211 -114 182 802 0
-477 299 468 803 0
76 114 255 804 0
489 -160 159 805 0
-223 48 148 806 0
-154 -441 284 807 0
67 417 130 808 0
434 455 -401 809 0
-442 -160 -299 810 0
-324 -9 328 811 0
60 326 -269 812 0
-489 380 -161 813 0
399 -430 272 814 0
-76 54 268 815 0
99 -260 264 816 0
-202 337 310 817 0
-409 192 -477 818 0
344 429 -19 819 0
145 -213 -220 820 0
356 -163 14 821 0
-170 334 -111 822 0
-308 17 22 823 0
495 201 -429 824 0
-391 489 412 825 0
-67 -445 245 826 0
117 -224 72 827 0
-486 -54 423 828 0
385 181 114 829 0
-480 -233 253 830 0
404 172 -67 831 0
218 171 -317 832 0
-87 35 42 833 0
-396 -390 -249 834 0
-487 -447 -321 835 0
-52 -139 436 836 0
-438 -215 -253 837 0
-323 2 -316 838 0
46 487 434 839 0
-122 10 -402 840 0
-428 2 -11 841 0
84 -463 -294 842 0
278 181 53 843 0
-130 157 -374 844 0
-233 95 -193 845 0
-118 84 233 846 0
273 -249 184 847 0
-214 -357 -143 848 0
261 -103 -7 849 0
-168 75 469 850 0
-76 24 -140 851 0
-12 -3 488 852 0
296 -170 -291 853 0
339 132 448 854 0
199 9 244 855 0
-305 -22 -497 856 0
218 -232 -191 857 0
-273 -222 306 858 0
-211 234 -207 859 0
499 -28 -335 860 0
473 -140 141 861 0
110 -300 -411 862 0
147 -145 -408 863 0
-73 228 -459 864 0
35 -493 276 865 0
-86 -3 -388 866 0
-175 431 334 867 0
443 -289 382 868 0
72 -451 62 869 0
-256 447 -127 870 0
164 -269 -484 871 0
135 387 185 872 0
-410 32 424 873 0
-35 469 136 874 0
76 36 438 875 0
-228 -260 47 876 0
58 336 102 877 0
-169 -185 472 878 0
-5 32 -117 879 0
-337 93 225 880 0
51 -308 -74 881 0
176 118 -411 882 0
-339 -106 231 883 0
136 -312 430 884 0
365 -8 266 885 0
-498 -266 267 886 0
269 466 210 887 0
240 -494 -371 888 0
-422 69 -380 889 0
304 191 -356 890 0
-364 88 376 891 0
77 -48 -187 892 0
12 -299 -112 893 0
57 -338 -403 894 0
-285 -156 275 895 0
-432 53 -105 896 0
-96 -326 113 897 0
-142 40 173 898 0
-453 325 -447 899 0
189 394 -364 900 0
266 -463 387 901 0
89 -437 360 902 0
50 -30 496 903 0
-231 264 -371 904 0
-123 -223 -290 905 0
-54 -224 206 906 0
-96 222 -94 907 0
481 -97 141 908 0
-168 -268 153 909 0
-399 -261 -285 910 0
-110 18 402 911 0
-260 352 500 912 0
-303 168 338 913 0
194 337 499 914 0
331 -149 -66 915 0
-418 193 2 916 0
-325 321 -132 917 0
-229 38 279 918 0
64 455 395 919 0
485 -215 -326 920 0
-209 -363 -485 921 0
238 430 -467 922 0
-311 -5 79 923 0
164 353 266 924 0
372 -174 -301 925 0
-124 -135 487 926 0
-437 34 352 927 0
187 -148 -4 928 0
390 -279 436 929 0
-155 -344 224 930 0
-101 -308 225 931 0
240 -245 -207 932 0
-280 389 -356 933 0
350 285 -488 934 0
-447 265 117 935 0
447 -340 -109 936 0
-415 164 452 937 0
479 -204 295 938 0
-384 -151 495 939 0
345 110 146 940 0
444 130 338 941 0
352 -36 -471 942 0
-437 -124 317 943 0
332 -64 397 944 0
335 -130 180 945 0
466 304 -341 946 0
-126 -463 381 947 0
268 -272 -326 948 0
-458 54 -8 949 0
199 222 408 950 0
-443 87 -441 951 0
44 261 33 952 0
-34 -490 -125 953 0
295 213 203 954 0
406 -380 243 955 0
-233 -55 -129 956 0
-392 -242 7 957 0
372 367 -298 958 0
-224 423 124 959 0
474 327 51 960 0
-467 -238 151 961 0
-288 -384 368 962 0
174 409 -295 963 0
-348 -493 -223 964 0
169 -356 294 965 0
249 98 292 966 0
-471 416 -20 967 0
-451 267 240 968 0
-77 -78 330 969 0
-56 -440 -3 970 0
-68 182 326 971 0
3 -453 -252 972 0
-353 -78 64 973 0
-394 -499 303 974 0
-219 341 -72 975 0
-259 -432 33 976 0
75 82 250 977 0
-143 18 113 978 0
-275 -225 -211 979 0
413 205 110 980 0
140 305 382 981 0
381 -335 238 982 0
-108 -333 -101 983 0
295 191 -180 984 0
-160 -147 -303 985 0
291 465 196 986 0
381 -79 154 987 0
-417 -13 -446 988 0
-202 482 -145 989 0
494 -438 -180 990 0
-486 121 233 991 0
-454 130 320 992 0
37 273 345 993 0
8 468 -249 994 0
278 -267 117 995 0
-353 30 -284 996 0
342 258 124 997 0
-165 173 136 998 0
145 -345 352 999 0
379 -26 -416 1000 0
-300 -292 -346 1001 0
-18 -51 379 1002 0
-164 370 -78 1003 0
-215 87 -472 1004 0
284 -355 -37 1005 0
-40 -71 -137 1006 0
366 310 486 1007 0
375 483 -343 1008 0
481 -110 108 1009 0
116 -350 -72 1010 0
-102 319 380 1011 0
-375 -387 409 1012 0
192 255 -2 1013 0
-447 -248 -82 1014 0
-361 -176 374 1015 0
-385 191 -407 1016 0
374 54 -192 1017 0
-243 -45 -104 1018 0
158 -403 -13 1019 0
236 129 -426 1020 0
-472 314 -337 1021 0
8 476 75 1022 0
-352 266 -377 1023 0
377 -402 96 1024 0
-393 -156 247 1025 0
39 -22 383 1026 0
299 117 102 1027 0
20 228 96 1028 0
120 435 -220 1029 0
406 211 -321 1030 0
-37 489 473 1031 0
-431 277 -198 1032 0
-64 274 147 1033 0
-40 -465 -269 1034 0
455 369 -295 1035 0
5 -386 -166 1036 0
-153 365 339 1037 0
-493 476 -131 1038 0
156 -23 44 1039 0
-354 10 118 1040 0
-379 -22 99 1041 0
-432 456 380 1042 0
146 360 -120 1043 0
-198 408 185 1044 0
-159 101 -233 1045 0
326 222 239 1046 0
-265 372 -331 1047 0
106 -284 6 1048 0
330 85 403 1049 0
-259 342 493 1050 0
199 258 257 1051 0
-213 -401 -104 1052 0
-487 329 -110 1053 0
115 26 -280 1054 0
60 -142 24 1055 0
330 182 -427 1056 0
-132 433 258 1057 0
456 459 342 1058 0
499 -249 371 1059 0
-480 305 -76 1060 0
-201 -353 403 1061 0
226 -341 417 1062 0
-364 -165 396 1063 0
-417 216 146 1064 0
358 7 198 1065 0
233 181 17 1066 0
117 -367 198 1067 0
-305 168 288 1068 0
-460 -154 421 1069 0
416 344 46 1070 0
-419 -47 -281 1071 0
-453 -74 401 1072 0
-259 73 -364 1073 0
-235 -328 -179 1074 0
282 -365 -3 1075 0
120 -91 -151 1076 0
2 374 296 1077 0
363 250 457 1078 0
-36 -211 8 1079 0
406 -299 96 1080 0
-279 -307 -490 1081 0
-47 75 -268 1082 0
10 -278 -148 1083 0
438 -4 254 1084 0
-400 126 -154 1085 0
-22 333 264 1086 0
352 -384 -454 1087 0
356 137 -284 1088 0
50 167 16 1089 0
6 426 344 1090 0
-101 -266 116 1091 0
-173 181 -391 1092 0
-278 219 242 1093 0
-80 -441 -305 1094 0
145 -30 387 1095 0
-452 486 -297 1096 0
-169 158 150 1097 0
468 186 -262 1098 0
-326 425 -411 1099 0
169 417 198 1100 0
475 442 146 1101 0
-141 315 -383 1102 0
-422 -71 -236 1103 0
245 330 133 1104 0
377 329 -366 1105 0
-9 -302 255 1106 0
116 459 469 1107 0
-216 95 -100 1108 0
-103 390 -281 1109 0
-232 79 315 1110 0
311 -89 -445 1111 0
-429 252 -290 1112 0
-165 -326 -321 1113 0
266 -81 381 1114 0
179 377 -177 1115 0
-45 182 306 1116 0
382 331 165 1117 0
-448 117 483 1118 0
126 -351 -330 1119 0
-100 62 -347 1120 0
208 188 214 1121 0
-172 -280 -84 1122 0
208 158 58 1123 0
296 -449 -353 1124 0
-27 -91 -273 1125 0
-331 256 65 1126 0
-70 -356 -301 1127 0
24 -289 -445 1128 0
-345 314 452 1129 0
15 99 -54 1130 0
-24 315 16 1131 0
-101 113 -148 1132 0
-89 58 462 1133 0
-44 -191 -123 1134 0
483 -381 -50 1135 0
196 -245 -472 1136 0
438 463 395 1137 0
-387 165 195 1138 0
-454 -403 488 1139 0
157 -486 416 1140 0
124 -490 357 1141 0
-486 442 -3 1142 0
-247 -196 -434 1143 0
61 -173 -422 1144 0
-160 -420 246 1145 0
317 -52 143 1146 0
452 -320 203 1147 0
-483 397 93 1148 0
426 169 344 1149 0
373 314 149 1150 0
107 315 -129 1151 0
-386 417 -242 1152 0
203 -70 -156 1153 0
-246 379 197 1154 0
275 -128 -384 1155 0
-10 -459 12 1156 0
1 -289 -248 1157 0
1 116 124 1158 0
443 14 -475 1159 0
141 -142 -7 1160 0
344 2 -127 1161 0
-422 474 318 1162 0
471 11 209 1163 0
-440 283 323 1164 0
-236 -25 -104 1165 0
-306 -263 -120 1166 0
-343 134 -9 1167 0
-5 -322 -146 1168 0
-144 -255 -475 1169 0
172 136 -271 1170 0
205 330 240 1171 0
-214 141 447 1172 0
-31 -20 -77 1173 0
329 -21 194 1174 0
-166 411 -327 1175 0
396 -65 161 1176 0
407 46 -112 1177 0
392 -244 216 1178 0
256 -479 142 1179 0
269 -25 -42 1180 0
-355 -91 -266 1181 0
261 351 -24 1182 0
215 165 -108 1183 0
-469 -355 -289 1184 0
-147 -283 -38 1185 0
216 -252 -401 1186 0
-373 200 399 1187 0
304 2 -468 1188 0
148 490 313 1189 0
10 -9 -443 1190 0
-360 221 -52 1191 0
202 -383 426 1192 0
263 405 318 1193 0
-47 -498 -343 1194 0
155 4 68 1195 0
52 463 470 1196 0
274 -265 484 1197 0
-468 140 -354 1198 0
407 350 474 1199 0
484 248 -287 1200 0
-114 254 -256 1201 0
-281 -130 260 1202 0
329 -278 252 1203 0
-194 -410 2 1204 0
-419 4 -190 1205 0
111 -261 -114 1206 0
16 -102 366 1207 0
-360 59 -309 1208 0
28 -232 273 1209 0
-30 123 -8 1210 0
140 230 477 1211 0
-447 368 -63 1212 0
29 218 310 1213 0
347 349 53 1214 0
-221 -231 14 1215 0
-277 247 299 1216 0
360 143 175 1217 0
319 404 -293 1218 0
-478 -396 151 1219 0
35 -333 -383 1220 0
42 477 130 1221 0
-484 317 -364 1222 0
-384 -218 -432 1223 0
-173 441 -453 1224 0
326 117 -243 1225 0
378 -241 217 1226 0
95 339 46 1227 0
143 165 -279 1228 0
210 -289 333 1229 0
-337 -344 -457 1230 0
347 286 431 1231 0
-228 412 -289 1232 0
-111 -375 163 1233 0
-75 -373 92 1234 0
12 -27 151 1235 0
-236 -62 181 1236 0
-490 386 -488 1237 0
94 473 303 1238 0
-193 -180 -288 1239 0
468 -442 -81 1240 0
167 379 -405 1241 0
-487 -351 -206 1242 0
-331 78 71 1243 0
185 101 102 1244 0
44 336 378 1245 0
400 -427 -397 1246 0
-113 419 -289 1247 0
115 -476 305 1248 0
-418 285 -214 1249 0
172 -464 5 1250 0
-49 10 433 1251 0
-243 -485 -327 1252 0
196 175 -297 1253 0
-419 -275 -23 1254 0
-361 244 439 1255 0
43 196 228 1256 0
250 280 404 1257 0
-11 350 153 1258 0
-375 -79 329 1259 0
6 -189 -237 1260 0
-145 7 -291 1261 0
-444 -460 -293 1262 0
-2 257 -265 1263 0
362 -6 -189 1264 0
340 201 -193 1265 0
-231 308 -486 1266 0
-82 195 -35 1267 0
255 -41 247 1268 0
-345 163 -2 1269 0
-114 -444 -151 1270 0
366 -352 -48 1271 0
-481 -363 438 1272 0
17 -118 -53 1273 0
433 255 62 1274 0
152 -145 343 1275 0
294 -431 -225 1276 0
491 381 -295 1277 0
-71 193 -241 1278 0
137 106 -152 1279 0
-401 -276 -487 1280 0
-461 113 492 1281 0
-281 -468 -143 1282 0
-19 378 303 1283 0
31 -254 -198 1284 0
460 -365 483 1285 0
327 -63 -5 1286 0
30 -19 114 1287 0
-318 498 333 1288 0
-436 393 45 1289 0
140 -220 32 1290 0
-209 -100 -62 1291 0
-407 21 -447 1292 0
-441 26 -68 1293 0
306 -296 -113 1294 0
-384 144 -420 1295 0
204 -124 -225 1296 0
283 38 -409 1297 0
262 12 -123 1298 0
-36 350 -434 1299 0
-384 217 134 1300 0
-105 303 -324 1301 0
343 369 143 1302 0
281 -420 224 1303 0
234 212 467 1304 0
-229 198 451 1305 0
-271 437 402 1306 0
331 -370 -445 1307 0
-107 -60 -202 1308 0
184 52 -74 1309 0
-167 127 -109 1310 0
-69 -12 273 1311 0
-100 352 -141 1312 0
-279 374 450 1313 0
-180 43 -401 1314 0
-246 337 -2 1315 0
392 254 192 1316 0
-100 145 294 1317 0
-112 -95 -309 1318 0
-75 -442 395 1319 0
165 166 475 1320 0
273 88 337 1321 0
469 -102 223 1322 0
174 427 484 1323 0
-186 101 450 1324 0
-474 140 96 1325 0
-234 -222 -72 1326 0
238 73 -247 1327 0
-434 -162 388 1328 0
-68 -267 161 1329 0
-150 48 -288 1330 0
117 355 264 1331 0
-132 78 249 1332 0
299 -71 267 1333 0
240 -403 3 1334 0
-353 -317 -349 1335 0
254 303 55 1336 0
233 -71 343 1337 0
-109 426 177 1338 0
113 429 58 1339 0
423 289 -167 1340 0
-476 -363 222 1341 0
-145 -369 -257 1342 0
348 261 75 1343 0
-371 -277 496 1344 0
-11 494 -64 1345 0
-338 490 -47 1346 0
94 222 450 1347 0
441 38 -409 1348 0
-213 -59 371 1349 0
-463 -385 101 1350 0
415 -39 -345 1351 0
-306 426 16 1352 0
460 45 -397 1353 0
-289 105 329 1354 0
-418 -365 -319 1355 0
35 -79 231 1356 0
49 475 391 1357 0
44 370 451 1358 0
-258 439 361 1359 0
-181 -217 -36 1360 0
-471 -400 435 1361 0
237 74 -179 1362 0
-422 -179 -140 1363 0
-207 -110 -12 1364 0
335 100 229 1365 0
311 406 -187 1366 0
132 -58 -391 1367 0
63 -19 -242 1368 0
202 -469 -210 1369 0
-38 -368 175 1370 0
110 -91 -422 1371 0
338 193 -478 1372 0
8 -223 -246 1373 0
14 94 -28 1374 0
485 -194 -92 1375 0
-56 121 341 1376 0
398 380 104 1377 0
-335 -117 -127 1378 0
256 236 192 1379 0
151 481 270 1380 0
-413 -276 228 1381 0
-183 -253 29 1382 0
-414 -402 57 1383 0
-487 -307 477 1384 0
-162 -351 -140 1385 0
-451 70 182 1386 0
-330 200 253 1387 0
-213 -309 -367 1388 0
-328 441 297 1389 0
99 102 -147 1390 0
174 31 -419 1391 0
273 -430 135 1392 0
412 401 -420 1393 0
60 391 -407 1394 0
221 196 -471 1395 0
-429 -192 -82 1396 0
223 -60 171 1397 0
496 468 294 1398 0
272 89 -176 1399 0
-401 113 36 1400 0
-405 -401 442 1401 0
213 -261 -77 1402 0
203 -246 229 1403 0
432 -80 -18 1404 0
285 -494 303 1405 0
43 185 2 1406 0
142 -2 -353 1407 0
446 -483 245 1408 0
-255 -83 203 1409 0
-316 -338 -90 1410 0
492 -137 405 1411 0
288 -379 -295 1412 0
-478 386 293 1413 0
431 432 399 1414 0
348 498 -255 1415 0
52 -283 -329 1416 0
477 35 -47 1417 0
317 44 405 1418 0
-266 450 470 1419 0
-286 157 405 1420 0
-80 -282 -319 1421 0
212 -389 483 1422 0
117 -228 -404 1423 0
-336 -418 -191 1424 0
331 53 287 1425 0
-192 -412 389 1426 0
120 453 97 1427 0
-172 21 -146 1428 0
103 91 -341 1429 0
-395 165 487 1430 0
315 115 166 1431 0
119 331 -295 1432 0
-347 260 -182 1433 0
187 -89 -304 1434 0
-59 -331 113 1435 0
441 -201 188 1436 0
-168 -328 -377 1437 0
277 -407 64 1438 0
85 -76 -96 1439 0
-329 -64 147 1440 0
216 39 -467 1441 0
213 -453 -137 1442 0
-472 -396 232 1443 0
-249 296 17 1444 0
458 -364 480 1445 0
-363 -310 226 1446 0
259 195 -13 1447 0
-172 -471 140 1448 0
265 490 414 1449 0
-232 301 -7 1450 0
-168 -280 -398 1451 0
283 300 -405 1452 0
-406 13 -331 1453 0
-362 -307 -372 1454 0
-473 -81 246 1455 0
-16 171 8 1456 0
-378 152 203 1457 0
-389 -311 -198 1458 0
151 326 -463 1459 0
-75 -195 -453 1460 0
483 -426 456 1461 0
-360 439 -163 1462 0
-495 375 -431 1463 0
-119 314 -476 1464 0
104 146 370 1465 0
-58 379 356 1466 0
149 168 291 1467 0
146 294 219 1468 0
-291 205 -330 1469 0
160 77 -320 1470 0
431 -174 -368 1471 0
-143 387 92 1472 0
-347 257 -185 1473 0
-407 2 -357 1474 0
38 206 367 1475 0
325 -323 217 1476 0
-498 -299 466 1477 0
380 -39 496 1478 0
-466 -401 480 1479 0
-423 203 350 1480 0
-438 153 -359 1481 0
355 -176 129 1482 0
-124 -432 352 1483 0
-48 -395 472 1484 0
-55 422 -251 1485 0
-395 34 403 1486 0
-218 -30 -375 1487 0
264 298 -84 1488 0
-61 218 -477 1489 0
-266 410 -316 1490 0
-288 39 -334 1491 0
274 -96 -139 1492 0
-212 91 389 1493 0
419 -140 393 1494 0
-423 497 63 1495 0
408 -96 -20 1496 0
-150 -437 -378 1497 0
-270 102 -5 1498 0
-366 -431 193 1499 0
474 -173 -325 1500 0
52 -138 -122 1501 0
-217 266 318 1502 0
298 -39 319 1503 0
131 -123 137 1504 0
-415 -413 -41 1505 0
-109 338 214 1506 0
140 -354 282 1507 0
437 468 -277 1508 0
-122 -332 -12 1509 0
82 350 -495 1510 0
21 -351 -252 1511 0
-425 408 -395 1512 0
454 30 16 1513 0
95 -6 -371 1514 0
-339 -266 379 1515 0
-405 33 151 1516 0
-349 32 109 1517 0
43 -34 47 1518 0
104 6 171 1519 0
-63 481 -484 1520 0
383 205 -459 1521 0
156 395 -154 1522 0
1 4 -276 1523 0
247 364 244 1524 0
79 -77 -109 1525 0
-202 -364 -43 1526 0
442 -430 -87 1527 0
110 -391 -373 1528 0
380 322 -372 1529 0
-220 106 -19 1530 0
-286 -156 -371 1531 0
-476 467 -366 1532 0
212 62 107 1533 0
139 211 -248 1534 0
17 344 -234 1535 0
200 -111 344 1536 0
-171 185 -66 1537 0
116 -406 354 1538 0
185 -473 103 1539 0
11 363 200 1540 0
-139 -40 -421 1541 0
34 -170 358 1542 0
26 -57 -339 1543 0
-220 -19 160 1544 0
-267 401 324 1545 0
255 -81 -200 1546 0
-193 -433 -444 1547 0
234 187 265 1548 0
-111 418 -325 1549 0
313 248 16 1550 0
-202 322 -308 1551 0
-156 -1 -263 1552 0
-122 -234 -327 1553 0
442 -461 -436 1554 0
-375 202 66 1555 0
-201 -483 -39 1556 0
-103 -238 -363 1557 0
272 416 23 1558 0
220 -96 -131 1559 0
44 69 273 1560 0
431 -113 190 1561 0
-486 35 136 1562 0
-83 399 -370 1563 0
-288 450 -171 1564 0
-454 328 47 1565 0
172 -236 -494 1566 0
-491 -446 -307 1567 0
-304 -360 -147 1568 0
-302 -433 484 1569 0
327 116 -305 1570 0
483 43 190 1571 0
96 291 162 1572 0
-6 -261 159 1573 0
123 468 380 1574 0
140 -267 -62 1575 0
-398 375 -138 1576 0
-31 409 -164 1577 0
320 314 -461 1578 0
-402 -302 415 1579 0
-270 345 -263 1580 0
-353 -392 -244 1581 0
183 -392 -480 1582 0
-310 265 352 1583 0
-418 -6 132 1584 0
-63 -14 -40 1585 0
-446 -99 498 1586 0
404 -193 -6 1587 0
323 -230 34 1588 0
-296 304 -191 1589 0
127 -457 -440 1590 0
421 -154 141 1591 0
98 -425 190 1592 0
-464 -413 -154 1593 0
-483 365 -457 1594 0
379 -317 -266 1595 0
-6 124 -327 1596 0
229 -313 -129 1597 0
123 41 67 1598 0
119 -69 81 1599 0
-116 -406 -486 1600 0
37 116 -418 1601 0
216 -234 -281 1602 0
-17 53 -166 1603 0
293 -361 -434 1604 0
302 -259 10 1605 0
-175 395 -474 1606 0
-370 -400 -81 1607 0
-133 -132 371 1608 0
-493 -204 -427 1609 0
-143 -367 -427 1610 0
-427 -127 -110 1611 0
-247 211 -26 1612 0
-203 -314 245 1613 0
273 156 -260 1614 0
-407 16 420 1615 0
-411 27 24 1616 0
353 348 292 1617 0
212 376 -322 1618 0
121 419 -320 1619 0
-270 -109 342 1620 0
-77 418 162 1621 0
432 319 -329 1622 0
-269 89 68 1623 0
421 151 276 1624 0
298 100 118 1625 0
-341 471 -216 1626 0
61 -426 -290 1627 0
-352 79 358 1628 0
-259 -480 82 1629 0
120 -399 64 1630 0
-237 284 280 1631 0
-90 -22 404 1632 0
-199 486 -272 1633 0
242 86 339 1634 0
-318 114 347 1635 0
485 497 -50 1636 0
26 294 420 1637 0
-363 91 354 1638 0
-48 -118 362 1639 0
231 117 195 1640 0
-282 -84 477 1641 0
-219 -483 344 1642 0
-341 386 282 1643 0
-219 -43 158 1644 0
233 -465 -371 1645 0
-33 -162 -495 1646 0
-184 -383 34 1647 0
-52 -76 424 1648 0
-130 -226 -38 1649 0
282 -222 -336 1650 0
-4 254 -25 1651 0
-381 31 205 1652 0
170 34 422 1653 0
-470 -54 349 1654 0
345 -320 -439 1655 0
346 -260 -198 1656 0
473 -451 353 1657 0
261 -46 -290 1658 0
119 -71 -90 1659 0
35 -36 16 1660 0
-363 399 131 1661 0
453 -381 -467 1662 0
189 52 121 1663 0
-246 221 79 1664 0
-399 -316 -434 1665 0
-137 -3 -41 1666 0
228 -158 -80 1667 0
292 -404 -312 1668 0
404 -9 -409 1669 0
-244 -252 -11 1670 0
63 -279 498 1671 0
387 -280 224 1672 0
-441 453 328 1673 0
-485 249 438 1674 0
293 -494 -6 1675 0
-266 -211 435 1676 0
-388 -267 20 1677 0
358 -359 93 1678 0
-27 -329 -382 1679 0
-347 50 -391 1680 0
438 250 -280 1681 0
-289 266 -391 1682 0
-67 496 -244 1683 0
-480 322 -295 1684 0
192 -374 -408 1685 0
-239 369 168 1686 0
-358 472 31 1687 0
-303 -431 421 1688 0
-71 -286 -205 1689 0
-417 -95 29 1690 0
189 433 -417 1691 0
-110 -358 444 1692 0
172 79 -259 1693 0
-54 -420 323 1694 0
-135 -399 -117 1695 0
-37 -30 288 1696 0
275 15 -128 1697 0
-465 -185 215 1698 0
276 273 35 1699 0
-462 -292 -152 1700 0
261 48 -160 1701 0
-461 246 291 1702 0
-238 -336 135 1703 0
92 216 -124 1704 0
-272 -323 59 1705 0
-112 -114 -155 1706 0
-495 -420 -70 1707 0
241 -432 -181 1708 0
-123 -346 -476 1709 0
-267 -427 -442 1710 0
226 -243 291 1711 0
336 272 33 1712 0
-322 472 447 1713 0
-15 -53 45 1714 0
218 -202 -221 1715 0
28 -299 -284 1716 0
218 -371 -49 1717 0
-406 -269 185 1718 0
239 -215 -296 1719 0
296 469 -299 1720 0
461 -353 170 1721 0
105 -138 -362 1722 0
-147 -367 -193 1723 0
-480 124 12 1724 0
-479 177 -180 1725 0
38 -383 -263 1726 0
185 4 430 1727 0
5 -146 -97 1728 0
-262 500 210 1729 0
-53 424 97 1730 0
57 310 -228 1731 0
43 6 17 1732 0
-273 368 -477 1733 0
-321 -133 -58 1734 0
-244 463 -311 1735 0
-42 -85 22 1736 0
166 326 -443 1737 0
86 -261 381 1738 0
-265 464 226 1739 0
-326 65 -48 1740 0
6 296 120 1741 0
-190 -348 447 1742 0
-240 -139 375 1743 0
487 -275 -221 1744 0
497 42 176 1745 0
-122 -168 -461 1746 0
-111 26 82 1747 0
-130 -137 -78 1748 0
387 -121 -394 1749 0
370 -209 360 1750 0
-289 -486 -210 1751 0
128 -467 -273 1752 0
395 -334 -215 1753 0
-210 -338 -144 1754 0
9 459 74 1755 0
-75 -490 -458 1756 0
125 -414 -500 1757 0
-122 372 -312 1758 0
58 -99 301 1759 0
-322 265 -430 1760 0
-147 10 -53 1761 0
127 -144 -391 1762 0
461 184 176 1763 0
-117 -339 418 1764 0
181 -387 -426 1765 0
50 -249 129 1766 0
264 187 14 1767 0
315 46 73 1768 0
438 422 -105 1769 0
383 -347 -159 1770 0
179 195 -463 1771 0
-168 -297 388 1772 0
-349 286 436 1773 0
495 316 -346 1774 0
-39 284 486 1775 0
321 -444 80 1776 0
155 -103 -290 1777 0
-450 456 -243 1778 0
122 413 -454 1779 0
191 -5 -80 1780 0
216 107 48 1781 0
-153 -298 -387 1782 0
177 -458 -358 1783 0
-94 217 178 1784 0
120 -147 10 1785 0
183 305 317 1786 0
390 82 79 1787 0
270 34 499 1788 0
423 -284 292 1789 0
-280 -322 -332 1790 0
-149 282 202 1791 0
-413 -434 -37 1792 0
-414 325 174 1793 0
281 -165 232 1794 0
255 -206 151 1795 0
-415 51 -249 1796 0
25 154 473 1797 0
-435 -498 106 1798 0
97 125 -158 1799 0
-372 -268 -421 1800 0
-244 -125 -15 1801 0
38 -185 -271 1802 0
-124 -327 243 1803 0
26 -378 224 1804 0
-443 232 -348 1805 0
101 -117 421 1806 0
429 450 -90 1807 0
-248 80 90 1808 0
-398 130 -396 1809 0
-127 -443 -120 1810 0
396 272 145 1811 0
96 -461 299 1812 0
368 219 -130 1813 0
443 -323 342 1814 0
1 238 495 1815 0
-247 -220 -500 1816 0
-494 247 -279 1817 0
-9 -335 -215 1818 0
-88 -121 124 1819 0
208 -152 -213 1820 0
347 -206 -234 1821 0
-112 -149 18 1822 0
78 -2 120 1823 0
-437 293 388 1824 0
26 -349 212 1825 0
-141 479 -186 1826 0
-155 128 390 1827 0
-97 -346 -499 1828 0
-440 482 299 1829 0
-224 188 -275 1830 0
-332 9 297 1831 0
234 320 -93 1832 0
-210 -110 224 1833 0
-83 250 169 1834 0
-488 -403 163 1835 0
164 -495 383 1836 0
-377 -420 -102 1837 0
-90 48 -456 1838 0
79 -391 192 1839 0
-481 180 272 1840 0
-407 -466 -30 1841 0
151 -346 -411 1842 0
156 -67 261 1843 0
191 -272 -458 1844 0
477 44 246 1845 0
196 190 -205 1846 0
232 -3 456 1847 0
82 187 337 1848 0
169 -66 309 1849 0
-36 353 193 1850 0
253 -323 107 1851 0
-125 -294 -326 1852 0
232 -113 238 1853 0
71 -284 -105 1854 0
76 -356 -362 1855 0
262 -197 -95 1856 0
151 -422 -364 1857 0
-84 280 172 1858 0
-384 343 177 1859 0
364 -486 -82 1860 0
449 -465 381 1861 0
310 -488 -92 1862 0
-201 434 -352 1863 0
69 61 385 1864 0
-174 313 -69 1865 0
419 -26 338 1866 0
-139 443 -461 1867 0
-406 115 -453 1868 0
-227 -288 39 1869 0
495 -423 235 1870 0
411 295 483 1871 0
-147 292 -131 1872 0
-244 -220 -263 1873 0
-188 322 90 1874 0
143 -421 -277 1875 0
-213 -15 139 1876 0
171 -2 -462 1877 0
-449 73 -147 1878 0
-358 -495 254 1879 0
-472 230 137 1880 0
46 244 481 1881 0
-403 209 -378 1882 0
308 205 -357 1883 0
158 -273 61 1884 0
69 135 291 1885 0
229 471 459 1886 0
71 394 111 1887 0
124 500 -279 1888 0
245 -330 335 1889 0
-66 412 -124 1890 0
-229 -222 155 1891 0
238 -63 -190 1892 0
498 169 33 1893 0
211 -425 383 1894 0
-323 102 335 1895 0
306 451 429 1896 0
-322 -397 421 1897 0
-374 -266 -118 1898 0
-239 287 308 1899 0
-24 -198 162 1900 0
-172 454 -333 1901 0
5 81 -80 1902 0
342 -145 52 1903 0
79 -278 -66 1904 0
-222 -399 -435 1905 0
490 -95 166 1906 0
445 -398 -86 1907 0
-308 -167 295 1908 0
105 414 -274 1909 0
-338 267 -228 1910 0
369 -465 479 1911 0
90 -403 172 1912 0
-80 -202 -264 1913 0
388 -81 -357 1914 0
-206 -421 454 1915 0
383 -393 485 1916 0
-304 -106 -399 1917 0
153 50 -109 1918 0
-22 92 291 1919 0
-213 278 289 1920 0
-242 368 -405 1921 0
299 -177 51 1922 0
-444 427 305 1923 0
386 -58 423 1924 0
395 440 168 1925 0
134 131 107 1926 0
-239 -444 410 1927 0
402 -455 301 1928 0
-464 158 -67 1929 0
-323 67 -313 1930 0
130 -381 471 1931 0
331 446 -2 1932 0
271 -300 447 1933 0
-100 149 379 1934 0
498 443 -474 1935 0
-318 -295 -109 1936 0
-268 410 203 1937 0
-260 -487 -396 1938 0
399 195 80 1939 0
338 -228 -270 1940 0
-459 -445 486 1941 0
490 -97 -121 1942 0
-354 -395 284 1943 0
429 -380 293 1944 0
336 -311 -416 1945 0
380 -63 -96 1946 0
-371 357 276 1947 0
-134 -20 -137 1948 0
-169 86 287 1949 0
125 70 275 1950 0
476 -138 -351 1951 0
-66 -182 259 1952 0
-20 335 -398 1953 0
384 153 295 1954 0
66 231 305 1955 0
-62 390 391 1956 0
16 -362 -97 1957 0
244 -471 -239 1958 0
-433 -293 342 1959 0
224 44 120 1960 0
259 -313 -132 1961 0
173 -82 -324 1962 0
-34 -384 -79 1963 0
-139 361 98 1964 0
-435 -187 -478 1965 0
-335 362 -350 1966 0
68 -491 -352 1967 0
468 -394 -419 1968 0
241 -190 461 1969 0
96 -355 -382 1970 0
-386 -475 -242 1971 0
352 253 -414 1972 0
-13 67 -327 1973 0
375 78 443 1974 0
-349 -21 -13 1975 0
465 -71 414 1976 0
445 -416 -193 1977 0
-414 -143 -266 1978 0
349 -420 -394 1979 0
-16 397 323 1980 0
43 457 240 1981 0
469 -222 -433 1982 0
-216 392 389 1983 0
-99 -302 159 1984 0
-234 256 -99 1985 0
486 -36 -68 1986 0
-226 245 420 1987 0
-432 -19 -192 1988 0
157 276 -172 1989 0
340 95 443 1990 0
-185 118 419 1991 0
29 131 -234 1992 0
293 339 374 1993 0
-72 215 -39 1994 0
244 -70 270 1995 0
-396 30 -293 1996 0
354 460 364 1997 0
-429 209 22 1998 0
-220 250 362 1999 0
-258 -245 309 2000 0
-351 181 57 2001 0
196 -148 363 2002 0
-492 -430 -398 2003 0
6 -401 205 2004 0
-197 -395 -47 2005 0
492 184 -432 2006 0
267 -483 153 2007 0
-28 114 420 2008 0
465 159 -84 2009 0
-392 -465 98 2010 0
67 -2 163 2011 0
-437 200 220 2012 0
-223 174 -17 2013 0
234 -109 480 2014 0
387 56 -479 2015 0
204 -275 369 2016 0
154 -294 120 2017 0
367 324 -375 2018 0
-188 -106 -441 2019 0
-355 179 352 2020 0
281 -255 -55 2021 0
439 251 -218 2022 0
62 -45 59 2023 0
474 195 43 2024 0
-445 262 430 2025 0
-61 373 -331 2026 0
46 -419 105 2027 0
345 -354 426 2028 0
-434 -411 388 2029 0
217 -286 369 2030 0
129 293 213 2031 0
65 -333 127 2032 0
186 278 355 2033 0
-326 -203 -118 2034 0
-110 -70 -488 2035 0
-113 186 135 2036 0
-294 -287 -458 2037 0
-155 441 406 2038 0
134 298 77 2039 0
-125 -24 -114 2040 0
423 -346 -226 2041 0
126 187 269 2042 0
318 -435 445 2043 0
-186 109 328 2044 0
-45 444 235 2045 0
-199 -494 -60 2046 0
186 -3 198 2047 0
480 146 -446 2048 0
-243 -202 34 2049 0
-407 42 146 2050 0
-210 -292 -174 2051 0
-111 -60 -419 2052 0
108 452 -290 2053 0
-147 -335 -369 2054 0
-274 -123 476 2055 0
482 -279 -89 2056 0
444 -31 199 2057 0
198 432 219 2058 0
187 251 -463 2059 0
-296 -434 -85 2060 0
19 -411 -247 2061 0
341 -214 -5 2062 0
-472 229 -380 2063 0
11 -156 340 2064 0
373 -232 -383 2065 0
-42 -316 328 2066 0
-257 386 -371 2067 0
-418 -496 145 2068 0
-168 191 -92 2069 0
98 254 -220 2070 0
454 123 312 2071 0
155 -383 -391 2072 0
-103 -164 -76 2073 0
-39 -207 411 2074 0
159 103 -426 2075 0
461 -499 -174 2076 0
224 183 -390 2077 0
-407 404 185 2078 0
172 -79 -360 2079 0
-315 -495 -176 2080 0
-107 155 -472 2081 0
421 -281 -213 2082 0
-360 329 -312 2083 0
-44 -438 -404 2084 0
-168 -385 -433 2085 0
-80 -69 -462 2086 0
450 179 339 2087 0
155 27 297 2088 0
-371 361 32 2089 0
-76 167 -12 2090 0
407 363 438 2091 0
-218 -416 -134 2092 0
-220 -477 -350 2093 0
-499 139 476 2094 0
63 -488 -464 2095 0
-476 343 478 2096 0
-134 -92 -406 2097 0
-428 332 -66 2098 0
276 148 -325 2099 0
-298 340 216 2100 0
-66 -129 443 2101 0
240 304 76 2102 0
291 -187 -23 2103 0
-269 -92 494 2104 0
94 -383 -409 2105 0
475 -18 -256 2106 0
-267 238 36 2107 0
-251 78 -285 2108 0
-345 186 -29 2109 0
-419 146 -377 2110 0
-65 135 -289 2111 0
19 450 327 2112 0
-116 123 434 2113 0
-43 99 -77 2114 0
201 441 -232 2115 0
184 -14 -225 2116 0
388 216 -333 2117 0
-462 223 399 2118 0
-369 -217 -399 2119 0
-243 -296 -311 2120 0
237 352 296 2121 0
7 61 -69 2122 0
-298 424 -442 2123 0
123 -447 453 2124 0
-261 422 123 2125 0
346 -114 -240 2126 0
-131 -180 -162 2127 0
207 137 361 2128 0
474 -75 -385 2129 0
-361 165 466 2130 0
-288 155 152 2131 0
96 -270 -360 2132 0
272 146 -341 2133 0
-489 393 -318 2134 0
392 -110 156 2135 0
-320 -455 -30 2136 0
71 -352 335 2137 0
74 477 104 2138 0
85 478 -415 2139 0
-208 71 -300 2140 0
-262 -320 263 2141 0
254 72 -9 2142 0
469 148 138 2143 0
235 -268 -355 2144 0
208 -431 -151 2145 0
-57 136 -334 2146 0
-474 -386 -403 2147 0
465 93 437 2148 0
-449 27 73 2149 0
-156 -392 206 2150 0
-26 325 -164 2151 0
-67 159 -1 2152 0
111 193 -4 2153 0
-92 15 310 2154 0
-168 239 -58 2155 0
73 -407 36 2156 0
-152 460 -397 2157 0
290 -390 -124 2158 0
361 93 -126 2159 0
-261 -223 -245 2160 0
238 171 124 2161 0
-325 -250 449 2162 0
447 -50 -427 2163 0
-355 111 225 2164 0
95 375 128 2165 0
-199 144 175 2166 0
40 84 433 2167 0
-413 96 -358 2168 0
285 -269 -355 2169 0
80 328 -205 2170 0
185 357 137 2171 0
-449 -367 -324 2172 0
41 -341 -460 2173 0
38 330 112 2174 0
-101 -13 427 2175 0
61 212 146 2176 0
197 -427 -375 2177 0
-255 -339 -247 2178 0
-187 -305 -476 2179 0
212 -201 -270 2180 0
386 -339 -480 2181 0
55 -421 328 2182 0
346 214 -390 2183 0
15 126 144 2184 0
87 -206 98 2185 0
-158 -404 -297 2186 0
258 -141 236 2187 0
-310 401 -381 2188 0
-425 188 297 2189 0
274 191 -167 2190 0
-367 451 -54 2191 0
-426 -163 239 2192 0
377 305 -66 2193 0
-71 411 2 2194 0
-473 -398 385 2195 0
168 232 115 2196 0
-198 247 -372 2197 0
487 179 -324 2198 0
-21 -414 -127 2199 0
-255 -32 -298 2200 0
-10 203 279 2201 0
-345 -376 211 2202 0
-151 -489 -390 2203 0
-57 293 -21 2204 0
-249 258 22 2205 0
-108 131 419 2206 0
488 -257 94 2207 0
335 -356 387 2208 0
-357 -238 467 2209 0
-416 -58 -413 2210 0
416 -17 444 2211 0
406 290 -250 2212 0
363 366 -367 2213 0
-332 277 46 2214 0
283 413 385 2215 0
-228 -480 245 2216 0
-101 -23 -237 2217 0
383 -499 416 2218 0
70 399 -131 2219 0
-327 -276 -369 2220 0
133 -201 152 2221 0
181 67 49 2222 0
-237 -124 100 2223 0
-82 -102 -453 2224 0
-15 212 -263 2225 0
1 -482 130 2226 0
-170 -426 127 2227 0
255 -219 -470 2228 0
-392 281 -424 2229 0
-199 331 293 2230 0
103 303 -313 2231 0
-242 -71 431 2232 0
348 -3 -67 2233 0
-250 -400 395 2234 0
-341 -444 -148 2235 0
317 339 175 2236 0
305 22 -144 2237 0
41 430 311 2238 0
-229 255 395 2239 0
73 -33 -83 2240 0
-296 437 308 2241 0
387 10 -498 2242 0
-313 -366 279 2243 0
160 -387 52 2244 0
405 -277 -59 2245 0
30 255 -52 2246 0
76 417 409 2247 0
-356 116 -155 2248 0
-495 175 493 2249 0
106 155 454 2250 0
293 498 -5 2251 0
-460 45 35 2252 0
-370 261 201 2253 0
-319 268 -451 2254 0
-258 -113 95 2255 0
-98 230 -206 2256 0
65 105 456 2257 0
218 341 463 2258 0
-450 465 -281 2259 0
-70 262 189 2260 0
-464 176 -77 2261 0
435 86 277 2262 0
112 -494 401 2263 0
297 -283 -330 2264 0
420 -368 -111 2265 0
500 -71 -459 2266 0
298 -348 -469 2267 0
224 215 -283 2268 0
65 442 96 2269 0
144 -231 -315 2270 0
-250 -484 -188 2271 0
-147 3 -1 2272 0
-210 92 107 2273 0
348 -307 -30 2274 0
-396 66 -99 2275 0
470 340 -440 2276 0
-327 -464 437 2277 0
-121 335 -333 2278 0
-145 153 -329 2279 0
21 -381 -121 2280 0
316 264 -302 2281 0
-352 -427 -124 2282 0
-335 -66 -444 2283 0
163 201 -298 2284 0
484 -15 144 2285 0
450 -129 380 2286 0
243 405 16 2287 0
-355 -467 -473 2288 0
-341 -11 6 2289 0
57 14 -151 2290 0
211 349 -212 2291 0
179 234 -17 2292 0
-496 -401 243 2293 0
-56 271 142 2294 0
349 429 -356 2295 0
49 -223 247 2296 0
323 -465 -227 2297 0
214 483 -234 2298 0
-358 -66 -210 2299 0
341 372 420 2300 0
11 69 -204 2301 0
-92 293 218 2302 0
-336 483 -279 2303 0
-273 36 138 2304 0
-192 -155 241 2305 0
-459 -35 424 2306 0
184 79 -489 2307 0
-383 323 -98 2308 0
-475 -297 -202 2309 0
264 -465 -132 2310 0
109 316 454 2311 0
478 367 -412 2312 0
-442 -419 431 2313 0
223 34 215 2314 0
478 145 -384 2315 0
-296 -387 -317 2316 0
493 111 -423 2317 0
-229 470 219 2318 0
-454 207 217 2319 0
162 99 163 2320 0
-261 260 -318 2321 0
282 52 196 2322 0
235 -328 429 2323 0
401 -498 444 2324 0
373 344 416 2325 0
-132 381 114 2326 0
-287 327 -260 2327 0
256 34 -349 2328 0
-396 114 256 2329 0
440 368 104 2330 0
-231 -88 318 2331 0
245 -399 405 2332 0
-495 -406 -415 2333 0
368 293 144 2334 0
-387 130 -226 2335 0
244 323 193 2336 0
346 47 -186 2337 0
-361 130 273 2338 0
76 277 -375 2339 0
343 -278 454 2340 0
-165 -23 236 2341 0
91 493 -114 2342 0
-145 52 126 2343 0
96 -327 311 2344 0
269 -472 275 2345 0
109 122 271 2346 0
-15 -360 120 2347 0
-391 -357 -351 2348 0
229 -465 498 2349 0
-260 320 -156 2350 0
-350 2 118 2351 0
21 415 196 2352 0
302 -356 -304 2353 0
435 434 373 2354 0
500 431 324 2355 0
210 -313 -195 2356 0
-318 396 269 2357 0
-165 -224 -15 2358 0
-148 131 163 2359 0
-61 -338 275 2360 0
-180 -402 303 2361 0
263 -49 -25 2362 0
367 -453 379 2363 0
143 -385 -431 2364 0
17 -214 -47 2365 0
137 376 381 2366 0
-120 36 -133 2367 0
29 328 400 2368 0
-500 499 -177 2369 0
495 -181 54 2370 0
458 -122 18 2371 0
-440 324 439 2372 0
290 -491 219 2373 0
495 200 -26 2374 0
118 -157 -239 2375 0
400 189 54 2376 0
-82 -325 -78 2377 0
52 -152 90 2378 0
-457 -136 -475 2379 0
-185 -140 458 2380 0
229 188 -411 2381 0
-179 -177 426 2382 0
125 59 -23 2383 0
-488 26 98 2384 0
-103 343 -280 2385 0
51 57 -19 2386 0
239 313 -120 2387 0
-487 -126 -333 2388 0
407 -366 31 2389 0
482 -105 473 2390 0
-64 -224 -126 2391 0
255 -86 -391 2392 0
-68 -217 -27 2393 0
406 -401 394 2394 0
115 -248 415 2395 0
-350 -218 434 2396 0
-112 222 431 2397 0
-240 -237 175 2398 0
-254 -264 165 2399 0
16 402 174 2400 0
-410 7 -90 2401 0
62 428 -149 2402 0
-178 305 254 2403 0
436 -47 39 2404 0
-203 -368 -298 2405 0
-393 -445 340 2406 0
259 -365 -136 2407 0
364 468 212 2408 0
-495 -56 -196 2409 0
186 236 112 2410 0
-111 333 -88 2411 0
-88 485 259 2412 0
-232 -397 432 2413 0
191 116 136 2414 0
-128 138 -96 2415 0
-91 404 -439 2416 0
177 -330 -309 2417 0
270 -256 -227 2418 0
-210 191 -415 2419 0
-281 108 -282 2420 0
-318 -371 -131 2421 0
206 291 426 2422 0
137 314 343 2423 0
292 -242 -35 2424 0
-205 -396 -206 2425 0
-243 398 265 2426 0
-251 -48 -435 2427 0
315 -307 -193 2428 0
-437 390 435 2429 0
96 -336 -9 2430 0
128 -173 107 2431 0
18 16 -184 2432 0
-315 -184 -100 2433 0
218 387 359 2434 0
108 -371 -92 2435 0
-240 208 -188 2436 0
398 -365 78 2437 0
-481 147 369 2438 0
-84 -210 -422 2439 0
-318 -99 -487 2440 0
349 405 492 2441 0
-286 281 -185 2442 0
-90 362 -52 2443 0
-485 138 69 2444 0
327 93 442 2445 0
227 83 245 2446 0
352 365 30 2447 0
294 -290 67 2448 0
247 166 424 2449 0
390 -28 255 2450 0
-306 241 299 2451 0
289 -468 -439 2452 0
350 -129 -375 2453 0
-429 -300 -104 2454 0
479 -396 -461 2455 0
152 407 87 2456 0
-262 233 -399 2457 0
108 -436 -176 2458 0
287 -321 -461 2459 0
-396 260 -394 2460 0
116 193 -314 2461 0
234 -241 396 2462 0
20 325 132 2463 0
338 235 -176 2464 0
17 -435 70 2465 0
63 319 -309 2466 0
-182 -253 -438 2467 0
-419 379 -159 2468 0
-235 -213 -285 2469 0
15 -37 -46 2470 0
428 397 -323 2471 0
-21 376 176 2472 0
-418 -437 496 2473 0
257 -411 -362 2474 0
-343 -335 -216 2475 0
228 -385 38 2476 0
-16 -65 -205 2477 0
-117 345 -1 2478 0
372 -408 -432 2479 0
-464 137 448 2480 0
288 77 -493 2481 0
-308 445 -184 2482 0
-162 -333 209 2483 0
-455 322 -463 2484 0
-125 153 -36 2485 0
215 -475 -189 2486 0
98 381 -86 2487 0
474 -26 198 2488 0
20 -113 244 2489 0
465 60 -1 2490 0
23 166 389 2491 0
368 115 465 2492 0
384 494 424 2493 0
-387 462 109 2494 0
-36 -282 -190 2495 0
-384 374 204 2496 0
3 -461 48 2497 0
373 -117 196 2498 0
260 -296 -158 2499 0
160 331 -162 2500 0
-459 -180 -238 2501 0
189 -66 262 2502 0
335 -195 259 2503 0
-436 -283 80 2504 0
-410 178 -58 2505 0
423 -116 -293 2506 0
268 -376 226 2507 0
407 -229 117 2508 0
312 -109 -195 2509 0
120 -445 341 2510 0
-374 -77 58 2511 0
-135 371 297 2512 0
399 -296 -240 2513 0
207 -185 42 2514 0
476 262 -108 2515 0
-208 -438 251 2516 0
-415 -409 -147 2517 0
115 -403 -269 2518 0
-254 469 108 2519 0
-390 364 78 2520 0
435 -498 -251 2521 0
-149 120 -13 2522 0
351 -182 222 2523 0
429 422 -312 2524 0
-405 326 -90 2525 0
-143 359 -194 2526 0
-253 314 -130 2527 0
-111 100 -49 2528 0
150 -410 -242 2529 0
-191 229 -166 2530 0
28 42 108 2531 0
-3 475 49 2532 0
-367 -384 166 2533 0
267 365 185 2534 0
-382 -259 422 2535 0
-99 294 460 2536 0
-29 493 492 2537 0
-327 -426 201 2538 0
365 -381 138 2539 0
146 -346 -306 2540 0
-18 -388 -360 2541 0
-80 -475 469 2542 0
86 110 -206 2543 0
176 -372 -147 2544 0
255 434 396 2545 0
267 -368 416 2546 0
133 308 204 2547 0
227 -134 -199 2548 0
-219 327 -457 2549 0
104 -260 469 2550 0
-23 -438 -174 2551 0
-206 -141 -171 2552 0
-330 217 -25 2553 0
363 140 406 2554 0
81 364 -335 2555 0
-102 332 -467 2556 0
345 333 -291 2557 0
-481 18 -316 2558 0
230 -474 -52 2559 0
360 87 -124 2560 0
453 -332 -490 2561 0
267 216 -497 2562 0
254 -246 -304 2563 0
-442 402 -392 2564 0
-143 42 -422 2565 0
68 -416 253 2566 0
-223 -314 419 2567 0
-215 214 -416 2568 0
32 -73 51 2569 0
-18 -254 -405 2570 0
-420 -477 -66 2571 0
317 -274 20 2572 0
-318 6 -59 2573 0
-233 -469 -465 2574 0
-193 -439 -146 2575 0
-356 271 -425 2576 0
-500 395 166 2577 0
-206 -468 2 2578 0
-487 216 -129 2579 0
191 -437 -47 2580 0
-409 -322 -357 2581 0
72 466 -109 2582 0
-423 -419 425 2583 0
56 -104 -243 2584 0
101 389 252 2585 0
115 411 52 2586 0
122 -499 -158 2587 0
348 149 338 2588 0
96 -491 -172 2589 0
-37 313 46 2590 0
-60 490 -235 2591 0
-61 -459 -321 2592 0
-373 -290 -281 2593 0
241 -418 162 2594 0
180 27 -22 2595 0
21 242 408 2596 0
-89 -231 478 2597 0
70 -463 271 2598 0
489 -376 308 2599 0
285 177 -455 2600 0
-482 -198 -49 2601 0
-1 -325 118 2602 0
-273 -288 -371 2603 0
-371 238 141 2604 0
397 -169 427 2605 0
-488 147 -99 2606 0
102 131 120 2607 0
294 -17 120 2608 0
-282 91 413 2609 0
213 59 455 2610 0
227 17 423 2611 0
222 287 -118 2612 0
131 -383 225 2613 0
-290 -91 -285 2614 0
-115 -90 -195 2615 0
-146 -110 -281 2616 0
-455 383 -81 2617 0
-280 -452 48 2618 0
-496 206 110 2619 0
-189 210 113 2620 0
-23 -495 450 2621 0
321 251 -365 2622 0
472 -368 -236 2623 0
236 61 30 2624 0
-244 472 -463 2625 0
-140 383 139 2626 0
23 227 -195 2627 0
252 197 454 2628 0
393 -282 84 2629 0
350 196 281 2630 0
79 -262 -159 2631 0
-109 144 218 2632 0
238 230 -401 2633 0
-268 -465 -392 2634 0
38 123 415 2635 0
305 -249 483 2636 0
446 494 -413 2637 0
278 -223 402 2638 0
-94 121 -459 2639 0
373 -459 -383 2640 0
-348 -432 61 2641 0
362 -298 35 2642 0
70 -119 -92 2643 0
-5 286 -216 2644 0
117 -230 -388 2645 0
-256 250 14 2646 0
68 105 100 2647 0
-119 -384 -447 2648 0
-219 138 -293 2649 0
-56 449 -344 2650 0
