p cnf 2650 2150
-128 -56 410 501 0
272 -395 -55 502 0
403 -79 -428 503 0
86 486 -222 504 0
-426 221 1 505 0
144 453 123 506 0
-399 -484 415 507 0
-474 432 -108 508 0
275 56 -87 509 0
-480 -360 -438 510 0
-397 455 -156 511 0
-380 68 409 512 0
451 356 285 513 0
-447 -490 333 514 0
-273 209 -348 515 0
-477 171 -296 516 0
424 467 -469 517 0
3 -9 234 518 0
-209 -352 -485 519 0
414 -410 -480 520 0
-193 -19 398 521 0
-75 -395 -196 522 0
203 211 -153 523 0
-403 391 -296 524 0
410 -492 -17 525 0
-6 -275 -439 526 0
222 -382 225 527 0
53 -401 -51 528 0
109 465 148 529 0
-2 188 140 530 0
-439 -473 443 531 0
-241 391 -53 532 0
-191 314 -41 533 0
-468 411 -282 534 0
347 -441 -208 535 0
14 291 430 536 0
-156 467 -354 537 0
-158 255 -75 538 0
-209 132 253 539 0
-270 -384 282 540 0
-119 -48 -436 541 0
389 -332 118 542 0
-106 -358 113 543 0
-393 276 -137 544 0
325 -355 61 545 0
22 18 -441 546 0
484 257 4 547 0
327 259 373 548 0
351 172 -500 549 0
-238 183 193 550 0
-272 128 301 551 0
-294 388 -35 552 0
3 2 147 553 0
20 -295 274 554 0
460 -427 219 555 0
-282 -52 93 556 0
-495 227 62 557 0
381 -173 345 558 0
-297 423 -461 559 0
131 -31 228 560 0
-166 -222 -421 561 0
-461 454 -30 562 0
387 -448 -271 563 0
-215 -497 -213 564 0
238 469 306 565 0
-380 366 272 566 0
-355 129 -164 567 0
96 -260 442 568 0
245 451 467 569 0
311 479 -72 570 0
308 70 -57 571 0
476 150 100 572 0
397 -124 161 573 0
-47 -105 -156 574 0
-353 442 61 575 0
-15 -438 260 576 0
491 -497 228 577 0
484 -423 -409 578 0
471 -56 71 579 0
111 363 -121 580 0
455 231 448 581 0
157 141 283 582 0
-115 195 374 583 0
-275 138 453 584 0
103 213 43 585 0
483 -478 354 586 0
-105 410 433 587 0
-242 437 134 588 0
467 -294 -70 589 0
248 19 -130 590 0
38 -43 -162 591 0
-419 -51 -302 592 0
-255 -52 28 593 0
-73 -348 -458 594 0
-60 -333 -83 595 0
-438 -185 362 596 0
161 256 -62 597 0
497 -339 -199 598 0
233 -117 404 599 0
-320 383 -103 600 0
-330 475 434 601 0
-121 221 411 602 0
424 57 437 603 0
15 124 387 604 0
-278 -479 -315 605 0
-374 296 -153 606 0
-58 292 308 607 0
237 -405 472 608 0
-461 495 24 609 0
253 134 -49 610 0
323 130 122 611 0
425 -18 442 612 0
166 -115 -216 613 0
336 -203 378 614 0
-268 -402 362 615 0
309 -396 274 616 0
50 123 13 617 0
-174 -153 279 618 0
-150 462 12 619 0
-373 34 -179 620 0
-407 -472 -213 621 0
315 462 288 622 0
-426 -375 -451 623 0
155 200 44 624 0
-255 -400 335 625 0
104 -142 429 626 0
190 201 -149 627 0
-234 -323 393 628 0
-331 -298 198 629 0
-155 223 165 630 0
-404 110 -181 631 0
-155 429 -14 632 0
-228 -283 -195 633 0
-110 432 -272 634 0
38 -143 -72 635 0
335 179 -434 636 0
-363 42 393 637 0
437 -424 -46 638 0
89 114 -42 639 0
-286 96 122 640 0
-288 304 387 641 0
-222 426 478 642 0
288 46 -34 643 0
-93 -152 -315 644 0
191 -222 354 645 0
-431 356 457 646 0
-302 100 -110 647 0
-24 475 122 648 0
-65 171 119 649 0
-479 -113 393 650 0
-493 -446 325 651 0
-217 451 -414 652 0
-158 453 23 653 0
-471 25 -469 654 0
42 97 -315 655 0
187 352 -376 656 0
-296 -378 -241 657 0
-452 -469 -352 658 0
22 -160 138 659 0
-85 -24 301 660 0
361 -446 115 661 0
434 8 -353 662 0
-365 34 89 663 0
362 -45 -58 664 0
57 -28 224 665 0
334 338 -283 666 0
-220 391 126 667 0
-176 -80 441 668 0
248 -194 485 669 0
-457 98 -8 670 0
-159 -236 431 671 0
-28 -3 463 672 0
349 -497 285 673 0
113 -129 317 674 0
129 -299 -22 675 0
-172 -293 -365 676 0
-74 333 449 677 0
-107 279 3 678 0
183 -494 -452 679 0
-209 -436 382 680 0
176 66 -445 681 0
-202 -60 -293 682 0
373 -223 -437 683 0
-358 -159 24 684 0
140 425 345 685 0
379 -284 60 686 0
-80 -92 -100 687 0
-168 -154 -138 688 0
86 -447 295 689 0
40 -178 19 690 0
-495 -20 -33 691 0
-49 -63 265 692 0
-468 150 -112 693 0
410 225 -407 694 0
-182 292 -270 695 0
-117 228 333 696 0
-395 472 5 697 0
136 -360 -395 698 0
329 -256 499 699 0
-267 -349 243 700 0
-448 -40 -112 701 0
-71 473 477 702 0
82 -268 300 703 0
-436 -434 67 704 0
-96 144 -164 705 0
287 179 478 706 0
479 -197 -260 707 0
322 -117 -365 708 0
176 -377 -441 709 0
-170 -286 323 710 0
-167 -448 304 711 0
-387 -54 473 712 0
104 -155 447 713 0
-378 -401 -278 714 0
308 -120 -292 715 0
135 276 -468 716 0
-280 6 117 717 0
-167 455 -431 718 0
-232 32 311 719 0
85 -154 9 720 0
-59 449 236 721 0
334 -96 97 722 0
-282 13 -447 723 0
249 -104 -328 724 0
-295 55 472 725 0
53 -415 289 726 0
-147 -407 346 727 0
52 -458 -314 728 0
380 206 225 729 0
-461 435 252 730 0
-6 -484 40 731 0
-338 -416 -259 732 0
377 87 -462 733 0
428 -280 332 734 0
394 -465 462 735 0
-93 371 -10 736 0
-162 416 268 737 0
246 -182 -363 738 0
-264 -189 123 739 0
-229 311 -320 740 0
470 -52 76 741 0
-260 -191 311 742 0
178 487 -499 743 0
278 48 402 744 0
19 -328 -445 745 0
-356 -86 -435 746 0
-324 173 86 747 0
44 -32 329 748 0
-253 306 -25 749 0
-88 -428 -70 750 0
-418 268 32 751 0
444 23 -306 752 0
487 -83 303 753 0
-80 -397 -103 754 0
371 -367 -269 755 0
409 436 -278 756 0
215 101 152 757 0
-293 273 13 758 0
-197 175 -394 759 0
-291 114 -320 760 0
25 449 353 761 0
346 -64 96 762 0
286 -102 34 763 0
141 216 -345 764 0
-104 336 280 765 0
416 -89 370 766 0
-472 -229 273 767 0
2 99 53 768 0
-406 273 -279 769 0
-345 284 -277 770 0
32 -231 399 771 0
316 45 311 772 0
283 -448 77 773 0
85 -19 -179 774 0
-304 -3 411 775 0
405 100 8 776 0
490 -275 -438 777 0
213 434 453 778 0
-362 252 285 779 0
411 4 -312 780 0
-219 59 -5 781 0
153 -448 365 782 0
75 355 -439 783 0
193 255 -304 784 0
-413 -436 133 785 0
328 -29 440 786 0
324 160 -387 787 0
-119 -335 -23 788 0
440 135 -328 789 0
-9 -459 304 790 0
-141 256 483 791 0
471 -459 -268 792 0
168 -365 263 793 0
52 182 258 794 0
156 -329 -57 795 0
-454 435 -378 796 0
490 64 -393 797 0
450 -178 -366 798 0
-455 164 -252 799 0
-254 -103 396 800 0
269 -444 252 801 0
-97 369 44 802 0
-475 352 -367 803 0
-29 47 347 804 0
23 -466 331 805 0
-428 -429 -323 806 0
-120 -269 -210 807 0
-104 -127 147 808 0
-364 -181 -145 809 0
-245 -51 377 810 0
-226 -316 -137 811 0
-145 -285 424 812 0
63 243 -320 813 0
475 38 71 814 0
-437 -335 264 815 0
186 -66 293 816 0
-476 368 466 817 0
221 -67 -66 818 0
320 86 321 819 0
-57 -405 -189 820 0
178 -78 -275 821 0
-462 276 77 822 0
114 406 194 823 0
486 -346 245 824 0
-97 -15 79 825 0
356 43 86 826 0
195 35 -134 827 0
408 26 -126 828 0
-8 12 52 829 0
114 -63 -143 830 0
-415 268 360 831 0
-421 -397 362 832 0
266 -308 21 833 0
221 152 14 834 0
-338 -149 -133 835 0
-392 371 491 836 0
-471 -46 212 837 0
-173 -256 191 838 0
382 274 -263 839 0
22 73 -241 840 0
-270 492 181 841 0
-253 2 -103 842 0
487 -55 271 843 0
-498 164 71 844 0
115 -168 -13 845 0
-377 236 313 846 0
-79 -73 -155 847 0
123 300 -79 848 0
-445 375 -374 849 0
-94 -208 -382 850 0
435 99 177 851 0
-28 -108 132 852 0
200 -428 69 853 0
481 140 477 854 0
160 11 195 855 0
-203 9 51 856 0
226 2 -260 857 0
132 -217 -148 858 0
-323 373 251 859 0
416 -175 12 860 0
194 -336 -237 861 0
493 -432 -189 862 0
-249 -227 290 863 0
12 -436 230 864 0
95 -170 -156 865 0
-359 302 223 866 0
-30 -366 -93 867 0
-481 205 446 868 0
-471 193 -438 869 0
417 -27 -375 870 0
-223 361 -398 871 0
253 481 156 872 0
7 215 133 873 0
-485 -268 -221 874 0
-493 -167 -281 875 0
-352 69 419 876 0
-279 -370 -171 877 0
-372 62 132 878 0
-197 372 -139 879 0
321 -146 -297 880 0
-355 171 294 881 0
-378 371 -301 882 0
-132 88 462 883 0
-480 -173 322 884 0
-444 368 300 885 0
-300 343 91 886 0
63 -307 -328 887 0
-315 344 -123 888 0
-443 -225 23 889 0
95 402 -232 890 0
-194 130 466 891 0
273 394 457 892 0
-7 -495 -34 893 0
295 -172 -167 894 0
-131 387 -247 895 0
436 275 -185 896 0
-22 50 -53 897 0
122 14 44 898 0
-4 -180 64 899 0
-333 -111 -195 900 0
-198 405 -186 901 0
243 -375 -208 902 0
-291 250 -431 903 0
437 84 312 904 0
319 446 454 905 0
-32 -377 -396 906 0
-89 -99 -161 907 0
-352 70 14 908 0
-371 177 206 909 0
-191 -225 74 910 0
416 210 -306 911 0
482 424 485 912 0
257 -47 -396 913 0
115 -270 -174 914 0
432 174 96 915 0
-213 -18 171 916 0
477 336 -330 917 0
-276 34 -367 918 0
-483 -111 198 919 0
-281 -84 -225 920 0
-368 329 5 921 0
-169 131 -445 922 0
305 175 -234 923 0
-444 -465 171 924 0
-337 -389 -134 925 0
-10 268 -277 926 0
298 -175 397 927 0
-116 473 372 928 0
-29 20 95 929 0
-96 422 198 930 0
-248 98 -443 931 0
-75 -401 -441 932 0
317 -308 164 933 0
235 146 -261 934 0
172 -265 -416 935 0
-468 86 484 936 0
-143 -343 130 937 0
221 -386 101 938 0
252 -137 -162 939 0
66 -147 224 940 0
-180 -310 246 941 0
-239 -365 21 942 0
-300 188 -449 943 0
-445 -315 500 944 0
-151 192 374 945 0
-143 -461 -145 946 0
-499 -480 105 947 0
364 -7 -422 948 0
-6 -376 -61 949 0
271 56 -180 950 0
341 -405 -99 951 0
231 -410 267 952 0
-368 -270 -345 953 0
53 -318 -474 954 0
351 425 -157 955 0
-200 -231 -38 956 0
-3 -162 -35 957 0
-192 -37 -358 958 0
-39 -107 358 959 0
-42 99 -417 960 0
-322 403 -197 961 0
-20 -207 -490 962 0
353 285 -461 963 0
348 -46 -89 964 0
498 123 -493 965 0
-300 414 444 966 0
-69 65 -34 967 0
309 93 355 968 0
90 -184 -222 969 0
-161 -102 207 970 0
-475 499 93 971 0
-392 395 205 972 0
202 112 309 973 0
-145 89 -144 974 0
-106 -33 -338 975 0
91 -158 360 976 0
397 161 -30 977 0
-34 493 289 978 0
288 -369 143 979 0
359 -311 -393 980 0
42 291 -443 981 0
280 -126 390 982 0
-42 40 -214 983 0
185 256 -405 984 0
-426 352 99 985 0
-367 318 -218 986 0
214 -100 -226 987 0
-489 -101 200 988 0
391 38 -354 989 0
-356 -281 429 990 0
223 -341 332 991 0
-298 -288 -344 992 0
-292 57 -257 993 0
-391 373 -292 994 0
-238 -321 -96 995 0
268 -21 498 996 0
-277 -472 123 997 0
453 129 18 998 0
383 212 5 999 0
329 36 230 1000 0
172 -481 279 1001 0
215 145 -110 1002 0
-487 -120 -101 1003 0
459 -235 -308 1004 0
94 165 129 1005 0
372 483 -51 1006 0
-104 -240 -437 1007 0
-225 409 448 1008 0
-102 -236 -445 1009 0
-221 455 -393 1010 0
289 294 -103 1011 0
-314 389 434 1012 0
112 1 -285 1013 0
214 454 1 1014 0
280 -112 -275 1015 0
-83 -139 -306 1016 0
-18 -11 -482 1017 0
-223 487 -10 1018 0
6 -80 295 1019 0
-465 253 -463 1020 0
-61 -158 -90 1021 0
279 438 74 1022 0
-338 269 295 1023 0
-145 432 -343 1024 0
445 -414 394 1025 0
429 276 495 1026 0
-268 -25 211 1027 0
361 383 -313 1028 0
124 -441 179 1029 0
82 227 225 1030 0
233 -274 257 1031 0
453 -392 289 1032 0
153 19 279 1033 0
-313 -314 41 1034 0
-78 -267 199 1035 0
-100 -276 467 1036 0
-23 477 357 1037 0
-107 -93 264 1038 0
-216 166 77 1039 0
-80 -156 -310 1040 0
254 -296 -115 1041 0
-374 -93 -342 1042 0
-390 386 241 1043 0
-171 148 66 1044 0
-332 432 -16 1045 0
239 217 408 1046 0
295 -137 197 1047 0
366 -92 162 1048 0
-497 220 143 1049 0
403 -465 -489 1050 0
-498 -140 281 1051 0
-445 294 -194 1052 0
-254 -25 -327 1053 0
193 -18 113 1054 0
416 5 -492 1055 0
-161 -474 -451 1056 0
-406 336 341 1057 0
495 195 150 1058 0
429 -95 419 1059 0
-231 424 133 1060 0
-117 302 255 1061 0
-64 -49 -256 1062 0
375 -238 -497 1063 0
65 430 115 1064 0
47 -174 307 1065 0
-334 -60 29 1066 0
74 -228 -227 1067 0
395 -93 334 1068 0
-147 -173 8 1069 0
235 383 -136 1070 0
-272 294 -73 1071 0
146 -232 -371 1072 0
390 65 354 1073 0
264 -356 70 1074 0
87 75 397 1075 0
-162 -425 -460 1076 0
442 348 -48 1077 0
42 -203 -91 1078 0
348 73 56 1079 0
-172 -242 271 1080 0
-312 183 -97 1081 0
235 -463 275 1082 0
-7 493 398 1083 0
497 55 -119 1084 0
-384 -349 312 1085 0
304 -163 -145 1086 0
-15 238 290 1087 0
-113 500 -219 1088 0
-347 301 -65 1089 0
-5 -277 -164 1090 0
-122 -232 -91 1091 0
-40 -482 183 1092 0
419 -126 -192 1093 0
53 -430 308 1094 0
468 347 -447 1095 0
252 -122 219 1096 0
137 122 389 1097 0
-222 210 49 1098 0
189 -357 1 1099 0
139 140 -350 1100 0
-13 65 14 1101 0
279 -239 429 1102 0
22 -7 -148 1103 0
-257 405 69 1104 0
-416 -263 340 1105 0
-239 86 -2 1106 0
271 -92 -16 1107 0
-483 225 -489 1108 0
-425 -439 -346 1109 0
430 -50 -313 1110 0
-54 482 -419 1111 0
32 398 222 1112 0
355 343 300 1113 0
82 -393 -187 1114 0
-282 266 -320 1115 0
-58 338 -225 1116 0
-496 491 302 1117 0
327 353 60 1118 0
-386 117 -454 1119 0
298 -19 350 1120 0
424 237 -166 1121 0
-204 194 -359 1122 0
406 -262 -153 1123 0
-352 441 378 1124 0
82 -133 460 1125 0
245 261 464 1126 0
380 -62 321 1127 0
-244 46 -125 1128 0
-67 481 -58 1129 0
-121 30 -218 1130 0
63 -371 -238 1131 0
92 290 -359 1132 0
-491 158 434 1133 0
334 264 489 1134 0
300 -172 -139 1135 0
-261 114 -402 1136 0
-127 -228 447 1137 0
259 461 -272 1138 0
227 -292 -320 1139 0
-109 -32 -194 1140 0
239 -225 41 1141 0
485 -60 241 1142 0
153 189 -64 1143 0
-254 -194 -218 1144 0
399 319 -154 1145 0
322 246 -93 1146 0
-246 166 398 1147 0
441 181 -50 1148 0
-13 -266 -62 1149 0
172 -496 283 1150 0
3 -186 466 1151 0
-126 -182 101 1152 0
-396 -337 -321 1153 0
357 351 -148 1154 0
29 -211 -269 1155 0
251 -417 356 1156 0
-195 2 -453 1157 0
-244 -443 187 1158 0
-194 355 -363 1159 0
-22 162 87 1160 0
-192 271 308 1161 0
129 -411 142 1162 0
-38 445 -411 1163 0
-178 -430 -39 1164 0
99 371 -477 1165 0
429 435 444 1166 0
-460 387 106 1167 0
201 402 -248 1168 0
-490 -181 296 1169 0
267 255 443 1170 0
150 74 -336 1171 0
-492 250 -281 1172 0
296 -417 411 1173 0
464 -209 388 1174 0
143 439 36 1175 0
-135 -120 331 1176 0
-117 -52 134 1177 0
-160 -174 -284 1178 0
-145 84 -421 1179 0
23 -317 249 1180 0
281 51 466 1181 0
117 329 -215 1182 0
-392 254 -455 1183 0
-322 37 -166 1184 0
417 -132 -111 1185 0
-315 470 83 1186 0
18 62 -430 1187 0
260 8 -374 1188 0
98 -117 457 1189 0
-320 295 229 1190 0
62 -1 224 1191 0
145 -493 239 1192 0
344 -447 -327 1193 0
-476 -86 -495 1194 0
-343 417 221 1195 0
139 205 116 1196 0
148 -378 -464 1197 0
427 -223 394 1198 0
-133 -102 -206 1199 0
-475 -402 -303 1200 0
158 -217 -297 1201 0
171 156 -431 1202 0
73 181 95 1203 0
90 -138 -374 1204 0
409 55 -94 1205 0
-147 155 -208 1206 0
-160 198 499 1207 0
238 -310 280 1208 0
-305 -26 -463 1209 0
-341 457 -342 1210 0
-174 114 -305 1211 0
-410 281 3 1212 0
261 -364 403 1213 0
-252 -111 -397 1214 0
376 377 450 1215 0
479 394 -203 1216 0
490 -151 -173 1217 0
-222 -163 434 1218 0
118 -46 -35 1219 0
264 -238 120 1220 0
476 -354 308 1221 0
128 302 491 1222 0
-62 -6 -137 1223 0
-28 57 217 1224 0
347 435 185 1225 0
-473 106 415 1226 0
354 189 -438 1227 0
-167 35 275 1228 0
-448 429 -107 1229 0
-21 347 -186 1230 0
121 -439 434 1231 0
-143 157 -118 1232 0
431 -318 473 1233 0
310 354 -35 1234 0
-227 -382 -183 1235 0
52 364 216 1236 0
-65 168 297 1237 0
-20 297 -463 1238 0
496 -416 203 1239 0
-194 437 316 1240 0
55 24 57 1241 0
397 -115 258 1242 0
-385 404 -85 1243 0
252 390 -417 1244 0
259 245 -37 1245 0
327 499 314 1246 0
147 -182 -322 1247 0
-466 25 -302 1248 0
-358 -318 403 1249 0
187 386 171 1250 0
487 364 -5 1251 0
273 -432 300 1252 0
10 -85 103 1253 0
-440 -500 488 1254 0
-30 233 -239 1255 0
388 241 -24 1256 0
-294 -73 366 1257 0
426 -207 -402 1258 0
324 260 -483 1259 0
434 336 -239 1260 0
373 -467 -101 1261 0
198 415 -480 1262 0
-154 -246 -315 1263 0
-391 -228 -458 1264 0
-89 491 -201 1265 0
314 429 213 1266 0
-267 54 -385 1267 0
118 160 -435 1268 0
485 67 235 1269 0
-387 241 25 1270 0
194 -130 -438 1271 0
367 -11 -30 1272 0
104 215 -426 1273 0
-162 -289 -497 1274 0
204 -122 -116 1275 0
360 -270 410 1276 0
-417 -102 115 1277 0
135 143 -104 1278 0
500 -182 252 1279 0
-339 -425 -422 1280 0
318 163 -1 1281 0
222 466 236 1282 0
358 210 -34 1283 0
282 259 335 1284 0
-268 -431 57 1285 0
222 444 20 1286 0
-371 114 251 1287 0
-40 -371 -160 1288 0
-246 336 328 1289 0
-57 329 52 1290 0
342 -280 -80 1291 0
430 260 -309 1292 0
121 437 287 1293 0
305 -437 -250 1294 0
274 -287 -147 1295 0
-474 464 -497 1296 0
176 -276 -335 1297 0
-375 174 -143 1298 0
-173 -122 -334 1299 0
278 -179 -93 1300 0
431 309 -280 1301 0
171 420 -446 1302 0
-470 -443 164 1303 0
-189 400 102 1304 0
-194 313 -319 1305 0
-389 44 159 1306 0
-445 116 15 1307 0
149 5 -231 1308 0
-73 -178 -401 1309 0
-125 -336 372 1310 0
322 32 -236 1311 0
-163 305 373 1312 0
-122 -77 -155 1313 0
383 87 364 1314 0
-386 -344 155 1315 0
-394 403 -420 1316 0
-236 261 -58 1317 0
-451 122 -343 1318 0
-449 220 426 1319 0
53 35 -181 1320 0
419 -76 104 1321 0
358 -169 -116 1322 0
26 354 -486 1323 0
-258 461 284 1324 0
-277 -205 311 1325 0
-482 -470 -115 1326 0
-293 402 394 1327 0
475 226 -295 1328 0
-204 183 257 1329 0
-112 -8 324 1330 0
399 -268 321 1331 0
77 291 160 1332 0
-329 -333 -299 1333 0
295 -410 -4 1334 0
250 -412 -446 1335 0
266 202 351 1336 0
-49 -481 -344 1337 0
-359 122 115 1338 0
-488 -478 -77 1339 0
-43 48 -139 1340 0
-423 -116 233 1341 0
-351 354 371 1342 0
385 -25 -289 1343 0
-9 -369 -245 1344 0
-402 238 -113 1345 0
-20 233 476 1346 0
-461 -207 -29 1347 0
-96 -432 131 1348 0
334 227 -401 1349 0
464 -283 -343 1350 0
216 470 132 1351 0
-341 277 71 1352 0
435 161 -378 1353 0
-266 82 -222 1354 0
-36 393 -360 1355 0
-258 -75 -364 1356 0
439 32 79 1357 0
-345 -54 229 1358 0
255 -189 445 1359 0
-370 179 -85 1360 0
-88 -102 33 1361 0
320 482 190 1362 0
-471 -228 464 1363 0
-360 90 -231 1364 0
61 385 380 1365 0
100 333 335 1366 0
-401 125 143 1367 0
-290 251 405 1368 0
-297 239 189 1369 0
-15 129 53 1370 0
-492 -476 -12 1371 0
331 63 -378 1372 0
-476 -279 390 1373 0
309 -300 -464 1374 0
-478 -119 215 1375 0
-53 -217 -408 1376 0
-124 -42 196 1377 0
-399 366 118 1378 0
-236 353 -25 1379 0
-105 -69 -336 1380 0
-210 -96 -366 1381 0
-110 -199 -103 1382 0
238 -381 -60 1383 0
261 -256 280 1384 0
202 -445 -39 1385 0
224 432 -341 1386 0
-209 317 -441 1387 0
496 367 -268 1388 0
-309 -320 39 1389 0
-92 -329 22 1390 0
77 -433 203 1391 0
-414 -361 -125 1392 0
336 26 -485 1393 0
-65 -208 -322 1394 0
416 293 -173 1395 0
216 355 -110 1396 0
203 -122 467 1397 0
176 -24 -437 1398 0
-18 -252 -330 1399 0
-494 467 -297 1400 0
-453 60 83 1401 0
-477 200 430 1402 0
121 352 204 1403 0
420 -243 -367 1404 0
-259 487 -481 1405 0
-302 224 9 1406 0
-129 72 170 1407 0
-410 -405 317 1408 0
-44 377 -1 1409 0
-49 39 -297 1410 0
73 -115 166 1411 0
-145 -406 -329 1412 0
50 -17 443 1413 0
375 -91 168 1414 0
-277 -483 -27 1415 0
279 -286 327 1416 0
472 152 -7 1417 0
374 31 -475 1418 0
150 -190 303 1419 0
489 -235 -490 1420 0
198 -3 345 1421 0
-125 -123 -237 1422 0
-385 -188 -239 1423 0
-286 390 -164 1424 0
-106 -172 285 1425 0
-222 312 155 1426 0
-180 429 -227 1427 0
472 443 377 1428 0
-227 -263 -146 1429 0
349 91 -79 1430 0
372 -378 -437 1431 0
32 370 491 1432 0
-22 -416 41 1433 0
-450 228 -452 1434 0
445 -366 -103 1435 0
-313 54 422 1436 0
149 -141 -20 1437 0
9 -392 277 1438 0
-289 -328 389 1439 0
-141 -39 193 1440 0
27 -470 467 1441 0
-403 40 -360 1442 0
-308 422 449 1443 0
42 -317 200 1444 0
53 -321 -448 1445 0
-359 269 171 1446 0
-389 -335 228 1447 0
181 376 -275 1448 0
-400 -287 -476 1449 0
-369 152 361 1450 0
2 -11 -164 1451 0
-233 -418 284 1452 0
-138 -488 -452 1453 0
-40 23 316 1454 0
-70 106 -348 1455 0
337 228 322 1456 0
-414 78 354 1457 0
-198 308 -391 1458 0
-435 -23 386 1459 0
-248 489 -73 1460 0
-273 219 -455 1461 0
-189 424 371 1462 0
-91 419 -414 1463 0
-112 207 -424 1464 0
359 220 -29 1465 0
-126 -258 206 1466 0
389 107 204 1467 0
-95 -242 84 1468 0
279 -249 -440 1469 0
457 -243 -265 1470 0
170 -373 357 1471 0
-441 -89 -389 1472 0
-12 170 -292 1473 0
-185 -441 225 1474 0
-326 428 -66 1475 0
232 -120 433 1476 0
243 -63 394 1477 0
133 -272 -257 1478 0
-370 -124 95 1479 0
292 -448 -494 1480 0
205 251 -139 1481 0
383 219 -71 1482 0
-93 214 -13 1483 0
240 -112 -232 1484 0
379 318 -129 1485 0
8 -496 228 1486 0
-363 84 470 1487 0
14 -183 -372 1488 0
-279 232 305 1489 0
412 -329 300 1490 0
125 -108 -257 1491 0
-491 -309 -120 1492 0
2 144 35 1493 0
-362 56 172 1494 0
220 107 336 1495 0
-316 -285 132 1496 0
58 -396 277 1497 0
-124 158 116 1498 0
-268 -97 -7 1499 0
372 434 -355 1500 0
-322 -31 319 1501 0
-269 -276 169 1502 0
-318 -326 367 1503 0
-172 -331 -177 1504 0
-452 -448 82 1505 0
199 231 160 1506 0
312 -476 321 1507 0
-13 -235 383 1508 0
-38 -325 -127 1509 0
-91 130 -283 1510 0
-227 -94 408 1511 0
-157 -52 -146 1512 0
284 -416 354 1513 0
139 379 164 1514 0
352 28 -274 1515 0
129 362 162 1516 0
-280 356 189 1517 0
265 -155 -348 1518 0
-254 -41 263 1519 0
-253 285 -68 1520 0
107 48 145 1521 0
418 -227 79 1522 0
-132 100 -444 1523 0
-251 -22 -292 1524 0
-271 -188 -470 1525 0
235 -132 458 1526 0
-429 -217 -247 1527 0
448 91 -232 1528 0
465 -485 97 1529 0
-429 221 96 1530 0
396 278 -189 1531 0
-461 -133 166 1532 0
273 -365 107 1533 0
-388 -8 -151 1534 0
387 492 -417 1535 0
355 -335 -92 1536 0
-146 -303 -477 1537 0
-7 -147 249 1538 0
390 89 226 1539 0
-147 183 -121 1540 0
-266 81 467 1541 0
-309 72 82 1542 0
379 305 368 1543 0
-285 -359 19 1544 0
-319 386 -474 1545 0
441 -178 -282 1546 0
-471 -416 269 1547 0
60 331 -329 1548 0
-94 262 439 1549 0
-81 -185 334 1550 0
496 266 162 1551 0
132 -305 329 1552 0
4 181 118 1553 0
254 -302 -388 1554 0
156 -131 -137 1555 0
-388 310 -158 1556 0
-433 -31 -323 1557 0
477 -263 -131 1558 0
-491 379 112 1559 0
186 -439 342 1560 0
-27 7 332 1561 0
-10 70 371 1562 0
-397 334 153 1563 0
210 224 -474 1564 0
-238 345 -157 1565 0
-336 448 34 1566 0
214 -19 -59 1567 0
43 -332 -463 1568 0
79 -430 363 1569 0
-149 -57 264 1570 0
-87 434 395 1571 0
-222 -379 135 1572 0
460 -196 -485 1573 0
-192 -479 201 1574 0
496 451 -254 1575 0
299 -212 393 1576 0
308 -88 -196 1577 0
6 88 -481 1578 0
-95 -121 472 1579 0
-306 -115 416 1580 0
44 277 -271 1581 0
-288 132 -414 1582 0
286 66 -335 1583 0
368 -197 322 1584 0
315 128 -423 1585 0
-131 -246 95 1586 0
-251 435 -437 1587 0
129 -289 -235 1588 0
-135 77 223 1589 0
67 438 138 1590 0
-378 -202 322 1591 0
-302 19 -257 1592 0
-139 -198 -117 1593 0
-396 -358 -117 1594 0
221 -70 -172 1595 0
187 -344 464 1596 0
-84 171 57 1597 0
87 -432 -284 1598 0
9 125 361 1599 0
-34 -30 -247 1600 0
167 496 310 1601 0
-190 5 472 1602 0
488 164 298 1603 0
-239 121 374 1604 0
-134 244 -211 1605 0
33 391 38 1606 0
-184 -120 -302 1607 0
-289 -323 419 1608 0
-443 64 133 1609 0
-281 402 207 1610 0
-125 -153 493 1611 0
212 -478 337 1612 0
176 -67 -410 1613 0
-167 -453 -468 1614 0
-16 -355 12 1615 0
-401 -397 203 1616 0
-33 -42 245 1617 0
380 188 474 1618 0
419 125 420 1619 0
-34 356 -439 1620 0
367 273 -259 1621 0
-376 -419 -21 1622 0
-70 -127 172 1623 0
86 316 -377 1624 0
146 -428 -456 1625 0
-345 -158 485 1626 0
182 301 -296 1627 0
-3 299 257 1628 0
-366 185 332 1629 0
-204 329 -84 1630 0
-53 493 150 1631 0
216 453 -46 1632 0
-89 -408 -60 1633 0
-401 450 468 1634 0
-36 433 -363 1635 0
383 -264 137 1636 0
296 -302 -310 1637 0
-75 426 -480 1638 0
248 -16 -468 1639 0
-108 188 -13 1640 0
227 15 352 1641 0
-311 324 -23 1642 0
-145 385 409 1643 0
53 -289 -355 1644 0
24 492 474 1645 0
-52 -129 -167 1646 0
281 -333 270 1647 0
-11 -358 -114 1648 0
-164 -149 464 1649 0
-2 473 -387 1650 0
58 295 226 1651 0
-395 129 -70 1652 0
473 113 212 1653 0
213 -387 -445 1654 0
370 -407 -95 1655 0
145 274 213 1656 0
-343 238 23 1657 0
-201 -402 -483 1658 0
403 497 -245 1659 0
119 132 -42 1660 0
363 -3 236 1661 0
93 239 99 1662 0
-100 130 147 1663 0
-378 -220 -130 1664 0
-160 -444 351 1665 0
266 30 -318 1666 0
-127 -210 324 1667 0
349 -11 -246 1668 0
292 -104 370 1669 0
-31 79 424 1670 0
362 274 -271 1671 0
199 -13 -27 1672 0
-320 -375 424 1673 0
-318 53 238 1674 0
-110 305 -172 1675 0
320 -180 417 1676 0
55 252 92 1677 0
326 -131 401 1678 0
-231 389 272 1679 0
-429 497 42 1680 0
-289 29 179 1681 0
-208 -32 -346 1682 0
453 -345 195 1683 0
-368 -393 352 1684 0
-138 -11 481 1685 0
36 -454 35 1686 0
99 -367 -153 1687 0
123 208 -468 1688 0
-380 -351 256 1689 0
72 -342 171 1690 0
29 68 -158 1691 0
-18 330 -140 1692 0
-299 -74 381 1693 0
40 -323 443 1694 0
-316 -40 194 1695 0
-102 190 -477 1696 0
92 399 -127 1697 0
274 322 -61 1698 0
-356 435 -329 1699 0
-447 -405 70 1700 0
-308 314 -134 1701 0
-375 -6 -262 1702 0
-497 -60 -127 1703 0
232 62 -337 1704 0
415 -191 -119 1705 0
-218 -230 250 1706 0
-232 441 -63 1707 0
-47 157 349 1708 0
-445 364 137 1709 0
109 37 9 1710 0
-247 71 -431 1711 0
-473 133 -402 1712 0
97 230 245 1713 0
-400 -416 -337 1714 0
161 -235 157 1715 0
282 -266 -67 1716 0
-43 -440 -347 1717 0
217 419 -433 1718 0
-18 -152 43 1719 0
-156 -60 -257 1720 0
-34 -348 -43 1721 0
-246 198 -128 1722 0
460 84 -259 1723 0
265 298 438 1724 0
-259 450 -423 1725 0
87 409 58 1726 0
-51 -416 -184 1727 0
-451 -363 -356 1728 0
-131 6 91 1729 0
465 344 311 1730 0
76 361 -370 1731 0
-85 -419 -154 1732 0
152 -447 218 1733 0
-39 -464 -15 1734 0
302 132 260 1735 0
-200 -447 -59 1736 0
222 -372 -260 1737 0
-142 -248 -6 1738 0
-166 -361 -422 1739 0
147 -217 -359 1740 0
-15 390 473 1741 0
376 314 -35 1742 0
-422 -24 302 1743 0
13 -214 409 1744 0
-222 -14 301 1745 0
-419 -226 292 1746 0
-171 -293 499 1747 0
82 222 234 1748 0
139 157 497 1749 0
-71 -13 180 1750 0
431 -154 -5 1751 0
-153 -386 143 1752 0
251 -259 217 1753 0
337 138 359 1754 0
163 13 117 1755 0
-426 -256 -352 1756 0
346 431 153 1757 0
-83 387 -13 1758 0
-453 -290 374 1759 0
-368 123 -64 1760 0
393 207 -466 1761 0
93 -483 202 1762 0
402 225 -1 1763 0
32 31 -63 1764 0
-211 -317 -252 1765 0
294 -297 -231 1766 0
-228 -497 136 1767 0
142 417 51 1768 0
-397 164 -140 1769 0
233 -477 185 1770 0
-156 380 -277 1771 0
-355 44 452 1772 0
60 182 -69 1773 0
419 -456 -113 1774 0
15 -459 337 1775 0
-81 84 -489 1776 0
379 -86 -384 1777 0
56 -333 -44 1778 0
-285 174 -279 1779 0
179 -82 -278 1780 0
325 -103 20 1781 0
-158 -417 144 1782 0
-267 346 260 1783 0
260 -65 -223 1784 0
-150 50 -152 1785 0
-258 -287 277 1786 0
184 95 37 1787 0
-256 46 494 1788 0
-259 144 335 1789 0
283 -288 -397 1790 0
-280 -108 -168 1791 0
-77 -196 -277 1792 0
-316 -16 495 1793 0
-19 -76 -91 1794 0
-413 86 -11 1795 0
-254 347 -256 1796 0
417 182 -390 1797 0
-273 410 -423 1798 0
-289 -187 144 1799 0
83 88 358 1800 0
497 149 -20 1801 0
-443 -440 -333 1802 0
292 -49 397 1803 0
83 74 137 1804 0
-498 -461 135 1805 0
-104 71 163 1806 0
174 373 417 1807 0
-467 -26 217 1808 0
-349 -465 -351 1809 0
-492 -145 -428 1810 0
-6 53 -315 1811 0
-230 20 -229 1812 0
46 312 295 1813 0
-25 350 -276 1814 0
41 -340 -169 1815 0
-302 -259 -409 1816 0
-81 153 195 1817 0
145 -345 56 1818 0
-325 -232 49 1819 0
282 -148 -311 1820 0
357 124 253 1821 0
-421 -89 -436 1822 0
-142 23 311 1823 0
412 342 490 1824 0
-327 108 293 1825 0
408 -215 -89 1826 0
40 -275 196 1827 0
-153 -311 -259 1828 0
362 -179 82 1829 0
291 224 167 1830 0
-144 -68 -115 1831 0
243 -336 -252 1832 0
-84 478 -300 1833 0
-268 -14 -17 1834 0
-16 -233 370 1835 0
211 -180 18 1836 0
376 472 -384 1837 0
-74 -308 -73 1838 0
-156 364 89 1839 0
-429 -266 -53 1840 0
313 416 -305 1841 0
299 -227 -81 1842 0
-441 -174 -320 1843 0
-36 -216 77 1844 0
-67 26 89 1845 0
477 400 149 1846 0
-139 85 -412 1847 0
-402 -296 -463 1848 0
323 -11 -416 1849 0
-430 221 164 1850 0
-285 -162 453 1851 0
-181 410 -349 1852 0
109 -436 -104 1853 0
-357 376 -485 1854 0
31 -292 -228 1855 0
-277 483 -295 1856 0
-109 -195 364 1857 0
409 -73 -113 1858 0
-230 57 254 1859 0
-376 332 -359 1860 0
205 -411 -123 1861 0
-351 34 -375 1862 0
247 426 -249 1863 0
-333 348 -384 1864 0
113 426 -420 1865 0
-387 -173 120 1866 0
84 -485 321 1867 0
-33 -320 66 1868 0
176 417 275 1869 0
336 -302 303 1870 0
-254 322 262 1871 0
-458 -224 85 1872 0
-312 -270 454 1873 0
388 468 -310 1874 0
500 -312 -99 1875 0
-77 417 214 1876 0
329 108 -214 1877 0
-207 -48 374 1878 0
-26 -480 -192 1879 0
-4 112 443 1880 0
137 -59 -474 1881 0
-88 -323 -245 1882 0
391 258 443 1883 0
346 392 432 1884 0
327 -307 -167 1885 0
-150 -153 345 1886 0
151 -413 263 1887 0
364 60 209 1888 0
86 376 -114 1889 0
-214 101 220 1890 0
-388 -45 294 1891 0
255 -116 39 1892 0
220 269 29 1893 0
39 89 46 1894 0
-391 -460 67 1895 0
101 -327 -469 1896 0
394 -346 -55 1897 0
378 -499 9 1898 0
-310 -141 -270 1899 0
105 104 -381 1900 0
362 -220 457 1901 0
-25 456 -18 1902 0
205 139 11 1903 0
-187 142 266 1904 0
323 259 -193 1905 0
5 -283 225 1906 0
270 11 141 1907 0
158 272 -179 1908 0
86 -77 50 1909 0
-456 -87 134 1910 0
88 -101 -439 1911 0
-490 -328 382 1912 0
-122 313 263 1913 0
403 -227 131 1914 0
330 338 -12 1915 0
-61 -72 23 1916 0
182 206 197 1917 0
127 101 -91 1918 0
356 150 -164 1919 0
-475 69 215 1920 0
383 57 320 1921 0
17 -294 -48 1922 0
241 14 166 1923 0
-422 -50 -83 1924 0
491 258 490 1925 0
171 149 191 1926 0
112 398 394 1927 0
244 -49 -196 1928 0
417 -466 -36 1929 0
389 -55 -465 1930 0
-447 180 -144 1931 0
-261 -169 99 1932 0
25 141 -35 1933 0
-368 167 -178 1934 0
-280 389 139 1935 0
196 -290 -318 1936 0
-371 154 -67 1937 0
-199 6 25 1938 0
44 169 -28 1939 0
166 -56 3 1940 0
463 302 415 1941 0
-421 395 11 1942 0
-210 377 -178 1943 0
-431 1 491 1944 0
-373 387 -206 1945 0
370 -386 340 1946 0
-37 -489 427 1947 0
-231 84 245 1948 0
-493 102 286 1949 0
-174 -11 -435 1950 0
-456 -444 -500 1951 0
234 386 -223 1952 0
-374 247 227 1953 0
500 115 -427 1954 0
54 -366 -204 1955 0
40 249 356 1956 0
395 -391 412 1957 0
-116 444 108 1958 0
410 -497 -70 1959 0
-316 -247 355 1960 0
126 152 -416 1961 0
-173 -261 -329 1962 0
-24 -404 -66 1963 0
12 121 -75 1964 0
359 -113 -292 1965 0
158 -394 -55 1966 0
-387 389 439 1967 0
-208 -99 116 1968 0
-134 -183 373 1969 0
52 -280 -477 1970 0
133 41 -490 1971 0
-356 373 -8 1972 0
-299 212 439 1973 0
-101 -212 -425 1974 0
483 155 -344 1975 0
-442 429 -421 1976 0
85 -229 -269 1977 0
-288 447 423 1978 0
-448 -92 58 1979 0
270 475 263 1980 0
311 483 -288 1981 0
-34 319 -311 1982 0
-233 -196 -162 1983 0
-222 -240 -174 1984 0
484 462 43 1985 0
400 -258 387 1986 0
37 -381 393 1987 0
164 270 -94 1988 0
-272 -402 -265 1989 0
433 -194 122 1990 0
429 282 123 1991 0
-137 -282 -312 1992 0
-298 -61 -261 1993 0
-117 -445 -485 1994 0
-118 -241 -17 1995 0
-403 462 -202 1996 0
-370 -343 -80 1997 0
193 15 -287 1998 0
-65 421 156 1999 0
-48 -207 482 2000 0
-127 112 -137 2001 0
-35 -257 106 2002 0
-136 -496 54 2003 0
93 -361 120 2004 0
170 400 491 2005 0
-166 163 -419 2006 0
-152 443 -227 2007 0
341 479 -397 2008 0
101 -194 433 2009 0
-482 63 117 2010 0
-438 -465 185 2011 0
95 -237 -258 2012 0
54 -463 184 2013 0
-178 331 -136 2014 0
-492 320 -299 2015 0
133 285 -338 2016 0
295 37 32 2017 0
-469 382 -269 2018 0
-156 -500 6 2019 0
216 -186 -290 2020 0
145 323 -153 2021 0
-370 -379 -236 2022 0
-408 440 243 2023 0
-90 9 -401 2024 0
174 68 429 2025 0
445 -442 350 2026 0
-418 -146 439 2027 0
383 283 297 2028 0
383 -429 398 2029 0
-447 -332 316 2030 0
-405 417 -414 2031 0
494 -390 338 2032 0
-200 -96 309 2033 0
-179 -286 -320 2034 0
-389 -296 249 2035 0
441 -99 444 2036 0
398 452 331 2037 0
167 204 274 2038 0
118 195 -140 2039 0
-314 -91 -41 2040 0
-99 -356 284 2041 0
-80 -59 -300 2042 0
-294 -313 268 2043 0
-223 -354 -30 2044 0
-347 251 273 2045 0
442 -79 175 2046 0
-376 191 -366 2047 0
-477 -255 324 2048 0
-484 -304 -289 2049 0
400 241 -225 2050 0
35 -331 -244 2051 0
335 -472 371 2052 0
-52 -386 -438 2053 0
469 -204 407 2054 0
-132 -351 -203 2055 0
-261 305 -157 2056 0
168 -492 6 2057 0
-67 -167 -64 2058 0
-45 -270 495 2059 0
118 -98 -326 2060 0
-490 -366 51 2061 0
266 -466 -177 2062 0
378 -108 89 2063 0
306 79 -25 2064 0
482 -154 484 2065 0
22 365 -304 2066 0
125 250 -186 2067 0
404 426 412 2068 0
60 -124 91 2069 0
-372 -378 288 2070 0
-47 468 -268 2071 0
223 -368 -359 2072 0
-180 -246 192 2073 0
-9 -29 -415 2074 0
-267 -158 -322 2075 0
59 -470 -423 2076 0
-11 -139 439 2077 0
-95 -297 495 2078 0
2 -232 -230 2079 0
-352 457 282 2080 0
-335 -370 193 2081 0
192 -239 396 2082 0
15 19 -440 2083 0
416 394 -429 2084 0
-380 274 -498 2085 0
499 -341 466 2086 0
315 -440 445 2087 0
405 123 242 2088 0
-330 -296 -415 2089 0
-53 -126 -153 2090 0
-45 -89 -384 2091 0
223 -117 30 2092 0
-481 -213 -236 2093 0
160 340 -231 2094 0
-43 450 -190 2095 0
-247 -308 -246 2096 0
-389 127 -405 2097 0
-418 -70 260 2098 0
177 -90 276 2099 0
293 -10 228 2100 0
134 494 146 2101 0
-222 -329 155 2102 0
-454 94 251 2103 0
383 316 -490 2104 0
-144 -32 79 2105 0
-311 440 265 2106 0
-287 -490 -91 2107 0
-201 216 93 2108 0
-281 -100 -161 2109 0
221 -32 310 2110 0
179 97 387 2111 0
151 -93 -204 2112 0
483 79 -428 2113 0
-281 102 -267 2114 0
200 241 -238 2115 0
-312 22 -118 2116 0
4 -339 -203 2117 0
-423 -99 -436 2118 0
367 -42 302 2119 0
-301 -34 149 2120 0
-10 -358 139 2121 0
53 -10 162 2122 0
296 216 -15 2123 0
-414 306 294 2124 0
486 -80 53 2125 0
59 -32 366 2126 0
-491 -99 -230 2127 0
-469 198 344 2128 0
326 138 327 2129 0
-344 -348 -364 2130 0
82 -352 -43 2131 0
269 277 -486 2132 0
280 -21 191 2133 0
-309 294 -183 2134 0
-102 135 499 2135 0
-270 35 -259 2136 0
207 -120 289 2137 0
-248 335 85 2138 0
-83 474 -279 2139 0
422 381 457 2140 0
41 244 96 2141 0
213 366 -333 2142 0
-471 -26 -282 2143 0
127 367 -437 2144 0
-223 -313 22 2145 0
452 -337 320 2146 0
-403 -225 430 2147 0
-175 -226 106 2148 0
-410 245 73 2149 0
-449 228 116 2150 0
-78 -447 -162 2151 0
-412 186 -419 2152 0
-460 358 -233 2153 0
-46 97 -254 2154 0
-356 -370 -495 2155 0
-11 200 -193 2156 0
491 124 157 2157 0
-65 -12 354 2158 0
-230 -298 -332 2159 0
338 -205 -270 2160 0
-333 450 418 2161 0
-298 -461 208 2162 0
-295 -339 71 2163 0
-468 19 -5 2164 0
231 222 172 2165 0
-325 41 -114 2166 0
-35 -485 121 2167 0
-140 32 80 2168 0
187 396 477 2169 0
452 97 451 2170 0
473 422 162 2171 0
85 -124 -62 2172 0
28 -77 -54 2173 0
362 -365 316 2174 0
-255 -211 382 2175 0
-227 362 -422 2176 0
-74 136 -496 2177 0
219 355 466 2178 0
-437 -427 -103 2179 0
48 441 -302 2180 0
22 -357 -38 2181 0
-148 8 -268 2182 0
334 -177 189 2183 0
116 371 117 2184 0
-464 -297 -332 2185 0
-367 -60 493 2186 0
-497 -404 180 2187 0
382 454 29 2188 0
267 -150 213 2189 0
210 221 -415 2190 0
289 -396 -249 2191 0
-204 301 74 2192 0
-260 -432 252 2193 0
390 240 126 2194 0
-463 420 -55 2195 0
203 -238 -308 2196 0
96 237 -366 2197 0
-262 -154 21 2198 0
-341 -58 -92 2199 0
13 252 -19 2200 0
-53 -423 228 2201 0
-232 -248 -104 2202 0
2 180 -409 2203 0
397 -199 -328 2204 0
-183 -338 -30 2205 0
-488 -410 408 2206 0
236 71 -256 2207 0
-240 -394 299 2208 0
-1 -327 483 2209 0
38 -461 -489 2210 0
157 -16 -465 2211 0
350 349 -175 2212 0
108 1 -103 2213 0
423 47 -438 2214 0
404 -99 39 2215 0
242 -174 39 2216 0
281 -161 -283 2217 0
142 -378 398 2218 0
-338 -431 10 2219 0
38 -92 -483 2220 0
353 -452 -453 2221 0
63 -453 -17 2222 0
453 378 -232 2223 0
-5 -132 166 2224 0
-286 461 294 2225 0
-446 248 -422 2226 0
-275 -114 17 2227 0
-322 255 -420 2228 0
-260 184 -331 2229 0
-448 -384 -273 2230 0
125 179 -231 2231 0
95 -185 41 2232 0
-373 152 -225 2233 0
-191 -87 86 2234 0
264 190 -370 2235 0
13 444 -449 2236 0
-397 -17 43 2237 0
-24 -397 340 2238 0
-193 -189 479 2239 0
92 272 -186 2240 0
83 -486 197 2241 0
187 481 475 2242 0
-211 -322 130 2243 0
310 -461 -496 2244 0
370 -89 -466 2245 0
-27 -28 -132 2246 0
340 -9 -12 2247 0
-200 125 213 2248 0
437 404 -394 2249 0
240 231 427 2250 0
430 -172 -488 2251 0
256 -369 401 2252 0
375 -466 -301 2253 0
-154 365 -471 2254 0
248 -186 -176 2255 0
-466 -41 -231 2256 0
-27 440 309 2257 0
-254 -119 326 2258 0
-242 179 -390 2259 0
-265 -96 -309 2260 0
141 300 -471 2261 0
-89 344 209 2262 0
-10 499 498 2263 0
-481 421 -380 2264 0
177 -462 -395 2265 0
341 367 -297 2266 0
393 -208 -19 2267 0
-161 -386 -487 2268 0
-122 -310 -360 2269 0
-198 -109 -375 2270 0
-381 496 377 2271 0
-255 42 241 2272 0
-37 -300 -248 2273 0
13 183 -403 2274 0
-13 101 -173 2275 0
315 -208 467 2276 0
383 253 78 2277 0
-180 -108 62 2278 0
338 406 -86 2279 0
-282 -137 189 2280 0
-188 -305 -296 2281 0
-32 404 302 2282 0
-217 -339 -55 2283 0
265 480 206 2284 0
-161 -336 423 2285 0
-90 479 444 2286 0
-117 -344 -35 2287 0
58 92 224 2288 0
-309 -135 -168 2289 0
276 -210 374 2290 0
-409 -435 431 2291 0
382 239 -280 2292 0
-43 497 148 2293 0
36 377 118 2294 0
-218 -29 -347 2295 0
-167 406 -47 2296 0
-359 425 -81 2297 0
141 -446 -327 2298 0
-19 219 347 2299 0
-80 290 -474 2300 0
177 -210 -65 2301 0
405 424 434 2302 0
-130 247 -159 2303 0
62 255 172 2304 0
208 395 219 2305 0
-273 -87 -43 2306 0
-376 -7 457 2307 0
-139 67 -355 2308 0
53 418 345 2309 0
-271 -107 43 2310 0
-35 -128 -315 2311 0
129 -400 159 2312 0
-451 -295 -359 2313 0
149 -19 127 2314 0
-26 484 101 2315 0
-34 253 -488 2316 0
292 -125 172 2317 0
441 -41 -232 2318 0
-291 -269 149 2319 0
367 255 336 2320 0
-63 -150 327 2321 0
-340 -151 -365 2322 0
138 -95 389 2323 0
-167 -120 372 2324 0
83 365 -282 2325 0
-233 -459 -184 2326 0
-248 421 209 2327 0
411 -490 113 2328 0
306 412 -307 2329 0
-199 -356 250 2330 0
-247 488 218 2331 0
19 -328 242 2332 0
-90 -411 -118 2333 0
-25 -129 -112 2334 0
-2 222 135 2335 0
-341 414 -330 2336 0
-482 125 12 2337 0
-216 368 425 2338 0
13 361 101 2339 0
286 260 128 2340 0
-310 -46 -100 2341 0
-72 -462 -215 2342 0
-479 70 -480 2343 0
301 229 202 2344 0
177 301 -251 2345 0
-136 77 183 2346 0
262 -386 -2 2347 0
74 362 451 2348 0
269 75 -14 2349 0
-473 338 234 2350 0
416 74 146 2351 0
329 -412 -174 2352 0
123 -468 301 2353 0
407 -74 -424 2354 0
207 -83 -118 2355 0
296 -396 -27 2356 0
-203 350 -411 2357 0
25 -426 361 2358 0
-255 436 329 2359 0
200 342 -291 2360 0
276 -184 195 2361 0
35 89 -444 2362 0
140 245 -254 2363 0
210 162 -192 2364 0
55 -41 325 2365 0
-325 352 -379 2366 0
-415 27 -358 2367 0
319 109 -125 2368 0
272 -288 271 2369 0
-284 240 -92 2370 0
493 -338 58 2371 0
-153 440 -297 2372 0
-116 -283 28 2373 0
81 -155 75 2374 0
-211 107 -363 2375 0
-70 209 213 2376 0
-293 -301 86 2377 0
-278 -193 474 2378 0
-330 163 -492 2379 0
-282 137 425 2380 0
4 -264 -286 2381 0
-297 160 361 2382 0
400 237 -405 2383 0
-188 336 215 2384 0
361 -489 475 2385 0
-138 278 116 2386 0
397 286 -102 2387 0
191 25 187 2388 0
-409 13 -24 2389 0
-278 -173 174 2390 0
-10 163 337 2391 0
-279 -274 -17 2392 0
-275 342 -165 2393 0
277 -426 -265 2394 0
431 140 321 2395 0
56 -486 288 2396 0
-461 -391 -214 2397 0
218 -2 232 2398 0
132 304 278 2399 0
130 141 -64 2400 0
-486 -113 -473 2401 0
-334 448 -226 2402 0
254 -407 -43 2403 0
464 -179 112 2404 0
176 -378 -306 2405 0
-40 -165 425 2406 0
7 72 256 2407 0
303 293 72 2408 0
-194 -332 375 2409 0
264 115 178 2410 0
-339 468 -465 2411 0
131 58 293 2412 0
-115 446 -242 2413 0
-469 68 314 2414 0
-86 331 -51 2415 0
-436 400 -236 2416 0
228 24 -398 2417 0
-208 445 364 2418 0
-499 -447 -475 2419 0
-144 -497 421 2420 0
489 364 139 2421 0
383 1 -123 2422 0
85 272 -457 2423 0
261 -329 -231 2424 0
267 -451 462 2425 0
30 251 134 2426 0
55 -353 86 2427 0
-446 -220 -483 2428 0
128 85 -364 2429 0
344 353 247 2430 0
121 -157 319 2431 0
447 39 396 2432 0
-499 348 226 2433 0
-472 11 -228 2434 0
252 -132 147 2435 0
428 -338 275 2436 0
-112 -98 277 2437 0
-488 363 -199 2438 0
-290 -155 213 2439 0
259 -210 -295 2440 0
-191 221 -90 2441 0
21 -30 -197 2442 0
425 -123 360 2443 0
216 -129 -151 2444 0
370 49 -100 2445 0
129 366 302 2446 0
-39 33 -108 2447 0
-363 -240 -470 2448 0
14 91 -217 2449 0
-360 -348 172 2450 0
10 -467 64 2451 0
-235 -80 -4 2452 0
-176 -109 -53 2453 0
-15 32 -275 2454 0
-181 144 -118 2455 0
360 175 463 2456 0
-109 -476 -129 2457 0
380 -104 -487 2458 0
-283 397 -217 2459 0
382 -146 464 2460 0
181 376 75 2461 0
-334 -270 58 2462 0
-204 -328 -496 2463 0
215 83 411 2464 0
118 -298 30 2465 0
27 52 422 2466 0
-266 268 198 2467 0
451 -302 -225 2468 0
180 186 494 2469 0
-251 130 85 2470 0
456 28 62 2471 0
83 495 -98 2472 0
209 443 -410 2473 0
367 -429 -408 2474 0
484 20 -267 2475 0
-443 256 -459 2476 0
-183 402 365 2477 0
-379 35 -279 2478 0
338 181 -281 2479 0
-263 -34 -58 2480 0
486 8 -454 2481 0
338 -136 425 2482 0
-46 185 466 2483 0
-434 -338 66 2484 0
173 453 26 2485 0
-435 -75 -183 2486 0
-34 -469 249 2487 0
-278 -253 -80 2488 0
-479 110 480 2489 0
-243 -467 202 2490 0
-478 423 -33 2491 0
351 -79 132 2492 0
-256 480 -289 2493 0
271 -328 -59 2494 0
-129 414 88 2495 0
211 -251 -418 2496 0
266 450 -283 2497 0
-134 166 152 2498 0
-346 -46 257 2499 0
-351 -386 -107 2500 0
454 -121 475 2501 0
163 274 -442 2502 0
-455 81 78 2503 0
-397 -497 484 2504 0
339 291 163 2505 0
192 333 175 2506 0
-435 -446 157 2507 0
-329 74 474 2508 0
-279 330 464 2509 0
356 -333 -60 2510 0
160 222 -457 2511 0
5 -454 -51 2512 0
-308 -498 391 2513 0
-334 -313 -111 2514 0
-133 258 431 2515 0
-368 294 -395 2516 0
444 397 -302 2517 0
-306 267 -122 2518 0
-103 -455 405 2519 0
328 -279 260 2520 0
9 -469 -235 2521 0
-14 -315 16 2522 0
462 -260 222 2523 0
-308 -82 -259 2524 0
-423 494 345 2525 0
-499 -265 -414 2526 0
-272 -470 255 2527 0
-232 -333 146 2528 0
-462 375 -79 2529 0
35 204 393 2530 0
-115 80 -266 2531 0
-41 -410 492 2532 0
-246 101 337 2533 0
127 432 198 2534 0
281 447 -448 2535 0
-297 -106 -82 2536 0
165 -103 -184 2537 0
185 446 253 2538 0
-292 -414 484 2539 0
-297 -454 -134 2540 0
-208 105 37 2541 0
-194 149 -229 2542 0
-387 -14 -214 2543 0
-298 -231 -350 2544 0
-65 -311 198 2545 0
404 101 77 2546 0
-355 47 -291 2547 0
375 -128 -335 2548 0
-285 7 -390 2549 0
-131 335 498 2550 0
147 -100 -356 2551 0
-381 309 449 2552 0
210 343 -314 2553 0
111 472 482 2554 0
315 -109 379 2555 0
460 41 116 2556 0
170 -191 62 2557 0
-268 44 323 2558 0
436 439 -83 2559 0
-136 -314 131 2560 0
307 -245 8 2561 0
380 -385 9 2562 0
-215 7 22 2563 0
-499 70 -200 2564 0
-476 -351 -305 2565 0
-296 -356 -384 2566 0
366 346 401 2567 0
378 -492 398 2568 0
459 108 -118 2569 0
-263 11 499 2570 0
-241 277 496 2571 0
-222 408 -370 2572 0
172 -10 259 2573 0
-135 482 126 2574 0
-253 -45 -475 2575 0
-381 -405 -161 2576 0
-136 -465 93 2577 0
232 -15 210 2578 0
-29 408 -260 2579 0
293 156 -283 2580 0
-211 -499 -106 2581 0
177 -3 350 2582 0
484 -384 306 2583 0
278 -477 380 2584 0
113 178 -488 2585 0
-478 221 -39 2586 0
-342 -70 -272 2587 0
108 245 -223 2588 0
372 -417 293 2589 0
-139 -82 489 2590 0
-90 303 371 2591 0
-479 438 470 2592 0
-374 -308 -311 2593 0
-63 -274 -413 2594 0
-160 233 -476 2595 0
-428 69 -264 2596 0
-215 -372 109 2597 0
-283 496 -86 2598 0
378 43 296 2599 0
68 319 323 2600 0
-490 131 257 2601 0
150 -378 402 2602 0
386 -241 489 2603 0
119 -100 -382 2604 0
-237 -131 -77 2605 0
467 -477 298 2606 0
162 -402 -291 2607 0
88 -54 -277 2608 0
-230 155 -205 2609 0
-352 -152 -177 2610 0
-498 -100 -171 2611 0
255 319 174 2612 0
-422 35 -129 2613 0
-416 -281 107 2614 0
175 454 -381 2615 0
254 -276 -449 2616 0
-228 -471 -440 2617 0
66 -351 434 2618 0
331 363 464 2619 0
426 50 156 2620 0
-269 297 -347 2621 0
-337 -416 -160 2622 0
-87 -340 454 2623 0
-148 -169 27 2624 0
433 356 -156 2625 0
-428 -23 265 2626 0
225 -372 -431 2627 0
-136 438 -248 2628 0
30 -18 196 2629 0
-226 436 -400 2630 0
-290 467 -222 2631 0
-455 348 -499 2632 0
225 25 -348 2633 0
111 229 67 2634 0
444 -40 330 2635 0
340 253 -189 2636 0
391 -474 267 2637 0
271 -312 106 2638 0
-417 26 -169 2639 0
195 -245 218 2640 0
-399 -93 -48 2641 0
-130 -61 106 2642 0
-409 101 149 2643 0
-16 201 -52 2644 0
187 184 402 2645 0
-301 54 472 2646 0
177 -206 111 2647 0
-106 -80 -6 2648 0
-327 -414 -483 2649 0
-74 149 246 2650 0
