p cnf 2650 2150
-142 266 144 501 0
-94 -276 -394 502 0
-127 -312 477 503 0
-316 -288 440 504 0
349 120 -298 505 0
84 -266 10 506 0
-482 -34 -285 507 0
-249 189 -219 508 0
391 -68 -483 509 0
-302 38 466 510 0
221 171 248 511 0
-322 -128 -203 512 0
162 203 222 513 0
-338 177 148 514 0
-273 238 373 515 0
278 321 -150 516 0
-109 -390 175 517 0
-279 -265 -228 518 0
255 -340 159 519 0
7 330 -199 520 0
-196 64 324 521 0
-60 356 -252 522 0
87 -354 -23 523 0
-313 475 -238 524 0
-499 -111 69 525 0
131 -463 127 526 0
173 -91 -189 527 0
322 72 222 528 0
103 255 1 529 0
401 -410 -124 530 0
-71 -239 107 531 0
-83 -33 -39 532 0
357 312 365 533 0
292 149 176 534 0
-423 -269 243 535 0
461 482 334 536 0
202 296 27 537 0
371 -283 348 538 0
-444 -57 323 539 0
-446 -103 395 540 0
-61 -486 -283 541 0
-124 264 -440 542 0
-330 -116 117 543 0
-378 71 -57 544 0
365 -428 -140 545 0
-478 -388 -462 546 0
-205 -331 117 547 0
-321 -224 347 548 0
160 -28 -106 549 0
325 -58 19 550 0
-405 -106 -277 551 0
-84 58 -131 552 0
-4 408 -198 553 0
27 -40 -3 554 0
327 407 -181 555 0
71 -365 -268 556 0
381 -172 324 557 0
-373 -269 -97 558 0
323 200 416 559 0
324 218 379 560 0
-86 -454 117 561 0
-451 -317 466 562 0
-41 222 208 563 0
196 -366 -189 564 0
1 -379 87 565 0
441 487 -451 566 0
-272 322 123 567 0
34 233 -375 568 0
307 299 411 569 0
-415 -410 386 570 0
51 430 127 571 0
461 -75 -356 572 0
-417 -68 491 573 0
-375 -225 -159 574 0
-346 -55 -493 575 0
291 281 -269 576 0
47 213 -283 577 0
-500 450 489 578 0
-375 93 -362 579 0
-139 -216 495 580 0
373 195 446 581 0
199 -85 310 582 0
102 -113 18 583 0
274 166 -249 584 0
-424 -25 131 585 0
410 -87 92 586 0
403 -9 -98 587 0
-216 -320 -68 588 0
276 240 189 589 0
175 144 259 590 0
-283 183 -223 591 0
-358 -22 -218 592 0
-422 -469 -146 593 0
106 289 71 594 0
93 -188 378 595 0
318 288 -431 596 0
-156 -260 103 597 0
294 353 99 598 0
-390 39 166 599 0
-280 99 22 600 0
419 473 -165 601 0
-389 -180 338 602 0
-408 301 395 603 0
-201 -457 -430 604 0
102 340 386 605 0
29 381 -53 606 0
286 -387 -233 607 0
410 -119 99 608 0
81 -7 -116 609 0
-206 428 -71 610 0
-359 -1 210 611 0
-164 396 91 612 0
132 240 -376 613 0
-166 -288 -76 614 0
-481 56 -369 615 0
-259 278 270 616 0
-199 -376 -171 617 0
87 284 310 618 0
-17 -205 369 619 0
440 168 -74 620 0
-121 -290 -88 621 0
135 -230 -343 622 0
-65 73 -367 623 0
163 -189 -187 624 0
-21 66 461 625 0
89 216 430 626 0
318 261 341 627 0
307 445 -370 628 0
105 -274 -387 629 0
-223 -275 -167 630 0
71 -278 -15 631 0
276 441 -333 632 0
-177 435 -161 633 0
-451 -279 -207 634 0
493 -491 -396 635 0
-268 203 -413 636 0
-254 -137 305 637 0
422 394 239 638 0
-57 -141 -374 639 0
-262 379 -483 640 0
363 87 492 641 0
243 150 -10 642 0
2 -447 -454 643 0
-175 319 -205 644 0
258 204 145 645 0
255 -216 -196 646 0
390 367 153 647 0
-223 331 -175 648 0
14 338 295 649 0
-27 23 388 650 0
284 -335 -281 651 0
111 -143 82 652 0
-145 -44 85 653 0
-443 179 -58 654 0
-335 -4 84 655 0
424 347 420 656 0
-150 -350 327 657 0
392 24 -308 658 0
469 -364 -461 659 0
221 -30 443 660 0
26 -299 -260 661 0
-251 -211 451 662 0
498 -438 78 663 0
175 42 -338 664 0
-78 -184 -257 665 0
323 484 136 666 0
395 10 -81 667 0
71 -445 95 668 0
459 327 438 669 0
293 263 88 670 0
-5 200 376 671 0
-350 -298 165 672 0
-143 235 -326 673 0
46 -118 119 674 0
269 135 -317 675 0
243 48 409 676 0
-440 -10 392 677 0
273 -205 30 678 0
15 -304 283 679 0
353 265 130 680 0
-250 -236 -138 681 0
-33 -21 -22 682 0
364 175 -385 683 0
36 64 -409 684 0
269 378 427 685 0
-312 -164 96 686 0
276 -311 38 687 0
-3 479 -424 688 0
-188 -193 219 689 0
-310 165 425 690 0
268 142 -399 691 0
156 142 432 692 0
412 13 -497 693 0
399 -177 123 694 0
-428 -324 -191 695 0
451 247 -449 696 0
-237 161 61 697 0
48 -71 -129 698 0
281 -203 -51 699 0
424 17 -182 700 0
-473 -485 240 701 0
22 -161 -446 702 0
-332 -78 319 703 0
-44 127 -278 704 0
179 -206 -310 705 0
195 285 -487 706 0
-396 -399 -238 707 0
427 200 -432 708 0
98 26 445 709 0
408 304 -178 710 0
-132 -96 98 711 0
409 -225 213 712 0
393 33 -352 713 0
-232 -19 -269 714 0
434 -17 -425 715 0
378 328 364 716 0
4 163 -449 717 0
433 87 272 718 0
383 -78 -365 719 0
-500 448 292 720 0
-402 -39 235 721 0
-483 278 411 722 0
-54 198 292 723 0
279 480 -230 724 0
468 -160 206 725 0
-360 -404 418 726 0
332 162 222 727 0
-367 437 -406 728 0
180 187 -280 729 0
407 229 -443 730 0
-102 -175 -296 731 0
390 333 327 732 0
-451 162 -79 733 0
-328 180 468 734 0
201 -39 203 735 0
-142 343 167 736 0
-49 -480 -97 737 0
66 97 334 738 0
-50 107 418 739 0
-170 326 -58 740 0
-344 287 215 741 0
163 148 243 742 0
-223 463 272 743 0
195 185 -485 744 0
-56 -374 460 745 0
-417 195 -491 746 0
364 98 -2 747 0
27 -281 -181 748 0
-448 -32 361 749 0
-316 -386 258 750 0
112 -96 -109 751 0
-215 -77 -314 752 0
-283 -273 -194 753 0
-481 -466 185 754 0
-66 -331 442 755 0
388 29 -84 756 0
-25 148 369 757 0
47 -107 343 758 0
-208 -163 -179 759 0
217 -418 439 760 0
-307 166 122 761 0
-148 -421 -283 762 0
40 426 -345 763 0
-288 -148 268 764 0
-221 -311 -286 765 0
196 -336 -110 766 0
-7 21 -33 767 0
-396 -129 -326 768 0
256 -329 -403 769 0
-337 -313 -213 770 0
-377 204 254 771 0
-447 222 -332 772 0
456 -366 -117 773 0
-352 139 109 774 0
-52 -56 82 775 0
421 429 97 776 0
345 -396 -408 777 0
482 -431 288 778 0
13 495 455 779 0
454 496 396 780 0
74 421 46 781 0
79 243 183 782 0
256 33 384 783 0
34 163 273 784 0
-55 -6 -78 785 0
307 -384 388 786 0
425 -103 367 787 0
-253 97 452 788 0
240 -313 -250 789 0
38 -235 139 790 0
-218 -253 -294 791 0
142 55 207 792 0
-194 -478 -480 793 0
-220 227 10 794 0
272 147 -205 795 0
-124 30 -153 796 0
482 -458 351 797 0
175 286 -432 798 0
2 19 351 799 0
-356 -323 -307 800 0
-135 367 -315 801 0
206 -33 -474 802 0
-124 -297 475 803 0
428 176 -151 804 0
232 -373 -275 805 0
-373 131 495 806 0
344 212 16 807 0
356 405 378 808 0
-124 415 28 809 0
-129 -428 499 810 0
322 -430 -390 811 0
-347 371 330 812 0
-359 50 403 813 0
311 -219 495 814 0
-367 28 77 815 0
-379 198 114 816 0
-329 157 -176 817 0
255 349 327 818 0
-434 250 271 819 0
-15 -149 -266 820 0
17 -362 9 821 0
-93 412 239 822 0
-458 438 -202 823 0
-181 -197 287 824 0
-432 382 -497 825 0
491 70 -357 826 0
-376 -157 -385 827 0
-461 -425 -39 828 0
269 -102 205 829 0
74 -23 -432 830 0
468 85 -225 831 0
-382 -315 339 832 0
-256 436 -39 833 0
-160 -468 -285 834 0
259 -389 415 835 0
-410 55 -413 836 0
290 21 469 837 0
-255 103 277 838 0
-465 181 199 839 0
-439 420 -191 840 0
-338 -257 -46 841 0
53 214 -34 842 0
-294 -288 -108 843 0
-53 316 320 844 0
-259 -10 139 845 0
-404 -45 -319 846 0
327 -80 322 847 0
-4 486 494 848 0
-426 -54 477 849 0
394 -389 -265 850 0
15 -114 212 851 0
414 -44 -26 852 0
-313 -471 499 853 0
364 73 145 854 0
-165 381 132 855 0
185 368 -150 856 0
-47 -345 473 857 0
246 -43 449 858 0
258 277 -339 859 0
349 474 -477 860 0
268 401 -427 861 0
206 -230 -264 862 0
-278 -458 293 863 0
-81 308 453 864 0
413 358 284 865 0
-379 -340 -131 866 0
144 349 177 867 0
94 -121 -112 868 0
147 -24 227 869 0
-233 -75 -301 870 0
-216 489 -214 871 0
-228 -194 -191 872 0
-289 -366 149 873 0
475 -275 442 874 0
-447 -489 -121 875 0
-358 -464 -88 876 0
-499 -479 268 877 0
-163 152 140 878 0
221 490 480 879 0
93 432 -231 880 0
408 379 -298 881 0
-416 -387 108 882 0
-486 145 476 883 0
-454 299 156 884 0
-263 457 -25 885 0
133 379 -186 886 0
-213 262 -294 887 0
-308 120 18 888 0
-27 -222 -414 889 0
-487 -92 392 890 0
-241 -308 467 891 0
-465 -479 -295 892 0
334 -347 -318 893 0
-251 -31 -200 894 0
-195 142 240 895 0
-134 178 150 896 0
-337 98 460 897 0
-471 -254 450 898 0
-294 -211 -447 899 0
-432 -176 107 900 0
41 -301 -345 901 0
160 -319 -384 902 0
201 -102 -170 903 0
425 156 -55 904 0
88 -126 340 905 0
410 436 341 906 0
369 -459 -57 907 0
-232 -245 -112 908 0
39 -426 -428 909 0
294 180 55 910 0
367 57 -474 911 0
-329 376 353 912 0
103 405 -431 913 0
209 40 237 914 0
-390 -189 -349 915 0
413 -23 470 916 0
-219 -334 -24 917 0
61 405 -161 918 0
149 230 299 919 0
-375 -331 42 920 0
218 -138 185 921 0
327 8 305 922 0
-149 -113 422 923 0
159 -93 189 924 0
-384 -337 -74 925 0
-331 -118 315 926 0
250 -26 -170 927 0
-85 -479 491 928 0
-222 -304 249 929 0
4 -28 215 930 0
-274 -25 -417 931 0
-216 175 -381 932 0
-428 284 -25 933 0
-35 -273 -191 934 0
-74 28 250 935 0
425 123 119 936 0
240 -246 -28 937 0
168 68 160 938 0
-56 335 -449 939 0
401 -380 38 940 0
-158 -420 236 941 0
253 -437 222 942 0
-246 28 -387 943 0
154 441 -442 944 0
307 419 -288 945 0
-368 221 320 946 0
94 -423 -299 947 0
-351 337 27 948 0
268 -292 -68 949 0
41 350 -38 950 0
473 164 -245 951 0
-370 -441 110 952 0
-318 -245 413 953 0
-216 -299 90 954 0
-476 -394 -221 955 0
454 457 249 956 0
358 472 339 957 0
358 -247 430 958 0
296 -50 330 959 0
-24 257 -109 960 0
427 -454 -102 961 0
-368 -155 -192 962 0
398 417 -496 963 0
329 220 381 964 0
-92 -42 287 965 0
-256 233 -322 966 0
-14 218 -224 967 0
-449 395 -242 968 0
91 16 -225 969 0
208 451 204 970 0
-27 -69 88 971 0
-255 -217 271 972 0
-9 437 -104 973 0
167 222 -440 974 0
-457 -58 -272 975 0
-368 191 -441 976 0
453 2 -231 977 0
327 36 -280 978 0
110 -19 128 979 0
26 -385 478 980 0
362 -68 238 981 0
197 -186 346 982 0
-104 -484 141 983 0
191 -160 158 984 0
167 286 408 985 0
-284 275 -271 986 0
31 445 49 987 0
-371 316 -31 988 0
-229 -269 -1 989 0
220 9 -459 990 0
208 -299 16 991 0
-55 257 93 992 0
-465 -183 429 993 0
463 -384 72 994 0
143 -427 352 995 0
490 -367 483 996 0
382 376 474 997 0
-465 42 303 998 0
-5 -123 -177 999 0
-154 -299 197 1000 0
253 -22 -21 1001 0
-372 -106 -391 1002 0
-155 422 -96 1003 0
-325 -289 -327 1004 0
480 -469 -104 1005 0
-236 -277 442 1006 0
174 -407 157 1007 0
-305 -100 182 1008 0
-451 188 -132 1009 0
-417 -274 -287 1010 0
-393 443 477 1011 0
201 482 366 1012 0
-164 102 -36 1013 0
-349 249 201 1014 0
-13 334 -393 1015 0
121 346 -274 1016 0
397 -222 485 1017 0
92 144 -293 1018 0
380 -60 -169 1019 0
118 -383 394 1020 0
91 355 -191 1021 0
391 -213 64 1022 0
-254 273 -252 1023 0
498 156 -243 1024 0
228 -73 -190 1025 0
458 195 344 1026 0
-135 -428 431 1027 0
177 238 161 1028 0
-227 113 -309 1029 0
278 -288 -28 1030 0
-471 -175 -100 1031 0
225 465 -201 1032 0
-93 322 55 1033 0
413 472 -102 1034 0
-230 -499 473 1035 0
48 395 -79 1036 0
63 -175 -369 1037 0
421 10 -194 1038 0
3 -472 -139 1039 0
500 491 322 1040 0
-199 263 -450 1041 0
155 396 -363 1042 0
-345 -163 87 1043 0
409 -59 62 1044 0
-272 -98 72 1045 0
-64 -373 2 1046 0
422 -101 -69 1047 0
262 459 74 1048 0
-313 284 -62 1049 0
-442 -393 482 1050 0
234 343 172 1051 0
86 256 -273 1052 0
-365 209 -295 1053 0
203 -304 188 1054 0
129 -461 -79 1055 0
-37 342 -14 1056 0
-17 403 306 1057 0
-42 -109 292 1058 0
482 337 -35 1059 0
406 259 -300 1060 0
-224 465 375 1061 0
-235 -325 -2 1062 0
-13 249 -268 1063 0
113 -110 371 1064 0
-428 -337 -272 1065 0
-21 -76 -271 1066 0
-262 -180 -118 1067 0
196 269 -383 1068 0
-369 -480 -190 1069 0
-455 189 79 1070 0
460 -354 -131 1071 0
465 146 -314 1072 0
-50 391 -63 1073 0
-305 164 460 1074 0
-354 384 -432 1075 0
209 315 447 1076 0
414 -356 -123 1077 0
94 350 -273 1078 0
-242 78 -292 1079 0
-2 321 -405 1080 0
-24 286 458 1081 0
443 -318 272 1082 0
204 26 13 1083 0
203 199 489 1084 0
259 493 -89 1085 0
282 -454 161 1086 0
491 470 -179 1087 0
344 282 -10 1088 0
348 461 232 1089 0
92 350 261 1090 0
-482 216 130 1091 0
237 400 185 1092 0
253 28 -326 1093 0
-166 -409 6 1094 0
-52 -149 -398 1095 0
-412 131 246 1096 0
-403 -241 20 1097 0
-50 -243 -310 1098 0
-47 181 -97 1099 0
173 -146 103 1100 0
208 -395 -418 1101 0
59 -46 -185 1102 0
-140 62 295 1103 0
185 -262 475 1104 0
-330 487 410 1105 0
126 -99 182 1106 0
-207 303 248 1107 0
122 -124 -163 1108 0
142 -104 258 1109 0
-411 -370 119 1110 0
5 -87 441 1111 0
491 409 156 1112 0
279 -65 355 1113 0
-50 338 -205 1114 0
25 370 92 1115 0
-80 192 -48 1116 0
-122 -336 -437 1117 0
176 207 -318 1118 0
1 281 153 1119 0
321 139 -273 1120 0
-213 -424 295 1121 0
-307 128 494 1122 0
-118 2 120 1123 0
415 -453 245 1124 0
402 -283 351 1125 0
222 417 447 1126 0
142 53 6 1127 0
55 408 -362 1128 0
-281 -54 472 1129 0
136 105 -353 1130 0
-183 -428 -294 1131 0
255 474 -328 1132 0
-175 364 73 1133 0
82 238 176 1134 0
-396 391 -1 1135 0
174 118 -346 1136 0
-182 361 167 1137 0
353 408 270 1138 0
261 -435 -184 1139 0
-375 -113 -175 1140 0
-100 391 -237 1141 0
-285 48 -227 1142 0
-339 -410 -120 1143 0
248 -267 83 1144 0
486 441 15 1145 0
487 209 428 1146 0
349 366 -168 1147 0
-318 448 -269 1148 0
395 355 396 1149 0
-154 412 466 1150 0
180 35 490 1151 0
-355 219 -57 1152 0
-411 -166 123 1153 0
425 -460 381 1154 0
-88 -360 -73 1155 0
154 10 -258 1156 0
-162 495 -110 1157 0
64 -295 396 1158 0
219 -372 -176 1159 0
422 -452 379 1160 0
-306 348 376 1161 0
54 -90 406 1162 0
66 -388 -222 1163 0
-470 102 -415 1164 0
-121 147 54 1165 0
-248 -126 102 1166 0
-378 171 -454 1167 0
-12 312 417 1168 0
348 300 -94 1169 0
291 23 -428 1170 0
452 57 -108 1171 0
-29 480 460 1172 0
146 -394 464 1173 0
179 -375 -128 1174 0
-234 -281 -82 1175 0
-459 451 431 1176 0
-34 129 268 1177 0
44 -77 88 1178 0
-65 -125 161 1179 0
29 103 -208 1180 0
-487 -146 -177 1181 0
341 448 -271 1182 0
-406 186 94 1183 0
-110 482 183 1184 0
386 -494 -23 1185 0
-217 493 -106 1186 0
-157 323 -22 1187 0
-220 430 227 1188 0
-286 454 -468 1189 0
-345 -349 -182 1190 0
340 98 -385 1191 0
318 4 -408 1192 0
-278 139 165 1193 0
221 414 -115 1194 0
-175 432 487 1195 0
449 40 -491 1196 0
-152 154 -283 1197 0
-198 254 -472 1198 0
336 -327 350 1199 0
312 499 -190 1200 0
270 469 47 1201 0
251 223 454 1202 0
-80 -251 -443 1203 0
-135 59 34 1204 0
361 -340 184 1205 0
453 95 16 1206 0
263 -3 225 1207 0
280 -6 402 1208 0
161 -139 380 1209 0
169 322 -112 1210 0
338 -420 387 1211 0
284 -167 97 1212 0
-433 428 -270 1213 0
89 171 -275 1214 0
183 -80 -474 1215 0
413 -415 385 1216 0
162 -258 394 1217 0
-158 15 105 1218 0
7 405 5 1219 0
77 105 134 1220 0
230 468 400 1221 0
-320 -267 -297 1222 0
72 259 -372 1223 0
484 -389 81 1224 0
-363 -125 84 1225 0
-153 -135 -116 1226 0
-132 170 316 1227 0
120 446 -452 1228 0
-293 303 11 1229 0
-72 350 388 1230 0
365 203 -415 1231 0
-5 133 -340 1232 0
-270 405 114 1233 0
-325 -442 420 1234 0
-373 -82 412 1235 0
-312 -68 -355 1236 0
500 -115 499 1237 0
-162 -356 323 1238 0
-305 -169 -80 1239 0
160 -411 101 1240 0
487 176 213 1241 0
-42 361 -359 1242 0
-438 -280 -23 1243 0
235 -301 -138 1244 0
-236 -486 422 1245 0
317 103 235 1246 0
-264 -388 -241 1247 0
-412 297 -262 1248 0
71 -467 273 1249 0
-458 -397 -286 1250 0
-406 -273 225 1251 0
-155 215 431 1252 0
271 -419 266 1253 0
-320 -220 -61 1254 0
-3 -22 -233 1255 0
-5 293 -117 1256 0
-326 71 44 1257 0
369 160 -18 1258 0
-388 -37 233 1259 0
486 36 -398 1260 0
266 -356 -35 1261 0
-262 -24 -475 1262 0
313 -411 391 1263 0
-496 474 336 1264 0
-152 -426 -11 1265 0
-81 -372 -13 1266 0
-393 421 -499 1267 0
488 -493 289 1268 0
441 -451 -320 1269 0
-308 102 -240 1270 0
-386 -1 -318 1271 0
-22 411 -245 1272 0
-8 -460 28 1273 0
444 467 -348 1274 0
-256 413 422 1275 0
230 -337 -117 1276 0
-139 -188 -451 1277 0
-43 -197 -174 1278 0
-404 190 451 1279 0
31 469 -342 1280 0
-154 374 15 1281 0
-220 -214 -450 1282 0
-23 -105 174 1283 0
-130 175 -12 1284 0
-33 300 324 1285 0
-478 13 -353 1286 0
82 330 -423 1287 0
471 451 -135 1288 0
-168 -169 -438 1289 0
218 33 198 1290 0
40 290 205 1291 0
-357 -290 243 1292 0
-197 -228 467 1293 0
476 -186 -57 1294 0
355 382 -203 1295 0
453 -60 -110 1296 0
156 -202 -89 1297 0
-327 -456 338 1298 0
-14 158 -130 1299 0
-112 -128 -108 1300 0
-346 -4 -218 1301 0
-126 492 352 1302 0
-425 498 87 1303 0
180 475 67 1304 0
327 172 102 1305 0
-384 -472 -7 1306 0
-214 320 -260 1307 0
-85 116 -355 1308 0
158 -96 54 1309 0
-184 -168 -163 1310 0
491 -31 -444 1311 0
240 -343 -335 1312 0
191 428 171 1313 0
139 449 -459 1314 0
-354 397 -17 1315 0
426 -444 -443 1316 0
465 -268 -446 1317 0
494 137 461 1318 0
247 -231 133 1319 0
-414 486 456 1320 0
285 327 228 1321 0
-293 -213 438 1322 0
104 -453 -215 1323 0
-476 418 -433 1324 0
17 -176 316 1325 0
388 -217 393 1326 0
-41 -420 -198 1327 0
499 32 -492 1328 0
-32 157 -485 1329 0
186 -297 394 1330 0
459 -232 -180 1331 0
-119 -93 304 1332 0
-388 364 285 1333 0
-453 -426 -175 1334 0
-178 12 -349 1335 0
-433 -8 432 1336 0
327 47 306 1337 0
338 34 -312 1338 0
153 -413 -283 1339 0
360 212 349 1340 0
66 200 -69 1341 0
-202 27 -62 1342 0
-17 395 136 1343 0
-33 -483 241 1344 0
-360 -19 -459 1345 0
267 415 76 1346 0
365 228 -351 1347 0
-127 -290 -345 1348 0
-226 281 433 1349 0
311 417 405 1350 0
-92 432 -419 1351 0
-496 -27 317 1352 0
-356 429 -334 1353 0
-416 -135 -222 1354 0
163 -364 413 1355 0
63 -71 -234 1356 0
310 315 -412 1357 0
-373 -231 -287 1358 0
248 -281 -20 1359 0
-136 231 -21 1360 0
200 147 317 1361 0
-427 229 -348 1362 0
325 -272 180 1363 0
252 442 -100 1364 0
82 -56 449 1365 0
221 -357 -337 1366 0
-315 -182 196 1367 0
381 -218 486 1368 0
359 419 -136 1369 0
10 -425 -276 1370 0
206 -232 205 1371 0
-203 243 20 1372 0
-376 254 -244 1373 0
88 -476 413 1374 0
337 -264 -281 1375 0
-447 -487 -382 1376 0
-479 151 -33 1377 0
-39 -275 393 1378 0
14 -163 106 1379 0
-280 -345 -205 1380 0
-484 -411 -352 1381 0
259 -162 169 1382 0
369 296 -400 1383 0
-481 383 -464 1384 0
367 360 -53 1385 0
247 -419 136 1386 0
-498 -172 -183 1387 0
-278 -330 478 1388 0
-207 94 112 1389 0
-407 -199 -476 1390 0
-26 348 182 1391 0
-35 -194 51 1392 0
398 -417 94 1393 0
138 -252 -173 1394 0
-415 241 -132 1395 0
230 124 43 1396 0
-142 321 17 1397 0
-245 -159 -339 1398 0
-110 298 -326 1399 0
118 -71 157 1400 0
-189 53 455 1401 0
-158 278 40 1402 0
186 334 119 1403 0
-91 -324 -444 1404 0
-264 -248 -29 1405 0
-312 191 -468 1406 0
16 -13 492 1407 0
-49 -464 56 1408 0
433 -160 357 1409 0
60 -478 380 1410 0
422 307 -228 1411 0
282 375 165 1412 0
-367 318 -68 1413 0
115 -68 -201 1414 0
-100 -258 285 1415 0
102 302 -154 1416 0
-4 -354 196 1417 0
30 446 -65 1418 0
300 -387 -420 1419 0
408 70 242 1420 0
-421 -216 495 1421 0
146 433 -200 1422 0
-457 272 -91 1423 0
361 323 14 1424 0
-419 -461 212 1425 0
315 -268 -65 1426 0
341 20 -185 1427 0
-12 166 142 1428 0
-277 -126 10 1429 0
-174 5 -64 1430 0
313 54 369 1431 0
83 261 415 1432 0
-135 104 -182 1433 0
134 -87 -368 1434 0
15 -150 232 1435 0
-223 444 -37 1436 0
227 491 286 1437 0
3 442 104 1438 0
-469 419 -430 1439 0
181 -406 3 1440 0
-500 -274 -193 1441 0
222 -328 410 1442 0
382 189 -124 1443 0
220 146 -202 1444 0
415 446 -44 1445 0
-223 -50 140 1446 0
-237 -328 -232 1447 0
359 -225 -365 1448 0
308 149 -47 1449 0
-68 131 -28 1450 0
355 467 288 1451 0
-370 442 -141 1452 0
-81 -53 -110 1453 0
-359 90 -422 1454 0
-186 428 -31 1455 0
-11 -90 338 1456 0
-459 -306 136 1457 0
-253 179 -288 1458 0
-159 -413 -491 1459 0
-252 -131 -415 1460 0
157 -303 -82 1461 0
496 110 -366 1462 0
486 -314 352 1463 0
-495 403 -155 1464 0
86 272 64 1465 0
279 500 -183 1466 0
476 379 481 1467 0
-173 -28 -456 1468 0
-99 377 -242 1469 0
-459 -223 5 1470 0
77 120 -148 1471 0
389 479 238 1472 0
-299 -13 136 1473 0
-384 -251 -422 1474 0
-337 -85 357 1475 0
336 156 -265 1476 0
-290 111 -113 1477 0
-348 52 -337 1478 0
-360 285 215 1479 0
-203 405 157 1480 0
309 164 -410 1481 0
164 -64 -492 1482 0
-456 -98 -315 1483 0
349 202 -195 1484 0
373 -301 -362 1485 0
178 -152 151 1486 0
24 273 -476 1487 0
61 -176 328 1488 0
-312 293 338 1489 0
-41 -83 290 1490 0
206 -183 294 1491 0
69 158 -280 1492 0
-314 -258 -96 1493 0
-336 89 -377 1494 0
52 -366 443 1495 0
142 -359 339 1496 0
481 170 315 1497 0
392 397 117 1498 0
120 467 -408 1499 0
187 438 -321 1500 0
-92 -185 406 1501 0
-188 -230 303 1502 0
-238 357 -185 1503 0
179 241 -156 1504 0
-412 -499 -181 1505 0
87 41 1 1506 0
-181 129 -185 1507 0
-181 -22 -151 1508 0
165 329 332 1509 0
-330 -457 94 1510 0
-194 -9 315 1511 0
341 -350 41 1512 0
-448 440 180 1513 0
-273 422 -301 1514 0
85 -209 214 1515 0
471 50 249 1516 0
-281 155 -285 1517 0
-285 -284 185 1518 0
-489 455 52 1519 0
201 -307 -446 1520 0
44 -51 -62 1521 0
-388 -431 231 1522 0
-420 232 -247 1523 0
492 98 497 1524 0
168 238 -312 1525 0
-188 -393 339 1526 0
-382 -432 168 1527 0
83 -407 394 1528 0
132 -292 -153 1529 0
-251 170 438 1530 0
258 218 -129 1531 0
-153 -343 140 1532 0
381 -311 -275 1533 0
-290 469 -320 1534 0
-305 -243 -439 1535 0
199 439 87 1536 0
239 -298 -212 1537 0
-450 -29 440 1538 0
322 77 175 1539 0
-443 -380 486 1540 0
-440 -153 443 1541 0
-272 472 -21 1542 0
-32 489 -254 1543 0
-21 35 -146 1544 0
-277 -272 -477 1545 0
-159 417 -247 1546 0
-128 -280 399 1547 0
478 349 -213 1548 0
95 -283 354 1549 0
350 -140 500 1550 0
163 198 -61 1551 0
172 316 135 1552 0
237 -256 -421 1553 0
-59 -168 393 1554 0
-360 215 340 1555 0
-89 -163 247 1556 0
-447 145 -300 1557 0
-64 -193 416 1558 0
-101 474 367 1559 0
-258 476 34 1560 0
93 -340 -45 1561 0
249 82 107 1562 0
92 490 423 1563 0
-100 99 58 1564 0
-316 -116 -476 1565 0
36 -404 459 1566 0
319 358 287 1567 0
-164 -128 -87 1568 0
-201 -392 -363 1569 0
-262 432 442 1570 0
-71 -272 167 1571 0
-98 304 223 1572 0
-298 -247 27 1573 0
-32 -194 -106 1574 0
-303 -469 -129 1575 0
360 -176 -478 1576 0
-288 -456 470 1577 0
52 155 437 1578 0
177 496 449 1579 0
286 -348 -211 1580 0
446 8 500 1581 0
364 97 357 1582 0
475 45 486 1583 0
95 -45 308 1584 0
51 -227 372 1585 0
-221 -269 -172 1586 0
357 -254 -28 1587 0
353 463 -113 1588 0
-3 471 132 1589 0
22 416 -299 1590 0
118 -335 95 1591 0
1 78 28 1592 0
-198 -193 231 1593 0
378 239 499 1594 0
-283 -126 476 1595 0
125 -207 295 1596 0
-464 -438 184 1597 0
303 385 415 1598 0
-269 68 151 1599 0
-170 231 132 1600 0
469 25 -104 1601 0
250 -355 281 1602 0
427 -66 -180 1603 0
421 -247 -485 1604 0
-473 409 -275 1605 0
14 208 -263 1606 0
432 -13 320 1607 0
85 -210 -229 1608 0
124 485 257 1609 0
182 -223 -232 1610 0
239 52 -143 1611 0
-338 384 309 1612 0
356 263 176 1613 0
-286 276 -445 1614 0
-174 412 -90 1615 0
-2 67 345 1616 0
285 -425 -214 1617 0
-347 -492 187 1618 0
225 408 92 1619 0
-308 496 202 1620 0
-257 -66 411 1621 0
386 -322 385 1622 0
-474 -54 409 1623 0
-357 455 -160 1624 0
16 44 151 1625 0
-346 169 379 1626 0
-222 286 116 1627 0
160 -64 442 1628 0
-73 -75 291 1629 0
453 196 -111 1630 0
374 -393 265 1631 0
351 -231 145 1632 0
186 500 -24 1633 0
361 -44 159 1634 0
72 4 -407 1635 0
7 -426 184 1636 0
176 -142 -100 1637 0
253 -362 426 1638 0
418 87 229 1639 0
65 -191 284 1640 0
-37 -481 151 1641 0
-155 339 288 1642 0
-29 -148 7 1643 0
-10 -478 104 1644 0
215 -318 -403 1645 0
334 -452 42 1646 0
-29 -125 -445 1647 0
-358 298 -169 1648 0
-467 -314 -188 1649 0
115 -202 51 1650 0
354 -108 448 1651 0
-307 460 489 1652 0
-212 -282 -357 1653 0
-176 244 -256 1654 0
492 -82 -97 1655 0
-171 -146 -361 1656 0
184 101 -39 1657 0
342 59 160 1658 0
-326 76 460 1659 0
437 -334 343 1660 0
421 61 184 1661 0
328 -461 442 1662 0
247 -297 -54 1663 0
-23 406 126 1664 0
-329 447 -181 1665 0
374 -54 370 1666 0
-103 -150 19 1667 0
-36 171 223 1668 0
410 -436 -386 1669 0
1 -168 -421 1670 0
136 -468 146 1671 0
-308 -371 385 1672 0
352 -489 -143 1673 0
-349 433 481 1674 0
-165 380 -411 1675 0
-406 -426 -436 1676 0
-253 -35 430 1677 0
259 -281 -241 1678 0
-148 -318 489 1679 0
-267 355 -371 1680 0
118 -233 -200 1681 0
113 -464 -48 1682 0
2 -350 -493 1683 0
348 352 -68 1684 0
144 -461 198 1685 0
206 -231 -239 1686 0
47 24 -332 1687 0
-34 244 442 1688 0
-224 421 -474 1689 0
11 -470 419 1690 0
-410 312 414 1691 0
-247 479 437 1692 0
-93 -462 -64 1693 0
470 452 217 1694 0
-231 -481 -53 1695 0
-295 115 -324 1696 0
-477 -364 72 1697 0
-232 439 418 1698 0
-246 13 -52 1699 0
-135 373 -267 1700 0
308 -259 250 1701 0
-203 246 361 1702 0
114 -310 340 1703 0
-209 -99 201 1704 0
-211 393 245 1705 0
179 -447 -4 1706 0
441 -124 -128 1707 0
-215 255 272 1708 0
-67 305 -390 1709 0
-491 -393 -32 1710 0
-488 222 -202 1711 0
68 360 -239 1712 0
99 248 397 1713 0
-3 255 -411 1714 0
287 -162 215 1715 0
395 -420 388 1716 0
-111 -152 202 1717 0
-145 -226 -269 1718 0
491 406 -430 1719 0
280 -268 -354 1720 0
-225 -278 340 1721 0
383 443 325 1722 0
63 313 -465 1723 0
-260 191 -220 1724 0
432 -447 59 1725 0
-245 335 401 1726 0
26 450 -441 1727 0
-396 80 357 1728 0
-15 9 -319 1729 0
-418 -367 -427 1730 0
-263 -60 20 1731 0
382 197 271 1732 0
-369 309 -438 1733 0
-184 141 245 1734 0
-464 100 -322 1735 0
-492 451 450 1736 0
-497 -336 347 1737 0
418 354 -2 1738 0
427 333 -231 1739 0
201 50 59 1740 0
450 214 -215 1741 0
-246 -357 486 1742 0
235 65 -191 1743 0
51 92 -222 1744 0
458 -221 -474 1745 0
-410 -184 -34 1746 0
399 -477 91 1747 0
324 252 137 1748 0
-203 422 -161 1749 0
-282 319 499 1750 0
79 105 319 1751 0
122 -46 188 1752 0
332 5 -346 1753 0
497 -331 -263 1754 0
241 54 -321 1755 0
291 -458 108 1756 0
147 186 -62 1757 0
-175 108 78 1758 0
96 -347 46 1759 0
-387 -448 -163 1760 0
150 -96 186 1761 0
425 148 497 1762 0
474 287 -7 1763 0
-474 302 292 1764 0
113 396 301 1765 0
14 -220 246 1766 0
203 -273 -393 1767 0
-280 -427 273 1768 0
201 246 -394 1769 0
-48 190 -108 1770 0
73 89 366 1771 0
258 -82 411 1772 0
461 162 -32 1773 0
-54 -271 84 1774 0
-456 408 270 1775 0
407 -74 -207 1776 0
109 108 484 1777 0
-390 -406 -173 1778 0
71 470 -330 1779 0
370 -435 -482 1780 0
-233 452 -63 1781 0
-304 -329 95 1782 0
32 202 -244 1783 0
113 72 337 1784 0
-379 -137 408 1785 0
-329 125 -398 1786 0
-233 438 -63 1787 0
-108 -488 -21 1788 0
297 393 390 1789 0
438 -257 383 1790 0
493 309 -112 1791 0
-447 -236 75 1792 0
188 457 -64 1793 0
31 110 -34 1794 0
-30 -138 -428 1795 0
-130 213 -148 1796 0
51 -146 -339 1797 0
85 -205 -362 1798 0
-50 -162 373 1799 0
433 -74 400 1800 0
166 -356 -156 1801 0
179 61 -4 1802 0
458 -176 -73 1803 0
417 219 -18 1804 0
-374 293 294 1805 0
-120 400 231 1806 0
-51 -20 286 1807 0
-33 -484 432 1808 0
-202 303 -72 1809 0
-176 112 290 1810 0
-17 -355 51 1811 0
380 67 50 1812 0
-189 446 159 1813 0
214 -374 28 1814 0
256 179 -43 1815 0
-145 378 234 1816 0
370 -260 484 1817 0
-323 237 448 1818 0
-70 -252 356 1819 0
482 -93 139 1820 0
85 438 273 1821 0
5 216 -434 1822 0
316 -400 314 1823 0
-200 219 204 1824 0
-472 188 233 1825 0
414 397 166 1826 0
426 412 -366 1827 0
-448 -498 24 1828 0
273 -174 106 1829 0
30 -142 -33 1830 0
465 -248 85 1831 0
-350 -357 -50 1832 0
59 35 426 1833 0
86 -19 347 1834 0
-36 462 -464 1835 0
-164 -403 -384 1836 0
153 -3 -237 1837 0
-99 -343 -297 1838 0
-13 434 108 1839 0
481 56 482 1840 0
-356 -41 253 1841 0
-447 -355 345 1842 0
-280 -303 -259 1843 0
490 328 -460 1844 0
366 -421 -432 1845 0
35 -295 76 1846 0
43 -389 121 1847 0
-168 34 -498 1848 0
237 142 -430 1849 0
66 372 -294 1850 0
152 -250 -331 1851 0
-105 -49 -423 1852 0
-411 280 201 1853 0
-213 203 -102 1854 0
-268 7 -311 1855 0
-312 -99 246 1856 0
280 -336 -273 1857 0
-426 -172 -13 1858 0
-389 165 -325 1859 0
-119 212 324 1860 0
-47 -314 302 1861 0
180 218 189 1862 0
95 84 200 1863 0
-258 -473 -58 1864 0
485 300 -179 1865 0
-117 -158 439 1866 0
290 382 268 1867 0
-453 212 -173 1868 0
-477 63 220 1869 0
35 -328 -124 1870 0
-212 -193 -351 1871 0
-466 74 -429 1872 0
-166 -466 -169 1873 0
-247 -206 -475 1874 0
-209 43 -156 1875 0
330 292 334 1876 0
-169 -495 297 1877 0
-371 -190 -488 1878 0
-395 111 -309 1879 0
87 260 -58 1880 0
73 -204 -167 1881 0
409 58 422 1882 0
240 294 -203 1883 0
6 315 72 1884 0
-129 373 -71 1885 0
-118 -67 -358 1886 0
284 22 176 1887 0
48 -138 221 1888 0
-371 184 -330 1889 0
-158 5 -440 1890 0
-222 421 -305 1891 0
389 273 -228 1892 0
379 391 -338 1893 0
-152 -52 433 1894 0
-457 -194 -54 1895 0
452 8 394 1896 0
-425 407 -345 1897 0
-249 -349 375 1898 0
173 -51 362 1899 0
-352 342 396 1900 0
-380 -496 32 1901 0
-165 -388 -221 1902 0
110 -142 -160 1903 0
53 461 342 1904 0
389 315 -8 1905 0
237 29 -88 1906 0
461 361 -296 1907 0
-34 257 -114 1908 0
-249 -415 -413 1909 0
-125 -358 -127 1910 0
-493 -382 357 1911 0
95 441 377 1912 0
83 185 322 1913 0
-9 -115 -208 1914 0
-166 287 -12 1915 0
-9 147 -413 1916 0
-5 -103 -458 1917 0
434 -471 -369 1918 0
165 -312 -152 1919 0
340 -428 -482 1920 0
-352 -448 465 1921 0
-458 366 -6 1922 0
-291 -471 -251 1923 0
449 245 -119 1924 0
388 -275 37 1925 0
226 -375 272 1926 0
-175 291 -388 1927 0
-362 35 229 1928 0
160 -97 -6 1929 0
-117 356 -308 1930 0
-212 -185 418 1931 0
-37 180 145 1932 0
108 -181 303 1933 0
-141 358 -298 1934 0
217 -75 -176 1935 0
85 440 -110 1936 0
-141 427 376 1937 0
-380 -240 -206 1938 0
187 360 -339 1939 0
117 -345 -101 1940 0
-316 68 -368 1941 0
234 -300 184 1942 0
222 25 -202 1943 0
120 67 -141 1944 0
-473 -409 -111 1945 0
341 377 2 1946 0
-387 468 50 1947 0
61 -98 412 1948 0
250 15 -171 1949 0
154 95 377 1950 0
4 -479 151 1951 0
434 54 -221 1952 0
-5 258 -136 1953 0
-258 -498 -385 1954 0
202 -190 191 1955 0
22 394 -291 1956 0
42 455 412 1957 0
416 261 -444 1958 0
-388 310 -492 1959 0
-15 -309 -337 1960 0
34 -258 431 1961 0
237 480 -80 1962 0
-387 297 194 1963 0
138 -485 21 1964 0
-179 -17 299 1965 0
-40 -167 240 1966 0
-152 -289 -91 1967 0
309 -473 -173 1968 0
435 313 495 1969 0
-129 333 410 1970 0
-296 156 181 1971 0
297 476 -192 1972 0
-421 203 -21 1973 0
249 410 348 1974 0
196 265 -420 1975 0
238 -418 5 1976 0
-147 161 493 1977 0
-423 -172 -176 1978 0
486 -456 327 1979 0
351 -133 35 1980 0
-181 -296 140 1981 0
-134 -14 -40 1982 0
260 224 410 1983 0
-78 302 -399 1984 0
444 -489 -490 1985 0
317 -148 3 1986 0
117 -417 270 1987 0
258 -169 428 1988 0
424 -229 -400 1989 0
132 415 -209 1990 0
270 396 404 1991 0
-371 -274 -288 1992 0
-445 429 -83 1993 0
-144 -225 460 1994 0
363 -47 38 1995 0
-23 286 -327 1996 0
-294 -462 -12 1997 0
241 -226 25 1998 0
-196 -120 279 1999 0
-237 37 3 2000 0
45 -247 325 2001 0
213 70 269 2002 0
-35 8 213 2003 0
-366 54 -254 2004 0
37 -203 224 2005 0
412 81 -142 2006 0
4 -413 287 2007 0
-68 322 455 2008 0
-475 -115 131 2009 0
-244 492 -136 2010 0
-458 -75 -266 2011 0
463 73 -457 2012 0
418 -103 -490 2013 0
-147 32 -76 2014 0
-131 -263 171 2015 0
-85 -288 378 2016 0
475 396 434 2017 0
-282 211 487 2018 0
-125 -422 54 2019 0
246 290 -187 2020 0
97 -206 -337 2021 0
-220 314 -357 2022 0
454 392 161 2023 0
135 38 -305 2024 0
23 -440 168 2025 0
450 101 95 2026 0
148 -134 264 2027 0
346 315 -99 2028 0
-297 192 -255 2029 0
-101 418 -428 2030 0
-364 -308 -204 2031 0
76 -350 -345 2032 0
-500 358 -445 2033 0
-67 246 161 2034 0
402 -262 227 2035 0
311 82 -4 2036 0
-328 -104 -435 2037 0
418 -400 -327 2038 0
303 43 -76 2039 0
-433 469 -247 2040 0
-11 73 145 2041 0
381 407 -344 2042 0
90 149 483 2043 0
-144 -226 20 2044 0
-205 168 -407 2045 0
169 441 275 2046 0
442 261 -75 2047 0
-342 -103 75 2048 0
457 -345 -416 2049 0
-391 -339 89 2050 0
447 -466 -210 2051 0
-391 155 470 2052 0
-411 193 -243 2053 0
-178 -20 -201 2054 0
209 206 485 2055 0
319 339 485 2056 0
163 31 -249 2057 0
468 221 -447 2058 0
491 233 -69 2059 0
-283 -15 330 2060 0
447 478 434 2061 0
-298 -409 455 2062 0
186 -143 -341 2063 0
78 -292 -212 2064 0
492 -52 -175 2065 0
354 89 -253 2066 0
-419 -58 112 2067 0
-191 158 302 2068 0
-432 -298 366 2069 0
-30 -88 10 2070 0
279 372 187 2071 0
137 -495 -35 2072 0
47 -263 -212 2073 0
-484 -436 290 2074 0
-460 388 -235 2075 0
-247 399 -25 2076 0
469 -194 75 2077 0
-462 -304 -167 2078 0
-444 -142 324 2079 0
-438 261 -153 2080 0
77 -394 -23 2081 0
136 -289 -67 2082 0
227 160 244 2083 0
-142 155 -136 2084 0
-397 -130 476 2085 0
-152 209 148 2086 0
-65 166 -231 2087 0
-152 -14 -236 2088 0
222 306 15 2089 0
-358 -464 310 2090 0
83 116 -37 2091 0
-205 47 -70 2092 0
486 -399 -137 2093 0
-240 -374 -127 2094 0
317 492 -195 2095 0
-339 -392 -24 2096 0
-125 116 -486 2097 0
-321 -237 -404 2098 0
-202 159 78 2099 0
-43 -409 242 2100 0
-200 -13 -179 2101 0
-414 -121 -100 2102 0
-438 -83 386 2103 0
454 408 -289 2104 0
-99 76 -386 2105 0
-102 -397 -30 2106 0
-1 33 393 2107 0
-312 -93 -471 2108 0
-442 398 81 2109 0
-115 -295 -62 2110 0
-3 169 499 2111 0
274 417 -229 2112 0
-138 422 335 2113 0
-71 -345 47 2114 0
-59 257 -65 2115 0
-317 385 -384 2116 0
54 139 228 2117 0
197 325 -48 2118 0
-318 468 143 2119 0
-327 -283 -280 2120 0
346 -128 -211 2121 0
-455 -439 -301 2122 0
-35 -251 146 2123 0
-421 261 -6 2124 0
33 -32 336 2125 0
155 -416 -54 2126 0
213 306 289 2127 0
316 214 408 2128 0
243 -76 -359 2129 0
361 247 -250 2130 0
-479 -14 410 2131 0
368 -472 -23 2132 0
-493 153 -404 2133 0
204 45 212 2134 0
321 -376 -419 2135 0
326 369 362 2136 0
204 -283 61 2137 0
-41 229 202 2138 0
-266 445 44 2139 0
-492 289 -262 2140 0
-59 56 -459 2141 0
125 300 107 2142 0
58 -9 486 2143 0
184 -139 59 2144 0
-436 170 418 2145 0
60 340 155 2146 0
-476 52 172 2147 0
-340 307 121 2148 0
308 -113 240 2149 0
-49 -326 65 2150 0
-320 -397 -492 2151 0
-59 -31 -91 2152 0
-242 319 34 2153 0
400 67 -202 2154 0
367 -140 -237 2155 0
-125 -432 -437 2156 0
138 -229 -360 2157 0
105 31 225 2158 0
-322 487 144 2159 0
-232 410 -420 2160 0
188 45 -414 2161 0
-180 78 -70 2162 0
-37 -404 409 2163 0
88 -244 361 2164 0
-375 -2 -299 2165 0
127 191 -108 2166 0
191 275 -314 2167 0
240 -193 25 2168 0
-339 -393 401 2169 0
-476 43 -122 2170 0
358 388 229 2171 0
-344 139 -99 2172 0
254 -268 -257 2173 0
411 -327 57 2174 0
294 -149 169 2175 0
-485 -273 408 2176 0
490 -220 -284 2177 0
-74 494 -175 2178 0
-123 -158 119 2179 0
490 -447 88 2180 0
-379 351 -125 2181 0
-472 487 307 2182 0
478 15 138 2183 0
-94 -308 35 2184 0
-52 184 -451 2185 0
111 239 161 2186 0
-266 165 -20 2187 0
-387 278 187 2188 0
-382 -300 236 2189 0
85 448 83 2190 0
223 -96 -159 2191 0
-38 436 -13 2192 0
292 30 314 2193 0
-396 261 -84 2194 0
-424 -189 276 2195 0
-160 302 -245 2196 0
234 430 -48 2197 0
146 -166 481 2198 0
-238 341 81 2199 0
-492 -386 -463 2200 0
114 -336 266 2201 0
157 162 -332 2202 0
359 -490 151 2203 0
-475 -381 -422 2204 0
45 -150 307 2205 0
-295 -102 391 2206 0
-51 174 -442 2207 0
277 171 -213 2208 0
51 37 -2 2209 0
103 271 263 2210 0
-305 253 -269 2211 0
-494 237 -158 2212 0
-143 250 -353 2213 0
-490 163 -467 2214 0
432 -306 -57 2215 0
224 -382 291 2216 0
-479 157 66 2217 0
449 128 93 2218 0
450 77 187 2219 0
-234 23 237 2220 0
-148 -404 300 2221 0
166 491 -201 2222 0
-322 -54 -483 2223 0
85 -229 317 2224 0
273 335 126 2225 0
206 -442 -98 2226 0
214 42 -126 2227 0
-182 136 56 2228 0
263 -7 -300 2229 0
-169 440 -410 2230 0
-108 -26 169 2231 0
-400 -53 183 2232 0
-273 -278 243 2233 0
-328 -478 258 2234 0
458 103 291 2235 0
39 466 -208 2236 0
61 418 -115 2237 0
413 182 -284 2238 0
11 -366 123 2239 0
61 232 320 2240 0
-89 -43 21 2241 0
-61 -130 -281 2242 0
392 -237 -26 2243 0
136 -233 289 2244 0
-393 153 202 2245 0
321 -196 -330 2246 0
243 -356 -395 2247 0
-115 -114 462 2248 0
207 -475 -95 2249 0
-28 390 -378 2250 0
-181 -205 116 2251 0
-210 -500 -346 2252 0
-488 -69 391 2253 0
-82 270 -89 2254 0
-352 -101 -110 2255 0
-35 -78 290 2256 0
199 485 -161 2257 0
-351 277 -352 2258 0
299 244 -465 2259 0
-417 265 -323 2260 0
-220 139 248 2261 0
371 -106 413 2262 0
335 -178 -113 2263 0
50 167 117 2264 0
-472 -402 28 2265 0
388 -242 -82 2266 0
119 400 -142 2267 0
118 91 239 2268 0
-311 73 64 2269 0
-100 352 -376 2270 0
-148 124 6 2271 0
74 34 181 2272 0
-127 111 339 2273 0
-40 460 -256 2274 0
242 -28 -145 2275 0
-371 -461 -419 2276 0
-167 -390 -244 2277 0
335 26 239 2278 0
-44 135 -46 2279 0
404 487 -59 2280 0
47 259 303 2281 0
264 -224 -329 2282 0
498 -63 -233 2283 0
336 -424 -168 2284 0
293 -407 -90 2285 0
48 94 355 2286 0
297 -474 -170 2287 0
427 -409 -145 2288 0
342 -117 72 2289 0
-17 -173 -164 2290 0
213 -421 -360 2291 0
103 255 429 2292 0
-165 9 188 2293 0
-30 -330 -479 2294 0
-192 -198 437 2295 0
248 425 450 2296 0
-412 -47 82 2297 0
-405 260 255 2298 0
-405 -441 454 2299 0
499 -142 -126 2300 0
-86 418 -444 2301 0
88 229 -359 2302 0
469 278 -321 2303 0
-360 -11 338 2304 0
-289 -296 398 2305 0
230 173 91 2306 0
266 -77 375 2307 0
58 62 -282 2308 0
-69 266 177 2309 0
27 -389 206 2310 0
67 166 -426 2311 0
38 37 -302 2312 0
-496 -173 279 2313 0
-415 -265 307 2314 0
-111 -443 237 2315 0
-47 114 443 2316 0
107 229 465 2317 0
283 -332 9 2318 0
-23 -488 -422 2319 0
-284 -487 -468 2320 0
293 -309 55 2321 0
-171 282 55 2322 0
-422 131 366 2323 0
239 -4 60 2324 0
112 484 -194 2325 0
176 332 19 2326 0
-464 -494 119 2327 0
-243 87 -255 2328 0
-234 84 319 2329 0
-48 -325 -295 2330 0
-151 348 40 2331 0
241 -440 -454 2332 0
-434 86 -473 2333 0
-493 416 -120 2334 0
-490 175 201 2335 0
-389 369 -398 2336 0
118 -155 -230 2337 0
203 294 -30 2338 0
-450 -461 34 2339 0
-498 -335 171 2340 0
-325 237 -302 2341 0
198 -195 282 2342 0
289 283 240 2343 0
-383 -186 -312 2344 0
-451 -210 -22 2345 0
392 317 110 2346 0
296 -2 -239 2347 0
6 -322 258 2348 0
310 57 -125 2349 0
-28 -332 463 2350 0
-376 -56 297 2351 0
292 -225 144 2352 0
-4 422 -34 2353 0
-344 71 -492 2354 0
381 371 -378 2355 0
358 480 117 2356 0
-240 -61 -488 2357 0
-91 -346 -228 2358 0
298 438 117 2359 0
332 90 -147 2360 0
-245 -52 350 2361 0
-96 148 209 2362 0
202 -149 -47 2363 0
-446 -448 -404 2364 0
-103 -439 -317 2365 0
134 -145 89 2366 0
57 -491 -14 2367 0
266 417 47 2368 0
-363 -231 -234 2369 0
-324 1 -423 2370 0
-472 -217 280 2371 0
-370 75 442 2372 0
244 -238 -421 2373 0
-450 279 166 2374 0
469 -33 -229 2375 0
414 -184 264 2376 0
-63 -318 114 2377 0
-326 341 446 2378 0
-303 -360 162 2379 0
-349 101 436 2380 0
-44 -490 -305 2381 0
473 -316 -451 2382 0
-250 97 -385 2383 0
286 -351 -364 2384 0
108 -189 456 2385 0
437 464 -199 2386 0
-306 486 493 2387 0
439 -147 276 2388 0
395 -263 289 2389 0
-290 -34 -415 2390 0
-344 -500 -99 2391 0
224 366 158 2392 0
33 -229 -346 2393 0
138 -329 -498 2394 0
-256 121 350 2395 0
21 -370 -14 2396 0
302 29 -287 2397 0
-424 -450 -287 2398 0
250 -230 -365 2399 0
-498 362 -346 2400 0
-487 9 262 2401 0
-379 332 206 2402 0
148 -446 -349 2403 0
314 324 -62 2404 0
-440 -266 358 2405 0
-59 272 -265 2406 0
-346 25 430 2407 0
253 -133 175 2408 0
217 -335 -198 2409 0
361 -158 -91 2410 0
-127 -275 232 2411 0
-62 -105 -289 2412 0
281 -90 -57 2413 0
-341 -255 260 2414 0
126 119 404 2415 0
99 -474 -436 2416 0
-446 112 -419 2417 0
-285 459 -145 2418 0
105 -209 431 2419 0
435 127 -385 2420 0
-383 -250 271 2421 0
-379 465 69 2422 0
-377 -403 206 2423 0
-313 -246 332 2424 0
-328 172 168 2425 0
280 327 -186 2426 0
202 186 260 2427 0
-49 364 -293 2428 0
-351 -260 -67 2429 0
146 -202 56 2430 0
-175 65 -225 2431 0
90 -219 -379 2432 0
472 480 319 2433 0
302 -34 -332 2434 0
412 -359 -309 2435 0
-207 -8 -92 2436 0
124 238 -108 2437 0
348 420 37 2438 0
-140 146 41 2439 0
195 -413 6 2440 0
-256 30 -328 2441 0
-152 127 -234 2442 0
-221 97 331 2443 0
107 -308 -132 2444 0
103 222 121 2445 0
-395 360 -32 2446 0
-418 36 375 2447 0
494 46 -100 2448 0
-301 482 -138 2449 0
167 396 -343 2450 0
-279 -156 185 2451 0
-155 -65 347 2452 0
262 178 -8 2453 0
-488 -38 211 2454 0
-105 312 -54 2455 0
190 -89 469 2456 0
-403 163 93 2457 0
-4 93 -179 2458 0
58 -87 -421 2459 0
371 -195 153 2460 0
142 260 -240 2461 0
314 174 71 2462 0
406 246 -62 2463 0
-213 500 -167 2464 0
-245 -422 -496 2465 0
384 434 -408 2466 0
435 -405 273 2467 0
-171 141 -293 2468 0
184 451 -473 2469 0
-373 -296 -483 2470 0
5 410 179 2471 0
374 258 -357 2472 0
-167 1 -289 2473 0
-484 -208 430 2474 0
162 -115 274 2475 0
-349 175 -87 2476 0
116 -16 -322 2477 0
476 61 -179 2478 0
88 297 -117 2479 0
-136 -293 244 2480 0
12 487 368 2481 0
415 -46 168 2482 0
116 -199 -365 2483 0
-3 363 252 2484 0
-93 51 -272 2485 0
-208 -187 391 2486 0
-142 64 -417 2487 0
-453 403 -314 2488 0
341 -189 -200 2489 0
281 298 -400 2490 0
225 371 -191 2491 0
-375 -180 25 2492 0
270 456 137 2493 0
23 183 359 2494 0
297 230 -417 2495 0
-300 -431 279 2496 0
224 -277 187 2497 0
-76 -97 216 2498 0
-252 438 66 2499 0
49 337 292 2500 0
237 -47 -293 2501 0
-282 301 16 2502 0
307 -485 51 2503 0
-36 -99 204 2504 0
418 -208 -67 2505 0
413 47 -6 2506 0
-201 140 -162 2507 0
-209 67 32 2508 0
294 238 -352 2509 0
-423 -215 221 2510 0
357 415 -499 2511 0
447 -162 439 2512 0
-195 54 -73 2513 0
-381 432 -162 2514 0
51 286 -244 2515 0
-219 -335 -453 2516 0
349 482 -496 2517 0
-327 -342 219 2518 0
395 -334 66 2519 0
-346 -424 163 2520 0
38 247 -468 2521 0
-4 -423 -138 2522 0
497 291 -186 2523 0
460 301 -147 2524 0
188 -192 -109 2525 0
-42 -88 155 2526 0
449 424 226 2527 0
-368 -381 223 2528 0
341 382 29 2529 0
475 -370 -127 2530 0
-397 -13 -11 2531 0
-250 -414 187 2532 0
-432 -167 -288 2533 0
240 407 393 2534 0
-315 143 28 2535 0
303 -367 -416 2536 0
-67 -132 -126 2537 0
162 -343 39 2538 0
304 -132 -112 2539 0
4 119 26 2540 0
-108 135 66 2541 0
-28 -340 25 2542 0
-497 197 480 2543 0
-368 150 -61 2544 0
481 -123 397 2545 0
66 -372 182 2546 0
-294 -115 -261 2547 0
346 233 -210 2548 0
-310 -165 -146 2549 0
-330 401 236 2550 0
-38 -423 -227 2551 0
399 -494 317 2552 0
-49 -192 18 2553 0
-319 273 -291 2554 0
-359 295 11 2555 0
-372 343 122 2556 0
-197 250 323 2557 0
185 -498 303 2558 0
-402 -345 452 2559 0
-365 -77 424 2560 0
379 -278 -448 2561 0
-82 500 -221 2562 0
-243 -495 -370 2563 0
-305 -334 454 2564 0
-56 405 -358 2565 0
-493 -290 67 2566 0
405 451 -24 2567 0
-246 349 -154 2568 0
-288 390 -273 2569 0
-474 224 451 2570 0
-464 157 -42 2571 0
-290 408 111 2572 0
141 -325 308 2573 0
310 -126 465 2574 0
362 -462 -453 2575 0
385 -483 345 2576 0
-407 153 487 2577 0
-196 395 -25 2578 0
48 135 -479 2579 0
-138 -450 -376 2580 0
101 -147 -249 2581 0
-440 -36 324 2582 0
1 -460 472 2583 0
-348 213 40 2584 0
-223 -98 -5 2585 0
387 -195 6 2586 0
391 -390 40 2587 0
223 254 -134 2588 0
-158 403 433 2589 0
-317 -374 115 2590 0
231 -118 358 2591 0
-115 -330 -287 2592 0
75 -108 -49 2593 0
-431 -456 129 2594 0
-497 -398 335 2595 0
265 370 -25 2596 0
-306 -300 121 2597 0
271 -377 -331 2598 0
167 -243 -440 2599 0
475 286 -469 2600 0
72 -413 177 2601 0
414 -136 281 2602 0
494 263 -287 2603 0
-201 -229 -450 2604 0
-374 375 497 2605 0
202 -4 -33 2606 0
-460 459 293 2607 0
-421 -30 -55 2608 0
-142 290 -412 2609 0
-175 75 416 2610 0
374 34 491 2611 0
-162 -291 -187 2612 0
54 -388 249 2613 0
-373 -464 249 2614 0
62 -50 176 2615 0
-248 310 -320 2616 0
45 -188 17 2617 0
-53 -172 193 2618 0
357 283 4 2619 0
284 -272 359 2620 0
81 -143 -491 2621 0
-93 12 465 2622 0
196 -32 274 2623 0
-165 -141 -113 2624 0
-113 -253 462 2625 0
370 -500 100 2626 0
-29 -57 -236 2627 0
74 307 -13 2628 0
-68 -124 -295 2629 0
-462 227 320 2630 0
-44 78 28 2631 0
202 16 181 2632 0
-80 177 71 2633 0
-19 471 179 2634 0
-227 -138 411 2635 0
-119 382 -153 2636 0
123 -415 425 2637 0
-428 152 291 2638 0
-466 320 84 2639 0
379 89 -98 2640 0
-1 -461 -480 2641 0
395 158 -301 2642 0
-16 -13 114 2643 0
-61 413 379 2644 0
64 -401 -52 2645 0
243 -170 -152 2646 0
341 173 179 2647 0
438 -315 -281 2648 0
-327 -235 333 2649 0
-289 -191 307 2650 0
