p cnf 2650 2150
-38 439 -76 501 0
300 -462 -399 502 0
148 75 357 503 0
241 83 -347 504 0
-369 10 204 505 0
-251 497 182 506 0
-245 -320 -419 507 0
-28 -453 216 508 0
176 40 108 509 0
-211 188 477 510 0
366 359 -221 511 0
194 -119 -9 512 0
405 213 348 513 0
54 -479 -324 514 0
347 493 -133 515 0
2 -94 295 516 0
253 193 119 517 0
-484 -308 -100 518 0
490 -384 337 519 0
-453 -85 -345 520 0
134 -191 347 521 0
-429 -251 -388 522 0
242 -178 -483 523 0
6 9 185 524 0
326 480 -36 525 0
108 -40 -39 526 0
-408 110 329 527 0
14 439 385 528 0
182 -250 126 529 0
398 453 268 530 0
206 380 366 531 0
7 -431 -215 532 0
-253 46 377 533 0
297 -443 -491 534 0
131 168 -500 535 0
-293 -165 -394 536 0
-310 -143 -391 537 0
283 -38 254 538 0
373 371 294 539 0
-452 -427 -488 540 0
-249 -299 -273 541 0
405 -358 -391 542 0
-231 482 154 543 0
463 198 277 544 0
466 -7 190 545 0
-58 160 -454 546 0
351 -141 255 547 0
436 -195 -208 548 0
-460 -29 -424 549 0
-453 86 -35 550 0
-248 -148 -72 551 0
188 -332 -151 552 0
353 431 -195 553 0
303 -265 -396 554 0
-257 -150 -186 555 0
-76 432 -170 556 0
491 53 -224 557 0
434 -137 18 558 0
498 -101 -448 559 0
261 -243 -472 560 0
229 -77 188 561 0
-101 -82 -115 562 0
-463 59 -111 563 0
162 -305 -268 564 0
-111 -436 192 565 0
-252 146 -397 566 0
-90 321 -496 567 0
-416 149 465 568 0
248 225 36 569 0
-116 50 -126 570 0
-158 -406 -268 571 0
-47 -433 294 572 0
-435 -227 162 573 0
390 486 -380 574 0
-377 314 356 575 0
56 471 159 576 0
254 -218 -308 577 0
-411 -8 -352 578 0
480 119 -159 579 0
-412 -365 -424 580 0
-135 392 104 581 0
277 -138 248 582 0
11 -299 490 583 0
387 437 371 584 0
-40 393 459 585 0
-438 319 -497 586 0
-245 138 185 587 0
-70 -484 298 588 0
260 313 -449 589 0
229 108 -178 590 0
-311 -307 187 591 0
267 -438 207 592 0
-391 -416 -2 593 0
-29 -113 -231 594 0
-81 385 375 595 0
-293 -106 -127 596 0
302 121 10 597 0
-307 69 -400 598 0
-4 -367 -287 599 0
464 487 -371 600 0
-327 -414 207 601 0
389 -356 51 602 0
-114 -117 480 603 0
390 194 -166 604 0
182 -497 82 605 0
322 449 330 606 0
-152 -64 186 607 0
-77 371 142 608 0
-296 188 -489 609 0
143 308 -328 610 0
-273 -160 -435 611 0
-418 73 -211 612 0
360 335 -144 613 0
-147 494 -93 614 0
-448 -400 15 615 0
-412 -300 187 616 0
-243 -413 207 617 0
-185 203 42 618 0
474 205 128 619 0
-393 -480 111 620 0
-208 46 22 621 0
-373 299 -455 622 0
290 -244 32 623 0
426 496 316 624 0
250 -390 81 625 0
372 -190 76 626 0
116 68 496 627 0
-271 442 -222 628 0
96 -200 145 629 0
-385 254 301 630 0
63 131 97 631 0
322 173 -105 632 0
397 -201 356 633 0
-295 254 430 634 0
-454 -18 -140 635 0
-434 -34 356 636 0
470 157 -309 637 0
-388 -419 322 638 0
458 -69 184 639 0
-18 10 -60 640 0
21 -234 51 641 0
496 -379 209 642 0
-36 30 -446 643 0
364 180 -140 644 0
354 -72 -172 645 0
158 358 308 646 0
-379 422 -100 647 0
-338 -267 390 648 0
-358 -494 -77 649 0
89 62 -290 650 0
50 369 -39 651 0
-70 446 246 652 0
-18 -370 -465 653 0
431 -61 402 654 0
-48 -246 -254 655 0
365 -390 -237 656 0
110 212 432 657 0
-1 -212 299 658 0
-386 -340 374 659 0
485 -287 -232 660 0
-56 -357 -137 661 0
-160 466 -163 662 0
378 -251 305 663 0
157 -492 -161 664 0
213 367 201 665 0
139 -375 467 666 0
357 -461 243 667 0
-398 432 -99 668 0
-110 -255 -134 669 0
-225 402 359 670 0
-85 -249 -159 671 0
-78 -230 30 672 0
293 128 191 673 0
387 218 118 674 0
277 445 90 675 0
-189 -465 -343 676 0
-62 -53 -320 677 0
-48 124 -434 678 0
465 469 -27 679 0
292 225 77 680 0
289 -138 90 681 0
465 376 -42 682 0
142 279 -370 683 0
37 329 -241 684 0
-47 307 320 685 0
-353 234 304 686 0
-478 157 82 687 0
-443 -500 247 688 0
142 181 170 689 0
-492 -437 -482 690 0
-443 345 390 691 0
-262 205 -286 692 0
-238 -194 -215 693 0
-197 500 80 694 0
282 73 -234 695 0
269 46 33 696 0
8 114 500 697 0
-494 -223 486 698 0
-323 299 -171 699 0
-325 -494 91 700 0
-117 -121 -262 701 0
-185 392 -202 702 0
493 449 -84 703 0
-120 396 -302 704 0
205 -26 477 705 0
145 209 40 706 0
-372 87 68 707 0
-234 -52 177 708 0
453 -484 413 709 0
-261 361 36 710 0
-398 -242 284 711 0
-378 -45 -465 712 0
-86 64 -256 713 0
-324 -216 -327 714 0
-486 414 -465 715 0
-270 -88 -207 716 0
-347 408 270 717 0
-334 -38 50 718 0
-317 256 -245 719 0
-356 -486 -84 720 0
-496 426 -494 721 0
-61 69 299 722 0
374 -328 -3 723 0
96 -30 491 724 0
-289 -206 -496 725 0
315 -196 401 726 0
30 -196 392 727 0
-410 494 8 728 0
-246 -438 -323 729 0
-371 -415 -440 730 0
-447 -471 335 731 0
-320 -345 -122 732 0
-483 318 -132 733 0
-461 -40 238 734 0
-91 445 -472 735 0
-7 -229 -164 736 0
286 -476 79 737 0
165 -231 225 738 0
-375 63 159 739 0
-468 -174 -258 740 0
496 -344 90 741 0
174 -94 -8 742 0
438 -422 -70 743 0
231 -123 386 744 0
8 -414 49 745 0
300 75 -253 746 0
264 -432 -473 747 0
-163 -497 -490 748 0
-361 231 -209 749 0
-389 175 -308 750 0
110 183 103 751 0
-461 33 -295 752 0
117 -88 194 753 0
278 -187 436 754 0
189 -94 496 755 0
330 -438 33 756 0
81 -238 -71 757 0
-367 -127 -244 758 0
-184 -27 202 759 0
104 -396 -64 760 0
-35 -429 352 761 0
437 198 262 762 0
356 -423 -179 763 0
255 7 134 764 0
473 371 425 765 0
-101 16 -332 766 0
-364 263 -402 767 0
-370 35 -309 768 0
396 259 210 769 0
-306 318 -162 770 0
-375 -465 336 771 0
350 50 -181 772 0
241 -477 40 773 0
-463 -10 -222 774 0
-398 -454 414 775 0
183 368 428 776 0
189 -174 385 777 0
35 -92 -162 778 0
-396 -45 -211 779 0
-95 -167 398 780 0
126 -64 -93 781 0
-256 232 -415 782 0
-69 -310 -220 783 0
-392 129 149 784 0
-384 133 -405 785 0
-436 -185 -221 786 0
-258 -362 -346 787 0
-293 -369 -69 788 0
435 444 -313 789 0
-220 457 283 790 0
338 113 -321 791 0
305 -157 -275 792 0
-439 -279 305 793 0
-170 -350 -415 794 0
-161 -404 -319 795 0
211 51 -89 796 0
89 35 450 797 0
480 56 147 798 0
75 -100 -325 799 0
-161 -324 -220 800 0
321 -43 20 801 0
285 455 -383 802 0
206 113 238 803 0
429 -122 409 804 0
-190 -69 209 805 0
-439 139 77 806 0
-64 100 172 807 0
-79 -315 -95 808 0
160 -82 165 809 0
-488 -63 -147 810 0
385 346 -462 811 0
180 378 83 812 0
79 -313 130 813 0
-229 -193 39 814 0
-432 465 -318 815 0
-105 8 247 816 0
248 161 -268 817 0
-97 195 -24 818 0
-191 1 329 819 0
-225 -409 -323 820 0
-390 396 -168 821 0
-207 309 -441 822 0
-467 259 494 823 0
-427 298 200 824 0
107 -294 -117 825 0
-102 -298 22 826 0
-407 -450 7 827 0
356 -456 122 828 0
-278 236 468 829 0
-225 -472 -99 830 0
-340 117 -85 831 0
204 406 431 832 0
219 -164 -82 833 0
-238 88 257 834 0
59 -47 -77 835 0
-499 154 189 836 0
-470 -63 -435 837 0
-261 -442 -258 838 0
19 338 -208 839 0
403 -79 -236 840 0
-349 -470 -434 841 0
9 356 50 842 0
93 325 108 843 0
399 296 192 844 0
-330 -353 232 845 0
-190 -318 -38 846 0
-286 -336 58 847 0
-53 169 353 848 0
-369 -218 177 849 0
-217 -371 136 850 0
94 202 -355 851 0
151 235 160 852 0
108 101 -425 853 0
-193 -246 214 854 0
-25 221 -407 855 0
104 -106 -346 856 0
-177 243 -257 857 0
-477 -28 -395 858 0
411 -187 -94 859 0
-246 -318 415 860 0
375 -155 -319 861 0
-155 -242 -44 862 0
297 -61 74 863 0
-423 241 434 864 0
-222 -204 -499 865 0
3 -334 -496 866 0
176 -332 87 867 0
-485 223 -43 868 0
122 -174 -397 869 0
443 296 -60 870 0
56 -35 300 871 0
78 335 286 872 0
247 -196 37 873 0
-291 -242 143 874 0
-224 -129 331 875 0
351 74 396 876 0
301 -343 -421 877 0
405 403 59 878 0
-465 -174 309 879 0
-418 -462 479 880 0
184 333 256 881 0
-196 112 -273 882 0
-133 73 -206 883 0
231 187 -237 884 0
444 -116 193 885 0
-265 51 482 886 0
11 -137 453 887 0
-280 144 -347 888 0
-273 -61 -380 889 0
11 -183 55 890 0
-107 -367 -285 891 0
409 -321 70 892 0
483 -447 437 893 0
-457 -77 447 894 0
-281 -25 182 895 0
313 154 163 896 0
-58 79 -30 897 0
500 -411 354 898 0
131 77 -186 899 0
395 110 -487 900 0
-138 114 -93 901 0
-178 26 -76 902 0
286 -75 -211 903 0
16 229 -314 904 0
-225 -131 -279 905 0
-95 375 -8 906 0
6 -3 -488 907 0
-418 -224 -313 908 0
-138 -232 -151 909 0
125 -55 374 910 0
-195 -481 210 911 0
-8 21 482 912 0
-149 396 -139 913 0
-164 58 -274 914 0
232 -214 -189 915 0
305 -373 -449 916 0
106 332 -93 917 0
441 -76 -148 918 0
-88 302 277 919 0
355 -260 -233 920 0
396 -412 153 921 0
469 -195 364 922 0
-388 -202 -450 923 0
-249 454 -79 924 0
253 -111 -5 925 0
10 72 -249 926 0
203 -36 -480 927 0
-200 -223 310 928 0
-71 -139 23 929 0
-220 256 -459 930 0
-212 -46 -211 931 0
-368 -81 -21 932 0
383 375 -463 933 0
-331 449 -64 934 0
-352 -120 -285 935 0
398 -251 -445 936 0
-119 -132 491 937 0
234 5 -250 938 0
186 467 80 939 0
-487 -25 480 940 0
-76 484 -43 941 0
-237 -378 -380 942 0
59 -399 -404 943 0
74 436 -321 944 0
59 21 -339 945 0
286 441 90 946 0
223 492 16 947 0
56 68 70 948 0
-45 -101 235 949 0
-181 -42 326 950 0
-355 98 85 951 0
243 230 171 952 0
386 383 -481 953 0
61 -150 -478 954 0
-45 239 -277 955 0
346 215 -48 956 0
353 439 -116 957 0
-435 -415 -77 958 0
-141 148 151 959 0
46 442 -158 960 0
-445 -414 -398 961 0
-258 264 -298 962 0
11 171 156 963 0
493 -61 -393 964 0
85 407 -87 965 0
148 35 195 966 0
-75 46 479 967 0
-210 -133 126 968 0
-441 219 208 969 0
336 274 481 970 0
-322 -40 252 971 0
427 -166 -200 972 0
-183 52 239 973 0
59 -189 446 974 0
309 -327 -420 975 0
-265 -401 31 976 0
-339 365 334 977 0
109 403 -152 978 0
160 -315 -106 979 0
126 326 30 980 0
225 354 346 981 0
-238 446 -157 982 0
-164 -31 300 983 0
145 8 -216 984 0
37 -459 -123 985 0
34 -11 -181 986 0
-155 496 307 987 0
213 74 -468 988 0
-392 -466 258 989 0
228 383 -275 990 0
429 13 69 991 0
479 225 -68 992 0
301 -117 382 993 0
-468 -5 -49 994 0
484 121 -417 995 0
-486 -404 -3 996 0
-125 -93 -99 997 0
356 -391 175 998 0
75 206 365 999 0
-328 -447 -32 1000 0
459 -42 225 1001 0
-467 360 215 1002 0
-232 6 248 1003 0
-174 274 96 1004 0
-343 253 -380 1005 0
-446 -184 241 1006 0
468 -325 352 1007 0
-368 112 -10 1008 0
-33 -230 -348 1009 0
-378 -227 363 1010 0
241 135 -252 1011 0
-276 328 83 1012 0
182 302 59 1013 0
-20 -76 -238 1014 0
184 -276 420 1015 0
48 -270 170 1016 0
6 277 -20 1017 0
1 391 -49 1018 0
122 -139 442 1019 0
499 -249 232 1020 0
-244 454 -164 1021 0
-454 -466 156 1022 0
341 76 19 1023 0
-183 -69 -169 1024 0
-386 -272 91 1025 0
262 102 -440 1026 0
308 -190 -475 1027 0
-183 -446 -263 1028 0
-333 15 -201 1029 0
355 442 44 1030 0
-84 368 -293 1031 0
-445 -176 163 1032 0
-377 -232 310 1033 0
11 -22 -367 1034 0
-92 -175 198 1035 0
272 -36 215 1036 0
263 -222 -494 1037 0
141 455 -83 1038 0
-375 321 -12 1039 0
-322 491 -134 1040 0
80 -188 -45 1041 0
488 -453 77 1042 0
-243 237 -53 1043 0
-35 -74 -26 1044 0
196 406 -114 1045 0
450 -180 405 1046 0
194 -57 -203 1047 0
-29 -387 461 1048 0
-346 276 22 1049 0
-82 -302 -155 1050 0
366 55 486 1051 0
-486 -206 279 1052 0
-346 325 -304 1053 0
-141 353 65 1054 0
346 -149 495 1055 0
318 -38 -100 1056 0
-414 332 313 1057 0
-310 -355 68 1058 0
307 421 -325 1059 0
144 -462 -375 1060 0
-413 395 -206 1061 0
406 -151 -141 1062 0
-119 -189 483 1063 0
92 10 7 1064 0
-463 -63 -70 1065 0
125 262 -327 1066 0
-381 424 -136 1067 0
-493 -45 309 1068 0
444 180 -278 1069 0
224 -300 -483 1070 0
-55 195 267 1071 0
420 -391 -367 1072 0
353 355 -295 1073 0
-424 -369 28 1074 0
467 -251 99 1075 0
21 -28 73 1076 0
-50 -425 306 1077 0
-145 323 -320 1078 0
-426 351 -491 1079 0
-318 -498 -463 1080 0
116 -255 -269 1081 0
-92 -342 441 1082 0
-253 -10 -488 1083 0
-339 -116 -13 1084 0
420 121 469 1085 0
328 -94 21 1086 0
7 480 -95 1087 0
69 -359 437 1088 0
-174 156 241 1089 0
375 -275 421 1090 0
-227 -479 -465 1091 0
94 107 431 1092 0
247 380 246 1093 0
-380 245 -389 1094 0
-47 123 -84 1095 0
-9 -458 62 1096 0
180 -307 -478 1097 0
425 -189 -37 1098 0
-376 -406 334 1099 0
288 342 -323 1100 0
-145 -348 -104 1101 0
448 45 -376 1102 0
424 -445 450 1103 0
-423 -62 -123 1104 0
77 261 144 1105 0
-229 479 -129 1106 0
-438 -195 416 1107 0
217 -494 398 1108 0
-4 -494 -173 1109 0
-322 210 -126 1110 0
-171 -394 -214 1111 0
-224 243 268 1112 0
39 -449 -134 1113 0
-416 -326 155 1114 0
-451 331 -148 1115 0
316 -288 264 1116 0
370 457 -140 1117 0
-126 288 196 1118 0
460 440 -10 1119 0
-273 162 216 1120 0
258 -152 -213 1121 0
224 148 -263 1122 0
73 183 204 1123 0
-426 -230 -242 1124 0
-276 160 222 1125 0
-229 -355 -231 1126 0
458 -246 -285 1127 0
209 216 152 1128 0
451 -46 448 1129 0
160 329 -323 1130 0
-72 395 367 1131 0
105 313 61 1132 0
-35 165 403 1133 0
-236 172 -315 1134 0
-5 284 -16 1135 0
427 -168 -371 1136 0
91 411 -273 1137 0
-75 65 -72 1138 0
369 4 -457 1139 0
-75 252 181 1140 0
166 -464 -353 1141 0
409 187 495 1142 0
-127 -26 23 1143 0
242 374 354 1144 0
166 -336 228 1145 0
-489 108 223 1146 0
-325 239 -168 1147 0
-189 21 52 1148 0
-448 -134 258 1149 0
331 206 219 1150 0
-228 282 -306 1151 0
-426 494 82 1152 0
-316 75 95 1153 0
314 -496 449 1154 0
62 -357 -54 1155 0
190 146 -498 1156 0
138 -230 255 1157 0
-371 384 157 1158 0
-194 -121 21 1159 0
360 -435 156 1160 0
-248 -142 93 1161 0
266 164 422 1162 0
155 -294 392 1163 0
468 -327 -151 1164 0
120 43 147 1165 0
68 -432 -370 1166 0
-230 171 -336 1167 0
301 -314 88 1168 0
-375 37 -50 1169 0
284 -393 345 1170 0
-334 -352 433 1171 0
-85 -371 329 1172 0
-68 -6 390 1173 0
30 48 -46 1174 0
456 -17 324 1175 0
8 -134 -88 1176 0
293 -390 473 1177 0
465 286 -335 1178 0
-363 433 153 1179 0
-207 -203 193 1180 0
333 370 -186 1181 0
496 -460 139 1182 0
65 -324 -141 1183 0
-164 -417 44 1184 0
185 407 112 1185 0
-363 -60 -194 1186 0
-236 98 -212 1187 0
408 -259 286 1188 0
-327 -465 190 1189 0
305 -216 -180 1190 0
106 -427 77 1191 0
79 -294 252 1192 0
-44 14 -16 1193 0
405 22 25 1194 0
-23 -169 -134 1195 0
-235 -428 54 1196 0
181 448 -213 1197 0
-442 -366 398 1198 0
443 69 -143 1199 0
-314 -417 121 1200 0
433 -207 112 1201 0
-273 -463 -358 1202 0
493 -106 407 1203 0
99 -209 183 1204 0
-45 -267 242 1205 0
-201 58 385 1206 0
-326 12 425 1207 0
380 38 460 1208 0
-206 62 -336 1209 0
-62 -488 -371 1210 0
-404 -186 -382 1211 0
164 -393 -334 1212 0
153 -78 -489 1213 0
-311 -270 -158 1214 0
-389 -360 32 1215 0
-492 -387 -257 1216 0
-470 -413 -176 1217 0
-233 -149 177 1218 0
497 -479 24 1219 0
-427 343 441 1220 0
349 -185 -175 1221 0
-290 -231 -368 1222 0
-166 -419 447 1223 0
-137 146 -488 1224 0
113 467 -219 1225 0
182 427 129 1226 0
-21 32 -342 1227 0
175 -391 -223 1228 0
229 311 -107 1229 0
483 -193 113 1230 0
-438 50 304 1231 0
159 282 115 1232 0
-223 -216 -482 1233 0
-444 259 -134 1234 0
-34 -409 111 1235 0
-475 -174 -278 1236 0
-264 -446 415 1237 0
-418 -114 -169 1238 0
235 109 94 1239 0
-312 468 -331 1240 0
243 -397 67 1241 0
478 -310 136 1242 0
-387 385 -247 1243 0
93 -341 264 1244 0
210 299 135 1245 0
-185 18 -451 1246 0
-224 87 14 1247 0
156 114 254 1248 0
-263 425 -480 1249 0
81 362 -386 1250 0
-372 -315 192 1251 0
-221 284 -304 1252 0
-434 -209 -314 1253 0
463 175 -256 1254 0
-344 -51 124 1255 0
425 -342 -226 1256 0
-24 -426 482 1257 0
93 -99 354 1258 0
167 62 133 1259 0
-321 -350 330 1260 0
291 37 -345 1261 0
321 -22 3 1262 0
51 338 333 1263 0
122 -292 -94 1264 0
-152 7 323 1265 0
44 298 497 1266 0
446 250 -253 1267 0
498 -386 30 1268 0
-373 -278 344 1269 0
184 239 -465 1270 0
154 -295 235 1271 0
-490 200 277 1272 0
-356 -164 311 1273 0
-157 264 98 1274 0
-207 -198 -102 1275 0
-297 360 400 1276 0
377 -208 98 1277 0
-284 194 183 1278 0
-6 -243 413 1279 0
-345 -49 -16 1280 0
-238 441 150 1281 0
-24 315 331 1282 0
-334 278 423 1283 0
-175 11 -90 1284 0
419 -311 -283 1285 0
362 -51 -11 1286 0
129 -223 -327 1287 0
-19 270 266 1288 0
167 -405 179 1289 0
165 -430 -361 1290 0
23 225 405 1291 0
-96 -361 -294 1292 0
-471 -89 75 1293 0
-210 167 394 1294 0
94 442 18 1295 0
299 21 22 1296 0
81 455 -401 1297 0
-155 462 208 1298 0
154 347 333 1299 0
-154 194 144 1300 0
-28 -143 261 1301 0
-266 285 -222 1302 0
-456 209 -303 1303 0
49 282 445 1304 0
227 306 -166 1305 0
183 241 -103 1306 0
-238 -104 -319 1307 0
-304 223 -35 1308 0
-287 -327 -257 1309 0
458 -371 -337 1310 0
403 -131 -389 1311 0
-173 476 260 1312 0
290 25 -416 1313 0
-415 167 57 1314 0
-356 255 -136 1315 0
-184 235 -3 1316 0
201 77 -454 1317 0
233 -193 132 1318 0
415 457 -345 1319 0
-267 -14 -221 1320 0
-146 123 391 1321 0
278 451 -212 1322 0
279 -157 -452 1323 0
-406 -286 471 1324 0
-369 -211 73 1325 0
-222 -132 -346 1326 0
252 27 322 1327 0
-315 475 -222 1328 0
-206 196 166 1329 0
397 473 -166 1330 0
170 -38 159 1331 0
176 46 -361 1332 0
-264 346 -117 1333 0
243 -323 494 1334 0
48 -346 117 1335 0
-370 -204 12 1336 0
178 -467 143 1337 0
473 -25 -9 1338 0
-466 155 -421 1339 0
488 266 -192 1340 0
491 -374 96 1341 0
-469 -85 -48 1342 0
-140 -347 488 1343 0
453 -44 225 1344 0
-200 -375 31 1345 0
-85 154 357 1346 0
-3 320 -198 1347 0
421 -319 -231 1348 0
-498 -92 299 1349 0
249 -432 -205 1350 0
-228 497 -315 1351 0
228 -279 270 1352 0
326 458 -30 1353 0
19 -404 -363 1354 0
-439 7 -139 1355 0
-335 -29 145 1356 0
-363 328 197 1357 0
284 -490 53 1358 0
-452 382 -425 1359 0
-56 318 -99 1360 0
464 -494 206 1361 0
222 321 -494 1362 0
282 65 383 1363 0
131 219 423 1364 0
180 -157 272 1365 0
-155 -59 474 1366 0
422 55 -212 1367 0
-129 -444 284 1368 0
-223 -85 -27 1369 0
-71 -111 31 1370 0
-263 116 354 1371 0
-109 244 397 1372 0
137 146 199 1373 0
-209 25 413 1374 0
-287 -80 75 1375 0
-180 92 470 1376 0
-162 209 -115 1377 0
-344 57 49 1378 0
270 -58 321 1379 0
397 76 181 1380 0
-94 -63 356 1381 0
-340 28 113 1382 0
-347 204 -318 1383 0
-475 334 170 1384 0
474 -19 -312 1385 0
-184 -291 -243 1386 0
-312 -278 193 1387 0
-171 469 -251 1388 0
-72 -415 375 1389 0
-68 -200 145 1390 0
-394 212 300 1391 0
-350 -216 422 1392 0
-204 3 400 1393 0
297 -374 72 1394 0
444 -77 500 1395 0
342 -14 446 1396 0
454 -448 54 1397 0
138 67 129 1398 0
-330 382 268 1399 0
93 186 -397 1400 0
-487 342 -200 1401 0
-264 369 -42 1402 0
-239 483 -170 1403 0
48 452 -225 1404 0
91 -255 -466 1405 0
-395 -302 34 1406 0
-369 81 12 1407 0
-257 -316 421 1408 0
278 210 15 1409 0
-487 -481 -147 1410 0
-410 198 293 1411 0
-203 -356 -172 1412 0
-245 222 -404 1413 0
-221 -320 -202 1414 0
-9 233 -440 1415 0
-183 41 -486 1416 0
-306 446 216 1417 0
-194 -334 316 1418 0
-494 -96 -67 1419 0
276 -333 184 1420 0
446 -469 212 1421 0
-467 -419 -262 1422 0
-226 121 89 1423 0
-28 456 -375 1424 0
338 469 -477 1425 0
-416 -162 -324 1426 0
-71 -434 80 1427 0
-452 267 -299 1428 0
-9 164 229 1429 0
391 293 385 1430 0
391 380 -383 1431 0
-436 267 -442 1432 0
48 209 40 1433 0
-341 377 -149 1434 0
152 482 -91 1435 0
228 -226 -162 1436 0
32 63 -229 1437 0
418 -258 220 1438 0
-163 328 248 1439 0
277 497 54 1440 0
259 4 381 1441 0
88 -360 112 1442 0
-371 450 106 1443 0
16 91 -236 1444 0
-153 -447 311 1445 0
-451 362 -247 1446 0
-461 -100 -362 1447 0
141 55 -191 1448 0
66 -252 -124 1449 0
-433 492 -348 1450 0
284 -462 -87 1451 0
334 -164 -56 1452 0
-158 -109 -432 1453 0
325 169 470 1454 0
495 404 69 1455 0
234 -433 -300 1456 0
-334 400 49 1457 0
92 -29 -248 1458 0
20 436 194 1459 0
110 170 -188 1460 0
63 -313 396 1461 0
75 366 -253 1462 0
117 -381 -436 1463 0
7 -287 406 1464 0
-218 417 403 1465 0
-40 220 -33 1466 0
54 228 488 1467 0
-129 413 -201 1468 0
-179 -355 -136 1469 0
109 -8 79 1470 0
-142 315 -295 1471 0
456 -466 475 1472 0
-427 32 -228 1473 0
87 351 101 1474 0
-399 471 100 1475 0
-336 -461 -34 1476 0
-488 -289 -105 1477 0
460 37 -430 1478 0
217 16 92 1479 0
171 248 69 1480 0
478 -144 343 1481 0
-134 -72 -296 1482 0
-500 -425 146 1483 0
-188 -258 13 1484 0
-216 -450 -66 1485 0
201 408 -129 1486 0
428 52 237 1487 0
470 227 -52 1488 0
337 -56 60 1489 0
-427 367 -390 1490 0
4 -186 345 1491 0
270 27 -173 1492 0
286 37 53 1493 0
-307 -369 176 1494 0
-161 -243 -129 1495 0
340 238 213 1496 0
-163 -307 -407 1497 0
-342 23 142 1498 0
296 178 -279 1499 0
86 118 -144 1500 0
396 -434 405 1501 0
-425 -242 -376 1502 0
-243 269 350 1503 0
-498 54 467 1504 0
-148 -62 274 1505 0
421 -340 -452 1506 0
-229 -56 -279 1507 0
-240 -48 242 1508 0
-487 -203 425 1509 0
-289 311 -472 1510 0
-477 75 -406 1511 0
-341 474 177 1512 0
-283 485 136 1513 0
470 -105 -424 1514 0
-223 -427 -310 1515 0
-267 367 -354 1516 0
225 420 -408 1517 0
420 153 -11 1518 0
-22 -104 -327 1519 0
-429 164 98 1520 0
175 323 -351 1521 0
330 190 -490 1522 0
-395 -39 -65 1523 0
394 -341 21 1524 0
-237 108 -20 1525 0
115 105 356 1526 0
-459 250 266 1527 0
-229 238 227 1528 0
-301 -303 150 1529 0
-171 -389 498 1530 0
-265 -13 -29 1531 0
-205 142 334 1532 0
243 -26 -54 1533 0
388 -327 -24 1534 0
243 -371 -277 1535 0
314 165 161 1536 0
-178 -18 287 1537 0
-292 -208 -471 1538 0
-101 92 416 1539 0
30 -152 9 1540 0
-122 487 308 1541 0
10 -449 -228 1542 0
-446 -227 81 1543 0
-246 -63 -463 1544 0
42 -388 100 1545 0
269 158 33 1546 0
396 296 122 1547 0
163 87 -354 1548 0
405 -376 315 1549 0
-9 289 408 1550 0
-257 212 -370 1551 0
-322 -85 372 1552 0
-276 -302 -474 1553 0
482 6 419 1554 0
-455 416 238 1555 0
-239 114 410 1556 0
-499 -170 -52 1557 0
-426 462 200 1558 0
44 190 -468 1559 0
-125 -38 -50 1560 0
236 121 -429 1561 0
250 -67 -149 1562 0
-303 -23 -474 1563 0
-160 55 43 1564 0
-469 -171 409 1565 0
250 -22 220 1566 0
-144 13 -173 1567 0
-374 323 -242 1568 0
-349 -54 -476 1569 0
136 -481 -145 1570 0
42 442 211 1571 0
-451 -28 -375 1572 0
-350 -201 179 1573 0
-253 33 245 1574 0
60 -470 11 1575 0
335 24 -207 1576 0
343 1 -288 1577 0
433 -198 114 1578 0
421 350 -441 1579 0
-440 39 118 1580 0
-235 70 -87 1581 0
-158 248 -457 1582 0
390 -75 -173 1583 0
-286 21 364 1584 0
-82 270 247 1585 0
-190 336 398 1586 0
-394 -376 -382 1587 0
179 -417 31 1588 0
306 474 401 1589 0
206 106 -93 1590 0
-195 345 65 1591 0
98 137 -336 1592 0
336 -476 392 1593 0
-325 92 138 1594 0
-127 -325 -399 1595 0
-206 -7 -299 1596 0
-458 -76 54 1597 0
440 -174 -130 1598 0
436 65 -104 1599 0
187 436 156 1600 0
450 239 -494 1601 0
138 304 241 1602 0
232 485 -254 1603 0
-133 -42 -282 1604 0
-221 296 -399 1605 0
-13 21 445 1606 0
469 -263 278 1607 0
-80 165 328 1608 0
-76 -173 -405 1609 0
397 -223 -363 1610 0
-76 284 417 1611 0
-341 114 -144 1612 0
350 -14 97 1613 0
220 324 -412 1614 0
249 436 -234 1615 0
316 -384 -231 1616 0
326 -388 -362 1617 0
466 427 -320 1618 0
-492 297 -138 1619 0
392 -135 88 1620 0
-147 30 244 1621 0
-438 -499 -243 1622 0
202 -195 -375 1623 0
-134 -432 500 1624 0
351 -453 -309 1625 0
-79 491 -105 1626 0
-329 -264 79 1627 0
-316 -97 295 1628 0
-279 -61 -346 1629 0
-178 -401 64 1630 0
19 454 -251 1631 0
-51 55 -291 1632 0
147 99 259 1633 0
431 -186 -82 1634 0
-266 324 326 1635 0
-440 338 -355 1636 0
-374 357 154 1637 0
-34 -475 212 1638 0
128 -318 -3 1639 0
310 -356 -278 1640 0
239 -246 155 1641 0
-491 67 -335 1642 0
216 -368 -313 1643 0
-187 -461 -275 1644 0
-174 433 -194 1645 0
92 459 -401 1646 0
259 -220 246 1647 0
266 20 -401 1648 0
-253 -8 484 1649 0
-263 331 -453 1650 0
304 -231 -441 1651 0
-200 62 143 1652 0
47 434 306 1653 0
383 -293 286 1654 0
-349 -100 -52 1655 0
-443 -88 433 1656 0
-399 426 236 1657 0
470 236 297 1658 0
-274 4 290 1659 0
445 92 -292 1660 0
135 162 226 1661 0
-206 239 481 1662 0
-411 262 -358 1663 0
-333 45 -234 1664 0
-120 -314 384 1665 0
461 -264 120 1666 0
334 390 -456 1667 0
-110 -185 -359 1668 0
-34 -231 446 1669 0
230 168 122 1670 0
-208 8 399 1671 0
284 408 -340 1672 0
359 -350 324 1673 0
-247 340 220 1674 0
-489 -105 485 1675 0
-180 317 -43 1676 0
204 203 -24 1677 0
-90 -38 402 1678 0
146 105 337 1679 0
370 147 -314 1680 0
-360 294 331 1681 0
244 124 -93 1682 0
-249 365 52 1683 0
-7 -485 491 1684 0
457 463 -413 1685 0
133 350 444 1686 0
-90 172 451 1687 0
389 -418 -346 1688 0
111 -82 275 1689 0
291 -497 80 1690 0
-48 -398 371 1691 0
188 -433 147 1692 0
-392 499 -142 1693 0
339 201 -119 1694 0
-150 -87 -473 1695 0
-287 -420 -364 1696 0
-192 182 -291 1697 0
269 400 96 1698 0
422 -203 100 1699 0
66 91 185 1700 0
-214 469 170 1701 0
-424 155 -398 1702 0
-154 -322 -140 1703 0
-404 105 93 1704 0
406 -240 84 1705 0
308 -442 303 1706 0
-353 190 -499 1707 0
-39 -22 -213 1708 0
-315 328 -469 1709 0
102 397 243 1710 0
-233 -45 -253 1711 0
-354 57 -384 1712 0
217 94 155 1713 0
466 -51 -206 1714 0
-160 -233 -314 1715 0
-322 -364 309 1716 0
306 247 370 1717 0
84 -490 -456 1718 0
301 496 -30 1719 0
480 -437 348 1720 0
-450 -326 -252 1721 0
-76 170 -134 1722 0
-81 -220 -46 1723 0
-239 -449 446 1724 0
33 285 259 1725 0
-147 37 -20 1726 0
423 145 18 1727 0
414 -358 452 1728 0
-286 -351 23 1729 0
454 -141 154 1730 0
-125 -463 -450 1731 0
132 158 -491 1732 0
159 -168 328 1733 0
-338 441 -452 1734 0
161 275 -489 1735 0
325 -93 283 1736 0
-35 495 313 1737 0
379 90 204 1738 0
-361 426 133 1739 0
-227 384 256 1740 0
135 59 -304 1741 0
103 -12 28 1742 0
474 -119 488 1743 0
-124 228 24 1744 0
-278 52 440 1745 0
-347 4 231 1746 0
260 482 441 1747 0
402 -77 -455 1748 0
-102 245 50 1749 0
433 -299 387 1750 0
259 -233 -110 1751 0
-112 -1 -451 1752 0
-400 -247 80 1753 0
119 82 462 1754 0
394 -28 69 1755 0
99 -479 -405 1756 0
-323 -471 -396 1757 0
170 70 -138 1758 0
72 -133 188 1759 0
-377 391 -219 1760 0
303 107 -108 1761 0
-196 -440 449 1762 0
-232 -174 -85 1763 0
-70 -373 369 1764 0
-148 -18 -176 1765 0
-20 -136 -458 1766 0
-207 -211 493 1767 0
-304 248 -419 1768 0
-309 118 46 1769 0
222 -235 -392 1770 0
388 -127 172 1771 0
-282 461 -297 1772 0
286 -26 200 1773 0
371 -285 232 1774 0
166 41 50 1775 0
-226 328 368 1776 0
103 340 -473 1777 0
-181 292 255 1778 0
27 -371 -401 1779 0
134 -308 334 1780 0
-193 277 -51 1781 0
50 -178 443 1782 0
481 -412 349 1783 0
312 264 -254 1784 0
500 -376 459 1785 0
182 -388 374 1786 0
-53 -55 -178 1787 0
-382 368 -145 1788 0
239 206 19 1789 0
485 200 256 1790 0
-375 -318 314 1791 0
34 -489 -341 1792 0
-392 -432 171 1793 0
-294 -66 315 1794 0
242 486 -107 1795 0
-100 -25 275 1796 0
357 90 415 1797 0
-447 64 118 1798 0
-314 -358 -364 1799 0
157 -351 -200 1800 0
-145 -399 220 1801 0
-329 -313 342 1802 0
301 103 137 1803 0
197 -260 -175 1804 0
-168 444 436 1805 0
-401 -140 35 1806 0
-303 -207 -363 1807 0
-223 -68 -499 1808 0
139 -28 -215 1809 0
-138 -336 332 1810 0
-228 -62 -116 1811 0
-105 204 -459 1812 0
214 483 295 1813 0
95 28 -442 1814 0
257 475 -43 1815 0
179 -447 -127 1816 0
-371 -43 -449 1817 0
-378 -235 -394 1818 0
469 -317 -54 1819 0
436 230 370 1820 0
-167 348 8 1821 0
-259 -485 408 1822 0
-80 -440 -484 1823 0
-448 5 -392 1824 0
-190 251 314 1825 0
264 -396 -195 1826 0
-61 -303 -71 1827 0
-100 23 373 1828 0
214 349 272 1829 0
-4 -121 -458 1830 0
316 -356 410 1831 0
-258 346 -263 1832 0
-98 212 -462 1833 0
315 396 73 1834 0
443 205 310 1835 0
99 -446 -24 1836 0
175 89 60 1837 0
-216 449 116 1838 0
119 352 122 1839 0
-11 299 312 1840 0
-333 -344 119 1841 0
330 -461 183 1842 0
349 -12 -19 1843 0
-315 -69 -320 1844 0
467 -25 -500 1845 0
158 369 -281 1846 0
-353 272 -499 1847 0
-59 -184 289 1848 0
482 -451 -291 1849 0
-59 -460 -80 1850 0
411 267 -37 1851 0
-224 -90 -180 1852 0
440 282 357 1853 0
478 283 -392 1854 0
-500 313 -248 1855 0
-137 288 228 1856 0
432 -17 -333 1857 0
46 38 -230 1858 0
93 183 465 1859 0
-288 158 25 1860 0
-248 -57 -93 1861 0
375 -308 142 1862 0
-359 -374 -4 1863 0
-451 -24 -476 1864 0
-182 -143 402 1865 0
-46 -18 93 1866 0
-282 -477 188 1867 0
-190 477 325 1868 0
-279 -346 -271 1869 0
-468 181 158 1870 0
-165 -474 -338 1871 0
69 -169 -159 1872 0
88 -24 -398 1873 0
-220 -319 418 1874 0
-266 -342 -234 1875 0
-489 121 85 1876 0
61 180 106 1877 0
-130 -249 -106 1878 0
-163 -229 239 1879 0
-140 -104 -133 1880 0
-60 249 341 1881 0
-311 301 -267 1882 0
27 192 -236 1883 0
-230 -93 -361 1884 0
-131 -322 362 1885 0
-91 -452 -414 1886 0
167 13 335 1887 0
-311 -80 -477 1888 0
-387 458 433 1889 0
30 -387 -151 1890 0
100 322 -148 1891 0
227 241 -124 1892 0
-158 -232 64 1893 0
61 -329 90 1894 0
14 376 -312 1895 0
423 344 -162 1896 0
275 -467 -204 1897 0
56 447 31 1898 0
40 -447 375 1899 0
-299 -38 457 1900 0
-34 459 -333 1901 0
246 250 329 1902 0
-247 -273 255 1903 0
-391 344 -243 1904 0
-146 -205 189 1905 0
-243 -219 287 1906 0
421 188 -186 1907 0
335 -410 -289 1908 0
199 282 -152 1909 0
103 150 -266 1910 0
293 298 405 1911 0
-335 386 -255 1912 0
-147 61 166 1913 0
-405 340 -473 1914 0
-163 170 -418 1915 0
13 293 250 1916 0
-175 -323 -395 1917 0
-360 -104 147 1918 0
-305 -42 -370 1919 0
-194 -378 432 1920 0
455 -6 226 1921 0
-104 148 -487 1922 0
165 350 374 1923 0
213 -419 -206 1924 0
199 86 152 1925 0
189 210 -111 1926 0
364 407 -325 1927 0
457 -353 -404 1928 0
-120 470 227 1929 0
-33 481 18 1930 0
-131 -164 -291 1931 0
369 2 426 1932 0
-149 270 -219 1933 0
495 201 358 1934 0
102 -234 -476 1935 0
-353 -219 -14 1936 0
-275 -142 435 1937 0
-51 354 403 1938 0
-379 -208 -161 1939 0
-8 -341 452 1940 0
428 490 470 1941 0
134 -122 -16 1942 0
-240 -487 266 1943 0
-11 -310 -457 1944 0
259 -171 74 1945 0
123 89 486 1946 0
416 366 -467 1947 0
486 230 -482 1948 0
-428 -15 -167 1949 0
488 226 167 1950 0
-334 442 123 1951 0
-421 -280 -29 1952 0
490 158 431 1953 0
3 -97 -210 1954 0
-354 -16 -313 1955 0
-188 -146 -291 1956 0
-210 300 399 1957 0
399 -65 -132 1958 0
-30 -50 328 1959 0
-334 -16 -490 1960 0
-239 494 178 1961 0
257 489 -109 1962 0
310 -324 476 1963 0
234 -146 232 1964 0
29 -294 -58 1965 0
-180 369 -255 1966 0
487 -346 -155 1967 0
174 -113 -430 1968 0
-471 95 -191 1969 0
-339 45 377 1970 0
-263 -330 -425 1971 0
-112 230 -491 1972 0
-456 -352 -494 1973 0
226 172 -395 1974 0
-23 -91 349 1975 0
406 -304 214 1976 0
-56 252 -350 1977 0
-431 -474 -80 1978 0
485 493 -498 1979 0
-293 496 -330 1980 0
-94 -125 -33 1981 0
-427 66 -52 1982 0
-445 -55 385 1983 0
489 46 453 1984 0
237 -277 355 1985 0
379 -349 233 1986 0
394 -364 -246 1987 0
220 -285 -274 1988 0
62 29 -42 1989 0
-254 272 -244 1990 0
409 436 66 1991 0
-154 85 10 1992 0
459 17 -159 1993 0
437 401 58 1994 0
-491 55 -418 1995 0
-156 -198 -137 1996 0
-40 -344 -174 1997 0
16 290 -325 1998 0
352 -396 -385 1999 0
-16 137 112 2000 0
-483 165 -131 2001 0
238 -489 497 2002 0
-484 374 -431 2003 0
185 -306 -479 2004 0
-342 274 159 2005 0
183 -350 54 2006 0
255 -378 89 2007 0
-272 496 163 2008 0
87 162 131 2009 0
-237 -154 -193 2010 0
-348 298 -326 2011 0
-30 111 -309 2012 0
-120 57 -24 2013 0
376 -389 -179 2014 0
263 250 -335 2015 0
-79 223 490 2016 0
83 465 497 2017 0
153 372 386 2018 0
-267 -111 191 2019 0
251 290 102 2020 0
261 456 19 2021 0
10 -62 486 2022 0
389 -222 -334 2023 0
-455 395 230 2024 0
-15 -281 459 2025 0
-118 349 426 2026 0
-417 82 85 2027 0
-261 -291 222 2028 0
469 -285 86 2029 0
285 -85 -173 2030 0
145 60 -23 2031 0
162 339 -400 2032 0
-247 -445 -172 2033 0
7 52 364 2034 0
183 -105 226 2035 0
-163 -255 -120 2036 0
248 -85 135 2037 0
-96 336 -175 2038 0
-226 -246 -329 2039 0
-318 381 -179 2040 0
-38 182 -398 2041 0
-417 331 464 2042 0
142 -248 54 2043 0
217 -117 -399 2044 0
-227 -318 421 2045 0
457 -466 18 2046 0
170 235 115 2047 0
17 -5 471 2048 0
-399 -57 106 2049 0
496 399 291 2050 0
-169 -306 -379 2051 0
-317 -345 -121 2052 0
454 -18 -221 2053 0
89 64 199 2054 0
180 -253 -257 2055 0
87 -45 484 2056 0
44 -491 477 2057 0
-396 -32 422 2058 0
-214 -444 -310 2059 0
62 -86 -113 2060 0
-110 29 42 2061 0
284 2 -443 2062 0
-111 -68 260 2063 0
288 -74 476 2064 0
-199 -416 484 2065 0
453 422 -312 2066 0
-367 -348 -488 2067 0
-484 -3 489 2068 0
9 73 374 2069 0
202 -340 -294 2070 0
230 -276 103 2071 0
-46 424 -48 2072 0
-292 169 -29 2073 0
375 -386 -250 2074 0
-346 420 61 2075 0
315 -355 -367 2076 0
498 -184 -310 2077 0
-174 -28 -99 2078 0
-11 -173 403 2079 0
-363 377 -79 2080 0
-20 -499 -231 2081 0
66 180 172 2082 0
-490 276 484 2083 0
-42 174 -113 2084 0
-149 -438 -497 2085 0
224 56 -371 2086 0
-96 -230 -302 2087 0
126 417 -331 2088 0
288 193 -194 2089 0
167 76 -330 2090 0
29 -351 -350 2091 0
-249 10 16 2092 0
95 -393 156 2093 0
-116 -288 348 2094 0
-379 -491 471 2095 0
367 39 52 2096 0
-294 -23 -220 2097 0
-467 97 -219 2098 0
150 400 -320 2099 0
9 -447 296 2100 0
-447 236 -483 2101 0
223 -352 47 2102 0
113 496 -352 2103 0
165 317 150 2104 0
263 -265 -390 2105 0
-187 237 48 2106 0
359 -249 -473 2107 0
-189 -120 393 2108 0
475 260 -407 2109 0
-122 382 138 2110 0
28 -491 353 2111 0
-28 -376 -226 2112 0
-299 -273 389 2113 0
175 -215 310 2114 0
-148 -397 -354 2115 0
-239 487 -133 2116 0
-499 132 -169 2117 0
418 -325 86 2118 0
68 -13 -1 2119 0
-393 46 -389 2120 0
-438 -267 96 2121 0
-6 177 167 2122 0
-310 295 278 2123 0
140 337 136 2124 0
3 232 -290 2125 0
-396 -440 -436 2126 0
363 238 -17 2127 0
291 322 -174 2128 0
-210 420 233 2129 0
-35 288 -88 2130 0
-95 -363 -78 2131 0
102 396 -197 2132 0
-102 -193 218 2133 0
-317 -33 -61 2134 0
113 205 287 2135 0
-121 -87 -226 2136 0
-1 402 -470 2137 0
36 -379 327 2138 0
-309 308 333 2139 0
-484 -312 -471 2140 0
359 -23 367 2141 0
-376 -57 -33 2142 0
-213 -179 -75 2143 0
-191 -393 -396 2144 0
-442 -341 -455 2145 0
454 -243 493 2146 0
359 -190 -371 2147 0
323 361 199 2148 0
-207 222 -466 2149 0
-127 -380 479 2150 0
71 357 -95 2151 0
-53 -309 -170 2152 0
-355 74 -397 2153 0
459 362 -414 2154 0
-374 465 -153 2155 0
-477 -228 369 2156 0
25 214 469 2157 0
152 258 -407 2158 0
-316 -451 88 2159 0
355 -415 -138 2160 0
462 352 238 2161 0
-485 258 308 2162 0
-110 317 278 2163 0
-360 97 -123 2164 0
97 -135 -206 2165 0
149 451 214 2166 0
142 -367 -419 2167 0
-290 -117 -19 2168 0
179 -221 2 2169 0
206 258 -273 2170 0
175 -153 -266 2171 0
392 -89 332 2172 0
-459 -47 -99 2173 0
345 -264 -194 2174 0
-42 264 295 2175 0
5 474 -346 2176 0
282 124 -271 2177 0
-491 423 -426 2178 0
243 406 -197 2179 0
-368 -107 -472 2180 0
275 -489 -350 2181 0
180 -418 -453 2182 0
253 -93 441 2183 0
44 120 117 2184 0
-224 207 231 2185 0
298 -415 -135 2186 0
-141 261 129 2187 0
174 -7 493 2188 0
-35 228 339 2189 0
-215 -344 -282 2190 0
411 -397 -90 2191 0
-296 397 453 2192 0
-247 -419 268 2193 0
-425 -59 267 2194 0
-302 -61 167 2195 0
-473 -26 -388 2196 0
381 217 300 2197 0
-104 143 214 2198 0
340 441 179 2199 0
220 -459 28 2200 0
367 112 -262 2201 0
491 -457 348 2202 0
-238 357 427 2203 0
229 63 257 2204 0
49 100 367 2205 0
209 -204 -93 2206 0
-381 -32 431 2207 0
407 387 452 2208 0
25 -262 303 2209 0
479 60 -39 2210 0
363 -389 333 2211 0
-125 -178 39 2212 0
332 128 -423 2213 0
17 102 -468 2214 0
-439 350 317 2215 0
491 -83 391 2216 0
-13 396 -125 2217 0
419 -499 -202 2218 0
-462 -154 -466 2219 0
-227 -9 29 2220 0
174 -404 317 2221 0
330 -5 161 2222 0
-395 103 -336 2223 0
-190 145 -472 2224 0
170 -455 425 2225 0
323 -31 -259 2226 0
367 421 -477 2227 0
83 -84 389 2228 0
436 461 425 2229 0
125 -142 160 2230 0
258 -433 6 2231 0
291 394 -131 2232 0
396 -420 71 2233 0
-370 250 156 2234 0
425 -406 420 2235 0
-227 167 318 2236 0
-50 -7 -299 2237 0
-340 -388 -378 2238 0
40 73 138 2239 0
334 -305 382 2240 0
161 -481 -162 2241 0
-376 32 70 2242 0
491 -125 41 2243 0
258 226 -399 2244 0
-467 -288 292 2245 0
-367 42 -50 2246 0
-462 -253 360 2247 0
-211 346 -499 2248 0
-441 -361 134 2249 0
-298 319 -350 2250 0
-454 149 -56 2251 0
-345 -468 141 2252 0
46 -444 21 2253 0
85 170 -333 2254 0
-62 217 -354 2255 0
47 301 325 2256 0
-165 346 -151 2257 0
483 204 276 2258 0
-203 268 -230 2259 0
-132 -4 -218 2260 0
-232 -306 356 2261 0
331 -499 87 2262 0
-427 452 306 2263 0
400 -174 168 2264 0
-109 308 -412 2265 0
242 315 -60 2266 0
-379 -412 -28 2267 0
159 -449 -113 2268 0
-231 -347 151 2269 0
328 -495 -97 2270 0
-323 -55 -209 2271 0
-134 -87 78 2272 0
-320 68 -408 2273 0
6 113 -304 2274 0
-181 114 47 2275 0
70 -440 402 2276 0
-399 -376 383 2277 0
144 -120 -264 2278 0
80 43 -229 2279 0
87 -380 -319 2280 0
423 -10 -15 2281 0
379 -500 299 2282 0
41 61 492 2283 0
25 496 219 2284 0
307 -486 -93 2285 0
334 458 -152 2286 0
11 370 296 2287 0
54 -444 234 2288 0
-138 404 -252 2289 0
-82 90 -495 2290 0
-456 -236 -252 2291 0
-223 68 442 2292 0
139 -403 -412 2293 0
-203 419 146 2294 0
271 218 134 2295 0
63 184 -282 2296 0
-353 88 -498 2297 0
204 85 273 2298 0
210 303 378 2299 0
-244 89 -467 2300 0
435 -436 -148 2301 0
396 234 469 2302 0
76 -355 74 2303 0
-154 304 -20 2304 0
278 -10 368 2305 0
-35 498 338 2306 0
91 122 104 2307 0
120 288 -39 2308 0
278 -208 -499 2309 0
208 -155 -1 2310 0
-357 -400 426 2311 0
90 377 -465 2312 0
365 -201 -193 2313 0
226 392 -222 2314 0
-30 59 184 2315 0
40 383 306 2316 0
-295 174 79 2317 0
398 -459 66 2318 0
280 -291 52 2319 0
77 59 -478 2320 0
411 442 397 2321 0
-195 169 479 2322 0
-380 254 -183 2323 0
257 95 -251 2324 0
193 -307 486 2325 0
314 367 -195 2326 0
283 -364 -366 2327 0
-339 205 -73 2328 0
-115 99 38 2329 0
127 -214 280 2330 0
-398 183 430 2331 0
-300 287 -32 2332 0
315 -22 -141 2333 0
-340 168 94 2334 0
189 183 494 2335 0
96 103 411 2336 0
-286 -214 -124 2337 0
-181 104 -26 2338 0
363 366 -220 2339 0
-368 -460 -252 2340 0
156 366 -44 2341 0
-477 415 333 2342 0
-491 -354 -30 2343 0
391 468 136 2344 0
93 339 -20 2345 0
86 -101 378 2346 0
494 216 -371 2347 0
8 97 -205 2348 0
-268 482 132 2349 0
191 -488 -79 2350 0
-466 235 378 2351 0
-224 -464 272 2352 0
-326 -304 -464 2353 0
-28 209 397 2354 0
-397 -302 402 2355 0
389 228 -68 2356 0
-112 -124 218 2357 0
-123 388 74 2358 0
245 33 217 2359 0
433 108 -420 2360 0
-491 -208 472 2361 0
-324 -500 467 2362 0
64 -29 -107 2363 0
230 166 -82 2364 0
-284 497 182 2365 0
304 -411 172 2366 0
224 373 190 2367 0
-487 348 104 2368 0
-416 205 -245 2369 0
500 -230 -48 2370 0
80 266 315 2371 0
-235 117 -488 2372 0
-190 -487 209 2373 0
230 -252 102 2374 0
81 -37 -413 2375 0
-158 -29 173 2376 0
431 -467 335 2377 0
-251 -179 -145 2378 0
153 425 -205 2379 0
-206 -18 409 2380 0
-271 -351 -350 2381 0
-61 -215 -158 2382 0
415 -63 349 2383 0
-146 177 -121 2384 0
236 394 375 2385 0
411 133 -241 2386 0
-4 -210 64 2387 0
-488 -335 64 2388 0
-324 211 143 2389 0
198 481 410 2390 0
34 -92 140 2391 0
338 -16 -375 2392 0
-449 -123 194 2393 0
-362 -390 -72 2394 0
-201 466 -303 2395 0
100 280 -401 2396 0
-46 496 120 2397 0
-464 258 305 2398 0
-452 -495 401 2399 0
-447 320 -309 2400 0
144 -349 455 2401 0
138 155 461 2402 0
226 -449 -9 2403 0
-120 372 -292 2404 0
181 245 -92 2405 0
427 345 451 2406 0
43 -265 -355 2407 0
-50 -124 196 2408 0
178 454 138 2409 0
193 -429 -415 2410 0
244 74 201 2411 0
-376 -106 -116 2412 0
-399 287 469 2413 0
-241 139 141 2414 0
-224 -373 342 2415 0
-186 -39 -495 2416 0
-499 -346 -285 2417 0
491 -312 369 2418 0
211 -6 -152 2419 0
-334 -500 348 2420 0
211 -60 -240 2421 0
80 -273 242 2422 0
2 109 -440 2423 0
-335 246 -150 2424 0
150 -102 -292 2425 0
205 439 180 2426 0
-49 21 67 2427 0
429 -358 6 2428 0
-464 330 -12 2429 0
-466 290 374 2430 0
-403 -141 -259 2431 0
290 -334 327 2432 0
-369 224 -219 2433 0
-438 -208 -36 2434 0
455 -99 -132 2435 0
-380 -176 -499 2436 0
-483 -350 337 2437 0
-471 491 65 2438 0
-225 -146 -214 2439 0
2 208 70 2440 0
-8 138 -78 2441 0
-311 354 -312 2442 0
425 47 -306 2443 0
-421 10 164 2444 0
-52 285 -112 2445 0
241 -387 273 2446 0
-401 208 -437 2447 0
-8 423 -105 2448 0
199 -427 -193 2449 0
43 -310 -130 2450 0
-302 455 288 2451 0
432 161 -219 2452 0
118 467 330 2453 0
-33 -202 462 2454 0
411 286 142 2455 0
-314 476 136 2456 0
-432 -335 -181 2457 0
84 -499 -336 2458 0
-491 -132 301 2459 0
19 359 464 2460 0
-314 169 21 2461 0
-359 182 31 2462 0
-402 319 307 2463 0
-446 -338 -239 2464 0
-123 476 372 2465 0
359 379 426 2466 0
172 482 78 2467 0
-132 106 99 2468 0
374 34 53 2469 0
-448 -45 -294 2470 0
344 259 325 2471 0
-330 -404 418 2472 0
-340 -31 45 2473 0
-94 220 287 2474 0
-3 493 -5 2475 0
-418 -483 466 2476 0
-302 488 352 2477 0
-55 -106 -279 2478 0
-298 94 -235 2479 0
289 -299 148 2480 0
243 -228 -301 2481 0
-259 -266 -409 2482 0
419 221 -338 2483 0
412 -345 -433 2484 0
131 179 -39 2485 0
-180 64 498 2486 0
-441 124 -169 2487 0
429 178 -458 2488 0
451 69 -129 2489 0
256 428 43 2490 0
468 -461 -144 2491 0
-401 -269 170 2492 0
255 -165 -416 2493 0
422 176 -295 2494 0
278 -380 386 2495 0
13 107 -44 2496 0
-387 -293 -127 2497 0
-386 -390 -448 2498 0
304 12 57 2499 0
392 184 111 2500 0
-441 102 -455 2501 0
-434 97 263 2502 0
381 23 -365 2503 0
38 426 -331 2504 0
43 -207 -414 2505 0
-228 24 361 2506 0
298 339 -166 2507 0
143 22 208 2508 0
367 -218 -265 2509 0
380 -397 -433 2510 0
32 52 272 2511 0
-359 340 411 2512 0
-24 -466 -428 2513 0
371 157 -25 2514 0
349 -247 -351 2515 0
-213 244 155 2516 0
310 110 -41 2517 0
240 -8 202 2518 0
-260 42 -389 2519 0
-96 461 92 2520 0
-326 -279 321 2521 0
-452 276 -140 2522 0
360 30 154 2523 0
-143 306 458 2524 0
452 277 393 2525 0
72 -496 300 2526 0
92 -64 26 2527 0
-448 277 62 2528 0
-40 -18 384 2529 0
-120 45 464 2530 0
70 231 -168 2531 0
-39 -373 -145 2532 0
342 -108 -293 2533 0
461 -346 126 2534 0
191 193 -308 2535 0
216 -376 498 2536 0
-125 -4 -216 2537 0
204 384 -23 2538 0
-460 -203 -220 2539 0
-332 385 354 2540 0
-440 -430 -487 2541 0
333 -361 -13 2542 0
-175 479 261 2543 0
90 454 84 2544 0
130 -385 439 2545 0
-146 -438 -125 2546 0
-278 -9 212 2547 0
345 230 -272 2548 0
223 227 441 2549 0
-479 -25 7 2550 0
-434 -290 381 2551 0
400 202 385 2552 0
495 79 -323 2553 0
254 -141 195 2554 0
-262 -426 -345 2555 0
-486 -471 299 2556 0
220 377 -33 2557 0
-452 -464 -214 2558 0
-7 -373 -442 2559 0
-103 1 71 2560 0
209 109 -255 2561 0
-105 -12 -479 2562 0
-365 466 75 2563 0
-500 354 34 2564 0
-394 332 -469 2565 0
11 305 -463 2566 0
264 231 414 2567 0
-183 226 -400 2568 0
-415 -167 206 2569 0
388 -20 -403 2570 0
13 -97 145 2571 0
456 -197 329 2572 0
-152 -302 -402 2573 0
-46 411 6 2574 0
-103 -110 -495 2575 0
-113 -374 453 2576 0
-355 -177 -339 2577 0
-335 472 -154 2578 0
306 461 32 2579 0
61 165 49 2580 0
124 -183 367 2581 0
169 -167 -350 2582 0
463 377 -61 2583 0
-331 240 -435 2584 0
241 -380 456 2585 0
333 327 -26 2586 0
62 -495 -448 2587 0
19 -491 -399 2588 0
263 389 410 2589 0
-240 -77 -68 2590 0
293 279 -38 2591 0
255 -393 -128 2592 0
373 -323 -180 2593 0
-231 2 -115 2594 0
146 -239 99 2595 0
-105 -54 142 2596 0
236 -71 354 2597 0
322 -472 321 2598 0
425 460 -157 2599 0
-3 61 186 2600 0
326 44 -237 2601 0
227 -187 43 2602 0
500 480 335 2603 0
52 -466 -463 2604 0
-238 -268 430 2605 0
83 220 -153 2606 0
35 -367 -472 2607 0
-293 143 75 2608 0
61 -385 234 2609 0
410 -274 340 2610 0
-158 -245 -495 2611 0
-4 -452 77 2612 0
434 -345 225 2613 0
435 381 -55 2614 0
-305 -278 -309 2615 0
77 -20 -287 2616 0
472 365 -243 2617 0
192 402 303 2618 0
432 -317 -332 2619 0
29 200 -302 2620 0
261 -337 403 2621 0
419 488 491 2622 0
321 129 121 2623 0
312 494 -488 2624 0
314 391 43 2625 0
-202 -383 -314 2626 0
-130 492 -164 2627 0
175 155 14 2628 0
349 -125 159 2629 0
353 -315 -126 2630 0
-278 136 420 2631 0
297 -153 -177 2632 0
-231 293 201 2633 0
-220 7 -2 2634 0
364 -359 -320 2635 0
254 223 -66 2636 0
-472 423 -399 2637 0
-301 455 -297 2638 0
493 340 -1 2639 0
477 -481 -193 2640 0
-210 -214 344 2641 0
6 -242 -430 2642 0
-263 -63 -201 2643 0
-428 88 411 2644 0
-21 368 466 2645 0
420 -297 393 2646 0
89 -120 -349 2647 0
-382 -109 121 2648 0
-233 331 -118 2649 0
-174 -312 350 2650 0
