p cnf 2650 2150
437 294 408 501 0
208 -331 22 502 0
202 -172 -77 503 0
84 492 -397 504 0
-479 -202 -442 505 0
-367 246 499 506 0
-489 -448 4 507 0
-293 213 -32 508 0
75 -227 24 509 0
-183 -12 -223 510 0
-311 -267 -442 511 0
426 -376 55 512 0
-5 -146 -380 513 0
275 -310 364 514 0
-406 339 -101 515 0
319 479 111 516 0
175 -371 46 517 0
-214 -499 372 518 0
-325 232 -5 519 0
489 -1 -184 520 0
-253 -248 -53 521 0
-491 2 155 522 0
-290 412 353 523 0
381 104 263 524 0
-374 230 -220 525 0
-480 128 247 526 0
294 155 -396 527 0
328 354 44 528 0
-72 498 -468 529 0
-469 279 444 530 0
296 39 467 531 0
341 379 -162 532 0
157 349 -446 533 0
269 397 339 534 0
-465 208 -374 535 0
221 124 290 536 0
-179 168 -145 537 0
-468 363 -380 538 0
129 -296 -440 539 0
450 -318 66 540 0
-294 304 -492 541 0
485 106 362 542 0
442 181 -328 543 0
-324 -411 -400 544 0
-85 -98 -24 545 0
-103 305 105 546 0
-412 -243 -121 547 0
-47 271 -402 548 0
208 -467 354 549 0
-426 -3 167 550 0
-145 -194 -232 551 0
-476 350 -307 552 0
-69 285 -108 553 0
-17 5 178 554 0
-98 -300 -42 555 0
-395 -33 -252 556 0
-223 496 -126 557 0
35 -82 445 558 0
-461 1 265 559 0
-116 401 -232 560 0
-251 -227 191 561 0
373 498 -96 562 0
-191 241 -101 563 0
311 402 -215 564 0
489 -139 -75 565 0
164 463 -187 566 0
-300 142 -197 567 0
-215 -161 398 568 0
252 72 121 569 0
490 314 -241 570 0
130 -311 -194 571 0
-30 -315 -129 572 0
151 132 14 573 0
500 -212 329 574 0
-10 356 244 575 0
-201 -247 -102 576 0
-26 153 70 577 0
70 173 34 578 0
-204 356 55 579 0
78 143 347 580 0
-241 472 259 581 0
-381 -416 -377 582 0
-410 49 144 583 0
-52 309 -392 584 0
54 124 180 585 0
-486 25 373 586 0
-73 268 371 587 0
433 -326 -467 588 0
255 485 -490 589 0
368 -296 -133 590 0
116 -475 129 591 0
-66 414 -471 592 0
-291 -357 293 593 0
-217 -425 169 594 0
434 -161 361 595 0
-220 249 454 596 0
245 426 383 597 0
-205 159 494 598 0
-459 260 -347 599 0
-203 -289 -69 600 0
-234 231 -271 601 0
-374 -30 -324 602 0
108 77 -268 603 0
411 154 265 604 0
257 -429 489 605 0
418 316 370 606 0
22 -38 50 607 0
-27 310 -491 608 0
-467 75 217 609 0
-19 -268 -296 610 0
-132 -422 347 611 0
-117 480 86 612 0
-137 180 -332 613 0
-456 425 -145 614 0
-368 -28 -71 615 0
207 185 -451 616 0
22 -39 -491 617 0
-154 -125 458 618 0
-438 -67 -328 619 0
-212 -310 -224 620 0
-111 -53 -100 621 0
480 393 42 622 0
137 -313 -84 623 0
-466 232 -474 624 0
-68 144 204 625 0
124 -376 -402 626 0
-310 140 272 627 0
43 476 -8 628 0
405 443 -159 629 0
403 -107 -36 630 0
298 -23 152 631 0
-121 320 429 632 0
-97 -30 -492 633 0
-54 405 -138 634 0
-97 -356 48 635 0
-278 -430 -97 636 0
-391 -481 -177 637 0
-249 -160 -113 638 0
206 278 -497 639 0
-149 -260 -436 640 0
144 91 -407 641 0
457 455 -15 642 0
-265 23 481 643 0
348 -377 488 644 0
495 -314 163 645 0
383 -243 422 646 0
174 -462 458 647 0
258 218 22 648 0
260 106 -356 649 0
-238 297 309 650 0
354 -416 463 651 0
475 156 274 652 0
-398 -198 91 653 0
-66 239 -150 654 0
296 187 414 655 0
2 87 40 656 0
-160 460 -14 657 0
396 -376 12 658 0
133 -278 90 659 0
4 8 78 660 0
52 -351 -464 661 0
-26 -216 -45 662 0
-426 479 400 663 0
497 -65 -496 664 0
-198 -105 455 665 0
-333 -57 126 666 0
90 -428 174 667 0
86 -51 83 668 0
-486 165 455 669 0
274 -264 -61 670 0
-475 469 373 671 0
-374 136 -296 672 0
-385 -461 460 673 0
-444 47 329 674 0
-500 -197 283 675 0
424 -8 -407 676 0
-417 146 81 677 0
122 -317 -395 678 0
138 -72 363 679 0
444 149 379 680 0
494 232 -31 681 0
-421 -408 455 682 0
493 -437 -65 683 0
-310 288 98 684 0
-467 454 -390 685 0
-227 383 -324 686 0
483 -303 218 687 0
488 -317 273 688 0
437 -172 -121 689 0
215 226 -44 690 0
360 -188 417 691 0
402 -410 216 692 0
437 -301 -405 693 0
235 189 -73 694 0
271 -51 127 695 0
-56 -217 311 696 0
480 -344 -451 697 0
-459 315 429 698 0
-188 -402 -183 699 0
-350 -426 -133 700 0
211 -160 -363 701 0
-340 -398 152 702 0
86 152 52 703 0
-374 -405 -442 704 0
-28 -98 -21 705 0
234 191 402 706 0
326 -29 -85 707 0
240 -135 32 708 0
210 -331 257 709 0
-69 -433 -454 710 0
342 284 362 711 0
346 163 222 712 0
21 400 401 713 0
129 375 97 714 0
110 -463 -222 715 0
-261 173 -73 716 0
-223 -237 -289 717 0
274 105 51 718 0
191 -337 179 719 0
-169 106 471 720 0
131 -296 -488 721 0
-288 406 -150 722 0
-67 498 -416 723 0
-53 -276 302 724 0
380 145 -166 725 0
-203 232 110 726 0
185 412 139 727 0
191 492 -73 728 0
431 196 213 729 0
341 -213 -417 730 0
348 -7 323 731 0
-221 117 -42 732 0
-377 312 338 733 0
-422 408 -204 734 0
-14 152 -183 735 0
490 472 457 736 0
-116 340 -392 737 0
-23 363 63 738 0
-368 -436 -69 739 0
-269 -150 224 740 0
389 -206 315 741 0
-77 371 -470 742 0
395 -154 -220 743 0
13 -379 433 744 0
-476 154 263 745 0
-472 286 -266 746 0
-205 361 -484 747 0
-182 26 94 748 0
16 472 -238 749 0
370 -432 -413 750 0
-328 -325 17 751 0
-444 231 447 752 0
294 462 446 753 0
-386 187 446 754 0
-81 -180 -219 755 0
303 -238 -66 756 0
10 349 227 757 0
259 -284 429 758 0
453 306 477 759 0
337 -300 133 760 0
349 -34 28 761 0
-432 -317 -163 762 0
-167 -345 375 763 0
-80 -198 222 764 0
199 -215 -311 765 0
-250 39 -31 766 0
444 -73 111 767 0
-21 271 75 768 0
-58 2 47 769 0
-452 -24 -91 770 0
10 171 310 771 0
-418 -148 221 772 0
-85 486 95 773 0
223 -138 -99 774 0
23 344 437 775 0
41 330 210 776 0
375 326 161 777 0
186 -392 138 778 0
133 -461 467 779 0
-340 -228 -105 780 0
-409 115 -397 781 0
2 -68 187 782 0
-214 300 451 783 0
471 -162 -170 784 0
-343 -104 -79 785 0
-140 -470 422 786 0
-137 -202 -347 787 0
-450 -479 -287 788 0
-500 -373 -271 789 0
-208 446 387 790 0
432 479 -164 791 0
-143 412 251 792 0
-36 -16 -398 793 0
302 39 -126 794 0
307 -121 474 795 0
1 456 373 796 0
-148 -363 132 797 0
-207 407 51 798 0
-258 257 194 799 0
-188 376 -415 800 0
-195 204 -190 801 0
208 -235 279 802 0
366 313 -350 803 0
48 330 111 804 0
68 -186 -110 805 0
-346 -361 -426 806 0
169 143 -409 807 0
277 -66 439 808 0
40 -208 405 809 0
292 139 482 810 0
-18 157 -440 811 0
133 -393 234 812 0
-448 67 352 813 0
-178 196 444 814 0
-291 75 474 815 0
-172 39 -108 816 0
303 -422 -461 817 0
218 -338 416 818 0
41 -376 468 819 0
105 -2 -27 820 0
-336 361 -273 821 0
374 385 -98 822 0
-496 203 -444 823 0
-459 -221 -239 824 0
-314 -176 103 825 0
-358 -3 441 826 0
493 369 161 827 0
362 -5 -323 828 0
493 -424 29 829 0
376 215 -54 830 0
120 470 -293 831 0
413 353 349 832 0
-43 -185 -269 833 0
-198 76 201 834 0
447 -155 -216 835 0
-314 -486 406 836 0
71 -316 -432 837 0
297 416 -16 838 0
-209 -203 395 839 0
-496 238 333 840 0
-372 14 462 841 0
245 365 -476 842 0
273 -36 -2 843 0
-271 89 230 844 0
353 245 -99 845 0
15 -450 -268 846 0
-204 326 403 847 0
352 -30 -46 848 0
387 -178 -30 849 0
-329 369 479 850 0
285 464 -14 851 0
313 107 432 852 0
417 395 457 853 0
106 147 -409 854 0
410 294 -110 855 0
462 -123 -403 856 0
149 -89 320 857 0
-386 -383 -52 858 0
-66 -364 172 859 0
-83 188 -392 860 0
352 81 370 861 0
-397 371 252 862 0
-204 -415 72 863 0
339 372 498 864 0
191 -205 -454 865 0
-329 430 -86 866 0
-104 277 339 867 0
146 74 485 868 0
428 -195 341 869 0
220 244 -445 870 0
-17 -19 241 871 0
34 244 -413 872 0
-140 322 -116 873 0
122 -385 157 874 0
-208 -44 -455 875 0
72 409 -57 876 0
-216 -377 176 877 0
-419 113 368 878 0
380 -217 -80 879 0
316 -312 -460 880 0
267 318 -89 881 0
-442 -250 -330 882 0
70 -429 -409 883 0
-236 -473 -193 884 0
389 141 -218 885 0
143 187 277 886 0
-248 291 -317 887 0
103 462 133 888 0
98 -411 465 889 0
-440 -482 -191 890 0
11 -318 315 891 0
-191 27 371 892 0
-278 -431 -260 893 0
403 -119 499 894 0
-479 -107 -339 895 0
137 446 364 896 0
-316 -91 365 897 0
-75 -44 293 898 0
160 -387 342 899 0
-140 9 416 900 0
450 -358 395 901 0
-345 -168 225 902 0
-169 179 -480 903 0
323 -17 163 904 0
-94 308 -303 905 0
357 -292 -108 906 0
-343 -318 219 907 0
-205 -33 18 908 0
-217 89 466 909 0
49 -212 335 910 0
-155 75 405 911 0
-306 30 -346 912 0
243 370 196 913 0
-98 -430 393 914 0
51 399 320 915 0
267 356 474 916 0
378 -462 -83 917 0
-186 -110 -404 918 0
-323 -123 -298 919 0
-170 -122 361 920 0
163 -457 -390 921 0
-396 144 243 922 0
112 -185 417 923 0
338 -155 398 924 0
-318 -8 15 925 0
-101 -126 -4 926 0
-417 -229 467 927 0
235 257 -343 928 0
386 -71 -240 929 0
321 436 -121 930 0
-181 329 -277 931 0
-465 16 -413 932 0
-103 46 -272 933 0
41 354 307 934 0
341 -232 248 935 0
-380 431 -360 936 0
-1 185 -335 937 0
381 141 -405 938 0
-446 73 217 939 0
333 148 -216 940 0
-46 -47 -34 941 0
-334 8 -125 942 0
-397 -1 413 943 0
-380 449 -95 944 0
-123 410 443 945 0
-91 -86 259 946 0
94 400 -392 947 0
471 342 -395 948 0
187 316 398 949 0
407 307 -492 950 0
132 60 322 951 0
21 59 62 952 0
-292 468 -224 953 0
-413 -344 -108 954 0
73 266 -89 955 0
276 292 424 956 0
111 -55 -400 957 0
-88 37 177 958 0
238 -289 339 959 0
122 99 -267 960 0
458 -436 277 961 0
33 -47 -149 962 0
-147 288 298 963 0
-487 -253 -490 964 0
-116 6 371 965 0
-111 349 365 966 0
-435 442 -205 967 0
389 -325 -320 968 0
52 192 53 969 0
161 437 -306 970 0
136 59 -435 971 0
-466 406 -289 972 0
-377 119 -16 973 0
-470 -412 126 974 0
91 279 -199 975 0
-318 -151 -244 976 0
201 95 475 977 0
54 339 -264 978 0
-212 -208 -351 979 0
130 -343 -108 980 0
-138 -450 -491 981 0
-486 166 -26 982 0
-315 241 -479 983 0
335 155 -297 984 0
-274 157 -364 985 0
-133 258 333 986 0
-269 -371 419 987 0
407 -27 243 988 0
-218 -404 170 989 0
-68 -248 -223 990 0
147 18 -160 991 0
200 -76 -80 992 0
-249 203 286 993 0
-88 98 -79 994 0
16 -424 306 995 0
-154 -197 420 996 0
147 403 289 997 0
477 -270 150 998 0
-40 -454 125 999 0
269 -81 -381 1000 0
488 -91 384 1001 0
-25 472 -194 1002 0
-38 364 304 1003 0
-385 83 91 1004 0
431 114 -418 1005 0
-303 -448 74 1006 0
136 -238 -337 1007 0
-120 -161 -439 1008 0
-13 -174 37 1009 0
-125 484 428 1010 0
405 -472 132 1011 0
-297 -199 -486 1012 0
250 482 -487 1013 0
186 -7 469 1014 0
-489 138 -332 1015 0
17 358 -86 1016 0
-181 -161 196 1017 0
-195 -272 -431 1018 0
30 321 280 1019 0
-57 -454 -337 1020 0
296 386 -51 1021 0
372 -160 -400 1022 0
-3 -123 436 1023 0
384 -70 91 1024 0
322 -474 434 1025 0
485 -13 -43 1026 0
-3 76 89 1027 0
28 -87 -159 1028 0
195 -146 -200 1029 0
-394 -454 -71 1030 0
-184 -132 384 1031 0
334 -119 89 1032 0
-432 390 -333 1033 0
21 6 -184 1034 0
-243 -58 82 1035 0
322 242 -288 1036 0
-500 176 -479 1037 0
47 48 -180 1038 0
-317 365 200 1039 0
340 12 489 1040 0
271 -61 400 1041 0
-275 48 -101 1042 0
479 -354 311 1043 0
-318 225 -44 1044 0
-178 333 261 1045 0
-292 319 -485 1046 0
478 181 -317 1047 0
-343 -468 395 1048 0
202 281 81 1049 0
406 -139 188 1050 0
201 -154 387 1051 0
-155 458 -331 1052 0
498 -317 -266 1053 0
337 -185 -211 1054 0
-266 115 122 1055 0
-165 -395 -133 1056 0
-64 -222 -180 1057 0
-23 160 -220 1058 0
270 100 -358 1059 0
331 488 -43 1060 0
207 431 449 1061 0
128 -220 -475 1062 0
-308 -303 131 1063 0
-477 -189 -254 1064 0
268 369 352 1065 0
203 -390 -323 1066 0
-49 204 230 1067 0
410 -493 57 1068 0
158 228 333 1069 0
-474 -236 -79 1070 0
245 339 142 1071 0
435 218 89 1072 0
-240 211 -407 1073 0
-349 370 -97 1074 0
-332 -342 -18 1075 0
-280 285 175 1076 0
395 392 -374 1077 0
-39 257 67 1078 0
28 -282 387 1079 0
313 -94 14 1080 0
-488 -281 489 1081 0
-300 192 242 1082 0
213 -58 -403 1083 0
-361 -115 -191 1084 0
391 402 -46 1085 0
253 -341 -446 1086 0
-260 259 -231 1087 0
185 -435 -117 1088 0
446 109 121 1089 0
241 -48 349 1090 0
-7 5 369 1091 0
-128 -144 -458 1092 0
13 22 -253 1093 0
-40 -203 77 1094 0
147 448 435 1095 0
-335 317 255 1096 0
500 -452 311 1097 0
339 -309 178 1098 0
-348 186 463 1099 0
-104 -95 -175 1100 0
194 -350 -480 1101 0
133 -25 -240 1102 0
-61 -175 -66 1103 0
347 -407 89 1104 0
382 101 -169 1105 0
259 73 355 1106 0
221 74 411 1107 0
387 408 201 1108 0
-149 -344 162 1109 0
-458 362 109 1110 0
223 384 258 1111 0
-230 -259 -173 1112 0
-86 80 65 1113 0
-243 219 16 1114 0
465 -466 -82 1115 0
-213 81 -411 1116 0
-289 -20 484 1117 0
117 128 480 1118 0
-335 -318 289 1119 0
-177 43 -204 1120 0
-405 -110 -236 1121 0
-500 353 149 1122 0
433 -223 467 1123 0
262 192 -464 1124 0
-491 448 235 1125 0
310 259 428 1126 0
173 471 349 1127 0
282 -313 12 1128 0
474 -391 -463 1129 0
436 -43 -479 1130 0
256 -243 -66 1131 0
-363 445 438 1132 0
-28 264 45 1133 0
-122 262 285 1134 0
130 -384 -232 1135 0
-107 -48 424 1136 0
-367 -338 307 1137 0
-276 -438 92 1138 0
-423 -402 70 1139 0
452 423 241 1140 0
-439 288 490 1141 0
-177 -391 272 1142 0
196 171 -293 1143 0
-499 67 76 1144 0
-216 -418 219 1145 0
118 -490 -401 1146 0
499 195 108 1147 0
103 -270 -237 1148 0
229 -411 -162 1149 0
-230 -62 -402 1150 0
60 271 -236 1151 0
-384 118 441 1152 0
99 415 22 1153 0
208 188 -300 1154 0
-218 -17 47 1155 0
417 -404 10 1156 0
237 -24 -483 1157 0
-36 -346 201 1158 0
457 -248 442 1159 0
-211 204 -465 1160 0
232 31 -94 1161 0
-275 257 -116 1162 0
-96 83 223 1163 0
420 -140 -238 1164 0
-265 147 -494 1165 0
-110 -427 334 1166 0
379 351 -22 1167 0
-420 422 -211 1168 0
-343 459 -268 1169 0
-134 70 -277 1170 0
-492 480 -456 1171 0
281 287 -6 1172 0
-442 -458 410 1173 0
9 42 -371 1174 0
-468 369 293 1175 0
-309 -428 -326 1176 0
-34 -468 -262 1177 0
405 10 -31 1178 0
-64 -216 -484 1179 0
-166 500 19 1180 0
-323 -251 -485 1181 0
-485 249 265 1182 0
488 336 -116 1183 0
-305 -106 -242 1184 0
369 442 -479 1185 0
-282 -496 -191 1186 0
-162 490 282 1187 0
248 -125 312 1188 0
335 48 253 1189 0
196 394 -453 1190 0
61 -416 490 1191 0
-149 -325 -234 1192 0
-334 -192 492 1193 0
-146 220 -314 1194 0
488 -223 114 1195 0
220 415 16 1196 0
382 391 -2 1197 0
-498 406 -207 1198 0
90 250 306 1199 0
194 -219 -238 1200 0
-265 143 -220 1201 0
253 162 -170 1202 0
-15 187 -54 1203 0
25 457 -91 1204 0
352 -471 -49 1205 0
-108 -92 308 1206 0
291 -175 -4 1207 0
-301 276 -116 1208 0
259 -360 30 1209 0
49 28 96 1210 0
-18 69 -497 1211 0
109 -236 -13 1212 0
-189 297 -9 1213 0
-94 -447 -458 1214 0
363 -53 -444 1215 0
-465 -413 -360 1216 0
-8 412 -128 1217 0
-438 -89 486 1218 0
-70 -166 24 1219 0
-487 -238 -222 1220 0
-201 -281 107 1221 0
-38 -16 -405 1222 0
342 -7 -209 1223 0
-352 318 47 1224 0
321 475 412 1225 0
-234 -368 264 1226 0
146 218 -313 1227 0
139 -404 398 1228 0
-213 -374 -140 1229 0
376 48 171 1230 0
-126 -268 60 1231 0
-194 178 95 1232 0
-84 216 240 1233 0
256 239 -112 1234 0
384 265 -175 1235 0
-499 -168 -426 1236 0
431 293 402 1237 0
96 110 -356 1238 0
-59 193 463 1239 0
414 -436 -20 1240 0
147 -19 -361 1241 0
386 -103 -306 1242 0
-143 284 429 1243 0
-372 -170 -299 1244 0
-81 183 -352 1245 0
32 287 -242 1246 0
188 -429 107 1247 0
484 353 128 1248 0
419 108 392 1249 0
402 -185 419 1250 0
-207 223 -67 1251 0
-111 -2 421 1252 0
-153 195 -248 1253 0
264 212 -14 1254 0
-429 -404 -126 1255 0
-375 -437 348 1256 0
-161 408 47 1257 0
-245 -244 455 1258 0
-346 -196 159 1259 0
-159 455 130 1260 0
94 425 -400 1261 0
-294 -31 374 1262 0
71 284 -154 1263 0
178 390 448 1264 0
-281 -115 490 1265 0
-372 -193 -42 1266 0
347 43 -256 1267 0
-393 -274 190 1268 0
230 5 -147 1269 0
-110 305 329 1270 0
441 -65 118 1271 0
26 142 260 1272 0
-64 -95 371 1273 0
-323 -72 -24 1274 0
-458 33 -146 1275 0
-331 -242 -271 1276 0
217 152 74 1277 0
-448 -268 132 1278 0
-149 47 438 1279 0
198 -460 -113 1280 0
-157 -166 46 1281 0
356 -452 -383 1282 0
-199 -299 309 1283 0
418 394 -40 1284 0
-452 243 -472 1285 0
249 1 -99 1286 0
-394 300 167 1287 0
-16 121 -489 1288 0
219 -339 -500 1289 0
-463 337 -98 1290 0
-331 -470 -398 1291 0
-13 -259 -380 1292 0
-392 -272 -499 1293 0
86 403 -180 1294 0
50 392 -307 1295 0
-372 -237 73 1296 0
-425 365 -441 1297 0
87 465 63 1298 0
-426 350 -411 1299 0
26 -250 -413 1300 0
-425 -55 79 1301 0
-253 132 298 1302 0
-238 327 411 1303 0
433 404 -249 1304 0
347 377 -294 1305 0
379 -421 -271 1306 0
-299 387 -364 1307 0
242 27 134 1308 0
314 -65 -362 1309 0
-219 194 85 1310 0
-418 -54 23 1311 0
-379 -82 31 1312 0
213 -218 28 1313 0
-236 253 -429 1314 0
-392 50 270 1315 0
-175 291 -47 1316 0
203 300 -163 1317 0
-255 -225 -422 1318 0
12 -341 1 1319 0
218 -263 74 1320 0
-464 -402 -400 1321 0
-60 -185 -440 1322 0
339 -400 247 1323 0
493 -301 -149 1324 0
-497 163 24 1325 0
292 235 402 1326 0
296 181 381 1327 0
299 135 -366 1328 0
354 -65 87 1329 0
275 -426 155 1330 0
188 243 357 1331 0
29 -21 -315 1332 0
-319 -491 -343 1333 0
316 39 79 1334 0
459 -81 -323 1335 0
1 320 -43 1336 0
219 487 -490 1337 0
-133 -32 -207 1338 0
44 -190 -487 1339 0
-171 202 -16 1340 0
171 351 458 1341 0
205 163 -131 1342 0
499 63 -456 1343 0
275 465 70 1344 0
-494 127 -478 1345 0
-441 -492 193 1346 0
-94 -449 -194 1347 0
252 -426 117 1348 0
262 -297 -209 1349 0
-109 -309 -257 1350 0
-234 -162 -130 1351 0
-115 -26 -80 1352 0
473 340 -372 1353 0
219 -298 471 1354 0
-117 -375 126 1355 0
193 215 292 1356 0
-102 310 -470 1357 0
-361 475 -264 1358 0
-354 -140 -37 1359 0
-99 -395 -7 1360 0
-253 -85 10 1361 0
-250 347 108 1362 0
391 410 442 1363 0
-274 221 -244 1364 0
-321 -136 3 1365 0
45 389 424 1366 0
385 378 257 1367 0
105 216 396 1368 0
21 362 -80 1369 0
354 494 -120 1370 0
3 445 294 1371 0
30 -72 386 1372 0
126 78 -361 1373 0
113 476 -139 1374 0
377 356 -455 1375 0
91 383 59 1376 0
491 257 481 1377 0
260 -139 -367 1378 0
-229 -491 202 1379 0
-212 -90 146 1380 0
-417 488 310 1381 0
-332 -201 457 1382 0
402 360 286 1383 0
484 47 231 1384 0
307 -442 -234 1385 0
-272 -75 -71 1386 0
-324 499 51 1387 0
-319 51 -167 1388 0
368 -20 -480 1389 0
-457 -451 -82 1390 0
-489 147 -227 1391 0
244 -336 256 1392 0
77 -243 -484 1393 0
162 111 -197 1394 0
9 467 -273 1395 0
345 -188 353 1396 0
400 420 -436 1397 0
-166 -117 85 1398 0
299 -468 -155 1399 0
392 -300 461 1400 0
-254 -362 -333 1401 0
-64 -379 49 1402 0
9 -386 295 1403 0
-292 -92 258 1404 0
-492 206 13 1405 0
199 -390 -18 1406 0
-470 80 212 1407 0
-488 -287 -267 1408 0
134 332 -127 1409 0
-440 -308 301 1410 0
-431 -432 160 1411 0
-105 -136 201 1412 0
341 164 -195 1413 0
-147 478 -96 1414 0
-463 271 -479 1415 0
353 83 -321 1416 0
-150 -356 252 1417 0
120 -387 -475 1418 0
73 28 351 1419 0
-65 -6 398 1420 0
-106 -330 489 1421 0
-332 -193 -440 1422 0
329 370 -344 1423 0
-141 371 -38 1424 0
393 43 266 1425 0
173 -116 -355 1426 0
427 218 88 1427 0
-25 -267 -28 1428 0
-84 -161 383 1429 0
-480 457 321 1430 0
32 -472 -371 1431 0
337 147 166 1432 0
-101 -322 374 1433 0
-182 -100 155 1434 0
250 190 -256 1435 0
336 -96 497 1436 0
-404 300 471 1437 0
-138 2 -348 1438 0
227 264 169 1439 0
92 252 -219 1440 0
-454 463 428 1441 0
390 489 65 1442 0
81 75 -209 1443 0
59 -306 243 1444 0
131 -61 -430 1445 0
222 425 15 1446 0
488 -68 -138 1447 0
-204 -25 -368 1448 0
-229 139 -144 1449 0
316 -278 -311 1450 0
-325 -141 23 1451 0
310 -5 316 1452 0
375 360 256 1453 0
264 -215 244 1454 0
271 -294 -243 1455 0
110 87 239 1456 0
-109 -287 393 1457 0
277 -378 -224 1458 0
-500 361 -288 1459 0
-409 -5 179 1460 0
-42 -336 102 1461 0
465 296 -9 1462 0
-279 67 -163 1463 0
-53 194 178 1464 0
210 458 386 1465 0
-28 461 -471 1466 0
-285 237 -41 1467 0
-422 370 48 1468 0
-67 251 31 1469 0
420 28 -425 1470 0
-418 357 464 1471 0
147 478 -443 1472 0
104 149 243 1473 0
-467 -428 -477 1474 0
-213 -343 14 1475 0
-410 -256 255 1476 0
319 498 -389 1477 0
-133 -220 -307 1478 0
-8 187 467 1479 0
-226 442 -246 1480 0
-191 479 5 1481 0
197 -117 310 1482 0
-304 4 322 1483 0
265 -59 -72 1484 0
419 -483 -22 1485 0
85 467 -173 1486 0
-8 -312 -364 1487 0
454 185 174 1488 0
139 -352 -462 1489 0
-345 412 -198 1490 0
86 431 -382 1491 0
82 275 7 1492 0
-173 -224 438 1493 0
475 330 -422 1494 0
26 -356 -394 1495 0
-435 323 146 1496 0
425 407 132 1497 0
292 -266 -54 1498 0
113 -263 -48 1499 0
-482 219 -206 1500 0
-29 55 122 1501 0
157 234 285 1502 0
193 -362 -14 1503 0
36 487 355 1504 0
-364 -459 174 1505 0
425 26 21 1506 0
-330 -225 -177 1507 0
-112 451 156 1508 0
-166 479 -196 1509 0
77 -297 106 1510 0
289 -180 104 1511 0
476 -99 -49 1512 0
397 426 394 1513 0
-141 15 -158 1514 0
492 105 113 1515 0
-289 41 215 1516 0
482 -65 403 1517 0
220 -287 -11 1518 0
402 166 330 1519 0
-373 421 485 1520 0
431 379 -193 1521 0
-438 363 408 1522 0
-485 311 337 1523 0
-416 -490 205 1524 0
-308 -401 232 1525 0
-416 184 -404 1526 0
295 -261 -395 1527 0
455 -110 111 1528 0
-237 100 312 1529 0
372 79 407 1530 0
340 -477 258 1531 0
-85 -251 138 1532 0
35 340 -15 1533 0
147 135 -425 1534 0
323 8 419 1535 0
-303 314 46 1536 0
-81 64 -242 1537 0
132 226 171 1538 0
-227 -235 374 1539 0
-192 306 213 1540 0
165 -54 -293 1541 0
-379 174 -368 1542 0
-273 107 185 1543 0
467 240 374 1544 0
363 238 -186 1545 0
-337 -431 -357 1546 0
-114 210 266 1547 0
10 391 442 1548 0
292 -336 -344 1549 0
288 252 -312 1550 0
-89 288 402 1551 0
151 -389 313 1552 0
-103 471 343 1553 0
396 417 -494 1554 0
-248 409 220 1555 0
-153 -220 340 1556 0
-281 -312 317 1557 0
-300 116 -58 1558 0
202 440 -394 1559 0
104 361 -145 1560 0
-63 71 -228 1561 0
317 -241 236 1562 0
18 -70 -12 1563 0
433 -63 493 1564 0
-322 -196 420 1565 0
140 401 -67 1566 0
479 -431 415 1567 0
165 -211 -375 1568 0
100 -218 -88 1569 0
5 40 32 1570 0
-356 -25 -297 1571 0
-182 228 407 1572 0
449 -13 54 1573 0
-244 453 303 1574 0
430 -20 -340 1575 0
-306 68 -80 1576 0
267 -156 -205 1577 0
-256 178 -185 1578 0
-80 267 243 1579 0
-79 -62 128 1580 0
-266 59 23 1581 0
-410 74 128 1582 0
397 -262 -298 1583 0
321 -254 -275 1584 0
47 435 204 1585 0
-493 -284 210 1586 0
64 338 -33 1587 0
177 -214 203 1588 0
-292 -142 -44 1589 0
475 -324 404 1590 0
326 443 -448 1591 0
-331 -8 212 1592 0
-124 -205 -437 1593 0
172 -190 -309 1594 0
-311 72 256 1595 0
-132 474 -109 1596 0
138 216 -102 1597 0
-238 -354 156 1598 0
-162 -253 14 1599 0
90 -374 6 1600 0
238 193 -132 1601 0
-420 -142 500 1602 0
-49 -47 -373 1603 0
-118 -22 -243 1604 0
188 -331 -454 1605 0
-353 462 -74 1606 0
184 440 -294 1607 0
-399 -73 186 1608 0
29 -447 406 1609 0
3 23 123 1610 0
464 -392 472 1611 0
395 313 245 1612 0
56 312 278 1613 0
490 -176 -352 1614 0
-399 -424 -487 1615 0
-353 -54 -259 1616 0
206 -443 -472 1617 0
-488 -164 265 1618 0
-374 -32 358 1619 0
178 442 186 1620 0
-219 29 -15 1621 0
407 195 -234 1622 0
-409 -376 -448 1623 0
-354 -351 64 1624 0
-375 212 -291 1625 0
-72 351 223 1626 0
-129 -130 225 1627 0
227 -102 92 1628 0
-119 62 -315 1629 0
474 -396 343 1630 0
-471 -83 476 1631 0
-188 329 -483 1632 0
439 219 -429 1633 0
101 -470 -6 1634 0
-309 443 167 1635 0
403 202 99 1636 0
-151 -304 -273 1637 0
21 243 -90 1638 0
86 286 454 1639 0
110 107 373 1640 0
109 -67 -421 1641 0
-53 457 481 1642 0
436 27 236 1643 0
-260 -68 -239 1644 0
24 87 -414 1645 0
259 171 -346 1646 0
453 -420 339 1647 0
73 97 291 1648 0
-316 63 -437 1649 0
360 -198 291 1650 0
269 214 -422 1651 0
-490 401 -11 1652 0
-461 454 -447 1653 0
-34 -324 -418 1654 0
331 244 -284 1655 0
20 216 178 1656 0
-167 177 182 1657 0
-499 -427 146 1658 0
-105 -313 218 1659 0
278 41 320 1660 0
-333 -51 -351 1661 0
207 -34 -246 1662 0
-438 372 453 1663 0
-380 -86 -450 1664 0
388 444 -154 1665 0
235 -396 -38 1666 0
-313 -291 -189 1667 0
-169 -152 -103 1668 0
-181 -254 -392 1669 0
350 348 27 1670 0
52 234 211 1671 0
228 -308 264 1672 0
246 132 -133 1673 0
341 -339 -168 1674 0
74 -405 84 1675 0
105 399 68 1676 0
392 -485 263 1677 0
-498 255 52 1678 0
-346 -430 -426 1679 0
407 27 328 1680 0
-413 -379 31 1681 0
-45 146 449 1682 0
477 -475 -403 1683 0
447 -304 -44 1684 0
-287 378 -348 1685 0
458 -157 -428 1686 0
371 76 -100 1687 0
-120 227 330 1688 0
-183 -32 -36 1689 0
-148 282 10 1690 0
-168 189 -452 1691 0
339 -54 -404 1692 0
-387 -453 111 1693 0
-438 -432 183 1694 0
219 15 176 1695 0
324 -405 11 1696 0
413 -303 -242 1697 0
27 -271 -414 1698 0
-278 -156 -179 1699 0
-42 343 -215 1700 0
-344 272 228 1701 0
-205 162 187 1702 0
319 236 277 1703 0
429 178 -353 1704 0
67 202 124 1705 0
152 -328 311 1706 0
297 394 81 1707 0
-107 90 -13 1708 0
478 260 452 1709 0
-492 -232 -41 1710 0
-206 -120 381 1711 0
477 -274 -390 1712 0
225 -282 348 1713 0
486 -427 398 1714 0
-298 -197 -149 1715 0
406 -202 -330 1716 0
-213 -238 -282 1717 0
34 286 -179 1718 0
-465 -234 389 1719 0
3 232 317 1720 0
-8 263 -52 1721 0
-385 130 329 1722 0
200 287 -18 1723 0
284 -245 318 1724 0
45 -355 -363 1725 0
-228 136 -249 1726 0
-381 263 135 1727 0
220 216 452 1728 0
-197 5 489 1729 0
311 313 364 1730 0
-214 372 -271 1731 0
412 -16 -336 1732 0
-332 253 -265 1733 0
-408 429 277 1734 0
464 378 291 1735 0
25 -226 -144 1736 0
21 304 132 1737 0
284 -397 426 1738 0
281 394 430 1739 0
20 476 321 1740 0
-283 145 -76 1741 0
144 -59 260 1742 0
420 -374 385 1743 0
-318 93 56 1744 0
156 395 361 1745 0
164 290 -109 1746 0
-221 137 -291 1747 0
35 285 204 1748 0
88 472 249 1749 0
484 449 447 1750 0
105 353 23 1751 0
243 287 -189 1752 0
65 -98 -275 1753 0
-305 218 55 1754 0
-238 -424 -391 1755 0
-4 -404 -50 1756 0
160 -356 36 1757 0
273 132 -226 1758 0
386 269 103 1759 0
-87 74 -384 1760 0
-498 131 -460 1761 0
411 256 -385 1762 0
-194 335 389 1763 0
141 -69 463 1764 0
275 463 230 1765 0
-481 487 426 1766 0
-90 72 -179 1767 0
18 -222 110 1768 0
-218 58 -451 1769 0
-219 192 -49 1770 0
14 389 -80 1771 0
-41 -173 -336 1772 0
-111 230 -180 1773 0
446 66 121 1774 0
129 -350 -247 1775 0
300 196 -206 1776 0
-312 -223 -142 1777 0
-417 -260 -1 1778 0
-97 -112 464 1779 0
-66 -134 430 1780 0
243 -67 -189 1781 0
-431 142 -225 1782 0
-275 471 481 1783 0
-253 -437 -73 1784 0
-492 318 425 1785 0
-426 496 -354 1786 0
-421 409 148 1787 0
150 -113 341 1788 0
-7 -301 -451 1789 0
335 147 182 1790 0
54 409 24 1791 0
467 263 185 1792 0
94 495 -6 1793 0
387 -175 -129 1794 0
-113 -357 -436 1795 0
194 -103 -294 1796 0
-414 486 140 1797 0
-340 86 326 1798 0
-435 369 205 1799 0
211 -305 -290 1800 0
-264 242 337 1801 0
-416 406 271 1802 0
-25 22 462 1803 0
-442 -271 -169 1804 0
-65 93 7 1805 0
-325 54 85 1806 0
284 12 352 1807 0
63 66 380 1808 0
352 336 400 1809 0
-500 -384 331 1810 0
-216 -261 -435 1811 0
-393 -298 -83 1812 0
440 -172 52 1813 0
65 -222 219 1814 0
-126 306 -106 1815 0
386 -45 396 1816 0
-492 358 307 1817 0
242 91 429 1818 0
303 71 -355 1819 0
149 495 -349 1820 0
-227 -292 438 1821 0
-461 322 4 1822 0
349 -227 -454 1823 0
253 -123 -161 1824 0
-243 -432 -41 1825 0
51 -266 350 1826 0
27 -477 167 1827 0
-157 -80 -121 1828 0
18 -397 457 1829 0
-492 7 35 1830 0
-88 399 -154 1831 0
331 -82 250 1832 0
362 397 -308 1833 0
-62 -432 -341 1834 0
-310 146 325 1835 0
397 409 155 1836 0
465 460 241 1837 0
168 -74 -95 1838 0
-365 -421 59 1839 0
-15 -485 418 1840 0
-139 -206 -366 1841 0
-35 -194 -5 1842 0
-373 246 -223 1843 0
219 309 290 1844 0
459 -19 -460 1845 0
238 -365 -84 1846 0
-148 157 -132 1847 0
-80 489 307 1848 0
-418 292 -314 1849 0
263 187 428 1850 0
399 -311 436 1851 0
-117 192 -24 1852 0
110 350 -181 1853 0
356 -434 -89 1854 0
248 473 352 1855 0
456 52 -208 1856 0
317 190 -355 1857 0
412 -496 92 1858 0
233 -476 376 1859 0
-29 370 230 1860 0
-181 427 -477 1861 0
-295 -82 -130 1862 0
-470 149 -204 1863 0
-272 33 -129 1864 0
164 346 -137 1865 0
197 -482 -85 1866 0
-348 -186 48 1867 0
-225 65 498 1868 0
51 110 -77 1869 0
355 457 484 1870 0
-98 134 339 1871 0
-269 -151 -379 1872 0
-479 -59 366 1873 0
350 207 377 1874 0
359 470 -392 1875 0
-267 454 120 1876 0
497 -411 -461 1877 0
-224 71 320 1878 0
-198 -426 99 1879 0
-94 368 142 1880 0
144 473 -1 1881 0
421 -167 -142 1882 0
-201 -105 -215 1883 0
-14 338 57 1884 0
114 -88 -71 1885 0
50 -335 11 1886 0
181 -331 313 1887 0
424 -404 -439 1888 0
-45 219 220 1889 0
387 48 212 1890 0
-266 -175 425 1891 0
327 270 403 1892 0
-215 327 -298 1893 0
-303 409 341 1894 0
16 -393 -149 1895 0
132 175 423 1896 0
-109 226 169 1897 0
194 32 -351 1898 0
444 248 -387 1899 0
445 57 -437 1900 0
292 -10 -256 1901 0
-145 355 -451 1902 0
471 -459 433 1903 0
327 -278 405 1904 0
-122 -235 287 1905 0
-16 -335 -54 1906 0
-394 -330 -437 1907 0
111 136 442 1908 0
-369 319 -289 1909 0
-410 -137 5 1910 0
-406 -279 431 1911 0
-84 32 -429 1912 0
-412 253 92 1913 0
-369 63 -204 1914 0
115 -330 -135 1915 0
-379 -405 -132 1916 0
-490 -239 -445 1917 0
431 176 -257 1918 0
67 162 294 1919 0
125 -224 276 1920 0
366 -17 -418 1921 0
420 269 -333 1922 0
-472 -43 -219 1923 0
87 -375 444 1924 0
-35 -358 91 1925 0
467 155 222 1926 0
-289 260 190 1927 0
396 -462 232 1928 0
-252 -16 399 1929 0
-242 -214 375 1930 0
-208 2 198 1931 0
-174 265 245 1932 0
-155 30 -470 1933 0
255 161 426 1934 0
459 344 -454 1935 0
-407 171 -385 1936 0
174 -252 486 1937 0
-123 -9 305 1938 0
53 456 259 1939 0
-491 -231 10 1940 0
261 438 290 1941 0
-359 332 151 1942 0
-120 -246 306 1943 0
200 -51 178 1944 0
47 -109 -379 1945 0
-262 -461 376 1946 0
93 76 401 1947 0
-447 -349 420 1948 0
-450 115 -378 1949 0
49 176 -446 1950 0
-131 -435 470 1951 0
139 -418 371 1952 0
128 -129 235 1953 0
372 263 51 1954 0
-303 354 479 1955 0
174 -463 466 1956 0
414 381 172 1957 0
188 -159 -416 1958 0
-18 244 -418 1959 0
55 178 -59 1960 0
-312 -334 138 1961 0
35 436 49 1962 0
375 -123 -302 1963 0
227 154 280 1964 0
108 23 441 1965 0
49 -198 484 1966 0
99 206 103 1967 0
-474 -321 -93 1968 0
-193 -4 -264 1969 0
420 96 10 1970 0
-6 479 492 1971 0
-6 82 -349 1972 0
-411 467 -282 1973 0
271 -191 181 1974 0
-368 -385 -325 1975 0
304 390 20 1976 0
46 143 394 1977 0
222 221 -395 1978 0
439 -284 -144 1979 0
-465 6 -381 1980 0
-445 -187 446 1981 0
-138 205 412 1982 0
224 488 -71 1983 0
-400 -82 -392 1984 0
91 -354 202 1985 0
312 304 138 1986 0
322 172 414 1987 0
-335 -437 -204 1988 0
-473 -254 450 1989 0
-427 69 -9 1990 0
493 -271 -209 1991 0
-488 449 27 1992 0
-450 176 -127 1993 0
-496 84 -426 1994 0
-332 -460 -57 1995 0
373 257 -454 1996 0
275 -14 108 1997 0
-235 259 -248 1998 0
414 93 314 1999 0
-430 -432 -352 2000 0
227 214 3 2001 0
-392 84 -461 2002 0
-97 -298 -154 2003 0
5 -51 490 2004 0
318 -429 322 2005 0
412 -10 57 2006 0
369 -372 -25 2007 0
87 -300 360 2008 0
253 -447 -81 2009 0
452 52 410 2010 0
131 -166 -371 2011 0
167 -309 335 2012 0
188 323 340 2013 0
267 381 -436 2014 0
-89 294 -435 2015 0
-135 -119 -237 2016 0
188 291 -384 2017 0
395 170 192 2018 0
190 92 -264 2019 0
-346 471 434 2020 0
346 438 350 2021 0
247 -104 63 2022 0
-381 434 -490 2023 0
-50 -425 275 2024 0
424 276 241 2025 0
109 444 -96 2026 0
-172 366 -481 2027 0
-417 -392 -90 2028 0
417 -228 393 2029 0
197 -59 -71 2030 0
274 194 226 2031 0
162 -266 39 2032 0
275 200 130 2033 0
344 287 -58 2034 0
-147 105 -31 2035 0
-193 -227 82 2036 0
-79 83 64 2037 0
-177 268 74 2038 0
153 240 63 2039 0
-196 -338 77 2040 0
150 -275 130 2041 0
231 -31 186 2042 0
-219 366 -486 2043 0
147 237 -24 2044 0
-407 330 304 2045 0
-59 202 197 2046 0
-276 275 -385 2047 0
-34 413 -296 2048 0
-435 158 43 2049 0
-197 71 -383 2050 0
93 84 -496 2051 0
134 263 73 2052 0
-220 405 -63 2053 0
-294 197 -66 2054 0
127 293 290 2055 0
73 459 -450 2056 0
-108 243 -1 2057 0
-480 116 247 2058 0
361 -224 -53 2059 0
131 -291 264 2060 0
242 -437 -118 2061 0
129 308 154 2062 0
-329 -155 223 2063 0
51 432 109 2064 0
-168 -80 -86 2065 0
-153 -183 67 2066 0
388 -383 7 2067 0
355 -56 165 2068 0
-458 433 -279 2069 0
-192 189 273 2070 0
-494 -296 -400 2071 0
-418 -483 -428 2072 0
-188 336 -453 2073 0
30 -264 225 2074 0
-183 318 -288 2075 0
498 335 -111 2076 0
-157 179 369 2077 0
199 366 -196 2078 0
-183 -46 -366 2079 0
294 482 408 2080 0
-318 -5 -490 2081 0
-116 204 187 2082 0
-68 -247 -104 2083 0
-389 116 -476 2084 0
402 -111 212 2085 0
302 -320 -226 2086 0
475 -199 -402 2087 0
-177 19 -281 2088 0
-130 -282 -484 2089 0
70 332 394 2090 0
-42 60 -296 2091 0
-341 281 -295 2092 0
-131 -280 -227 2093 0
310 333 -441 2094 0
470 -255 447 2095 0
-491 -401 66 2096 0
-400 -438 -98 2097 0
-365 -249 464 2098 0
-466 -152 117 2099 0
491 211 -3 2100 0
-350 -347 140 2101 0
-299 -14 292 2102 0
-40 71 445 2103 0
-9 -114 405 2104 0
-13 -479 -169 2105 0
202 -146 -388 2106 0
-287 -286 -481 2107 0
163 450 443 2108 0
-130 246 -398 2109 0
-460 346 376 2110 0
171 58 359 2111 0
-256 315 -309 2112 0
-83 94 -456 2113 0
417 40 137 2114 0
-430 22 214 2115 0
466 500 358 2116 0
-68 255 -183 2117 0
-24 -467 175 2118 0
-29 -267 122 2119 0
485 321 -43 2120 0
198 361 230 2121 0
161 475 74 2122 0
-64 -213 467 2123 0
133 380 428 2124 0
-196 -233 75 2125 0
186 -343 500 2126 0
100 -498 103 2127 0
-296 -370 419 2128 0
-359 59 -40 2129 0
-138 202 -121 2130 0
339 103 -414 2131 0
-323 -232 152 2132 0
-5 108 489 2133 0
263 -391 71 2134 0
422 -34 -23 2135 0
-270 -50 448 2136 0
-410 -358 58 2137 0
-399 391 -468 2138 0
-460 311 -188 2139 0
334 448 -336 2140 0
-141 307 -256 2141 0
120 174 -54 2142 0
383 -186 -384 2143 0
-163 -463 -262 2144 0
89 -430 46 2145 0
-60 452 145 2146 0
306 310 -259 2147 0
-406 271 27 2148 0
212 -86 -254 2149 0
372 -366 -137 2150 0
437 -372 -350 2151 0
342 384 366 2152 0
409 -200 -188 2153 0
214 394 -157 2154 0
165 266 -35 2155 0
65 448 -145 2156 0
-89 -432 179 2157 0
56 -178 -263 2158 0
-255 -20 215 2159 0
265 41 423 2160 0
-3 -437 227 2161 0
-375 -26 -472 2162 0
-62 55 332 2163 0
318 322 241 2164 0
-145 41 192 2165 0
170 377 -478 2166 0
-176 289 382 2167 0
-341 -396 -476 2168 0
440 -104 199 2169 0
396 -347 143 2170 0
455 -12 327 2171 0
-124 229 -97 2172 0
-340 -24 128 2173 0
75 -67 475 2174 0
26 430 -382 2175 0
420 -54 -7 2176 0
-199 417 227 2177 0
497 20 -431 2178 0
367 -464 -219 2179 0
76 -334 -225 2180 0
486 -413 -232 2181 0
12 -37 167 2182 0
-178 16 476 2183 0
283 -492 -6 2184 0
-63 -204 -299 2185 0
224 238 239 2186 0
-304 59 -373 2187 0
27 431 298 2188 0
-373 43 -254 2189 0
-50 317 -407 2190 0
201 -489 153 2191 0
198 -255 183 2192 0
213 302 415 2193 0
-283 -302 338 2194 0
-94 224 317 2195 0
9 28 -408 2196 0
144 -379 415 2197 0
-432 -370 -3 2198 0
-268 110 127 2199 0
140 -54 -254 2200 0
77 21 35 2201 0
66 411 117 2202 0
-205 -325 -63 2203 0
52 -427 -246 2204 0
-248 -274 -445 2205 0
-423 -12 297 2206 0
-65 410 -317 2207 0
306 -440 120 2208 0
-192 226 377 2209 0
-180 -490 -53 2210 0
-131 114 276 2211 0
374 -148 -91 2212 0
496 -214 111 2213 0
-369 -318 477 2214 0
-150 368 -273 2215 0
482 -161 -19 2216 0
67 -304 453 2217 0
-8 -410 -390 2218 0
-37 -168 423 2219 0
-349 359 -278 2220 0
481 -32 -118 2221 0
-94 -7 254 2222 0
85 221 -295 2223 0
-450 -208 397 2224 0
-282 -486 152 2225 0
-353 -467 -197 2226 0
64 -384 224 2227 0
255 -299 417 2228 0
324 -407 -393 2229 0
-133 145 -26 2230 0
195 -171 461 2231 0
420 368 335 2232 0
-92 -328 456 2233 0
232 -267 -353 2234 0
-416 -391 275 2235 0
83 434 -20 2236 0
293 394 482 2237 0
498 -125 -62 2238 0
122 233 -344 2239 0
100 -238 -145 2240 0
333 -264 -218 2241 0
18 -186 -349 2242 0
143 399 -393 2243 0
173 -278 -46 2244 0
-335 -194 94 2245 0
455 198 220 2246 0
260 199 447 2247 0
-64 362 219 2248 0
-282 440 -492 2249 0
-314 -313 -125 2250 0
-451 -497 -412 2251 0
-125 11 487 2252 0
51 -168 -9 2253 0
-486 263 22 2254 0
231 -34 -324 2255 0
260 -201 339 2256 0
382 464 -297 2257 0
-319 -407 163 2258 0
-386 480 184 2259 0
-176 207 -246 2260 0
-150 -67 31 2261 0
351 428 481 2262 0
453 96 -342 2263 0
-83 -278 68 2264 0
-252 369 -195 2265 0
-498 123 440 2266 0
-232 -381 -195 2267 0
-456 -274 -473 2268 0
52 77 -489 2269 0
63 80 246 2270 0
-300 -384 -333 2271 0
211 150 -368 2272 0
-118 -473 -441 2273 0
466 -19 66 2274 0
-336 -9 -141 2275 0
-116 -238 -380 2276 0
-93 -437 286 2277 0
-388 75 13 2278 0
364 219 499 2279 0
-120 -422 -239 2280 0
-483 350 115 2281 0
-56 -359 364 2282 0
-89 -227 -237 2283 0
-423 -428 -440 2284 0
-79 -56 30 2285 0
-381 21 -155 2286 0
405 -218 -45 2287 0
-261 54 -133 2288 0
-176 209 445 2289 0
-277 -111 97 2290 0
-267 -252 -339 2291 0
-183 -482 -23 2292 0
351 -302 444 2293 0
-124 324 -353 2294 0
300 -150 407 2295 0
-101 433 -26 2296 0
406 434 -343 2297 0
-383 108 347 2298 0
-416 117 -269 2299 0
367 -144 -389 2300 0
278 -330 -70 2301 0
400 250 370 2302 0
136 -110 164 2303 0
-40 459 -230 2304 0
-231 386 370 2305 0
-116 -395 -164 2306 0
340 42 -37 2307 0
435 -137 -311 2308 0
236 -353 458 2309 0
-107 444 -339 2310 0
-241 76 25 2311 0
-433 452 -106 2312 0
-91 39 285 2313 0
-25 221 364 2314 0
406 75 -229 2315 0
87 10 472 2316 0
425 62 -343 2317 0
485 331 -343 2318 0
79 -188 316 2319 0
443 -361 276 2320 0
180 -140 20 2321 0
356 10 -433 2322 0
202 -72 -298 2323 0
-37 419 -236 2324 0
-148 -137 348 2325 0
244 278 37 2326 0
128 -324 -190 2327 0
-343 -101 415 2328 0
-87 -48 242 2329 0
-413 465 228 2330 0
234 57 -26 2331 0
184 -257 236 2332 0
325 -420 -318 2333 0
-49 121 -441 2334 0
374 -472 63 2335 0
-436 -193 337 2336 0
-175 -412 330 2337 0
-305 -401 -464 2338 0
-378 -72 302 2339 0
-353 -312 -68 2340 0
470 -472 -208 2341 0
157 -269 -398 2342 0
-247 11 132 2343 0
-24 441 217 2344 0
5 421 -24 2345 0
5 -468 376 2346 0
-475 424 -275 2347 0
83 287 -129 2348 0
438 -149 -123 2349 0
-196 229 150 2350 0
-70 -94 -187 2351 0
22 -171 -476 2352 0
-49 356 -134 2353 0
120 -447 459 2354 0
353 311 34 2355 0
378 76 49 2356 0
418 451 -382 2357 0
37 -209 128 2358 0
-72 -7 306 2359 0
-408 -405 -52 2360 0
-82 137 -376 2361 0
-203 92 159 2362 0
-71 284 -471 2363 0
491 480 237 2364 0
173 193 -20 2365 0
367 -196 -37 2366 0
154 -14 426 2367 0
-108 154 -332 2368 0
350 -197 171 2369 0
-381 -136 120 2370 0
-445 -333 161 2371 0
309 420 365 2372 0
225 -54 201 2373 0
447 299 -6 2374 0
-228 66 31 2375 0
-125 489 -377 2376 0
197 51 -81 2377 0
-477 -431 -458 2378 0
163 227 81 2379 0
413 -195 -357 2380 0
372 -73 -338 2381 0
-319 412 -334 2382 0
146 54 143 2383 0
-6 450 416 2384 0
-46 338 -9 2385 0
-20 469 269 2386 0
-437 175 232 2387 0
-325 -42 177 2388 0
292 -411 -392 2389 0
83 30 -368 2390 0
310 173 150 2391 0
-141 -450 409 2392 0
492 -77 -478 2393 0
-273 -356 285 2394 0
-380 -495 -154 2395 0
155 199 -305 2396 0
-106 -129 202 2397 0
-241 -259 267 2398 0
326 -492 -327 2399 0
349 -498 394 2400 0
58 -414 -407 2401 0
-51 81 -90 2402 0
-35 291 261 2403 0
-14 473 -73 2404 0
-287 -390 -215 2405 0
-101 46 -31 2406 0
379 -383 451 2407 0
265 224 -299 2408 0
-422 300 311 2409 0
414 39 -481 2410 0
280 223 -311 2411 0
-228 141 -382 2412 0
-190 -435 357 2413 0
301 -254 139 2414 0
84 -382 192 2415 0
-124 -83 -375 2416 0
-107 359 328 2417 0
414 -195 139 2418 0
-395 435 21 2419 0
-361 -466 425 2420 0
-406 -199 -473 2421 0
-79 393 -210 2422 0
-189 -52 -383 2423 0
495 11 315 2424 0
107 -401 125 2425 0
6 -436 115 2426 0
-403 480 425 2427 0
499 369 46 2428 0
-343 -317 -218 2429 0
445 -351 -363 2430 0
-318 252 456 2431 0
301 357 248 2432 0
11 -82 139 2433 0
-24 223 -470 2434 0
125 299 -341 2435 0
251 -261 -213 2436 0
344 497 132 2437 0
-3 265 479 2438 0
347 102 -88 2439 0
-245 416 425 2440 0
-298 -367 -468 2441 0
-295 -240 178 2442 0
-99 209 380 2443 0
69 237 -100 2444 0
278 306 -404 2445 0
-362 -72 110 2446 0
109 434 -102 2447 0
-16 246 -460 2448 0
-315 199 408 2449 0
148 436 -71 2450 0
-265 -383 440 2451 0
129 -23 -200 2452 0
-253 474 -269 2453 0
216 360 -2 2454 0
235 119 -313 2455 0
257 326 -405 2456 0
-353 215 466 2457 0
-290 337 -292 2458 0
159 337 157 2459 0
414 349 -405 2460 0
106 417 162 2461 0
500 239 -258 2462 0
394 299 95 2463 0
-58 -225 -7 2464 0
-88 93 -32 2465 0
301 -161 -251 2466 0
-270 253 -214 2467 0
125 14 -485 2468 0
35 -493 -297 2469 0
285 127 -203 2470 0
-384 219 -380 2471 0
-52 274 408 2472 0
-3 -203 -351 2473 0
473 -282 -309 2474 0
336 219 388 2475 0
498 -424 372 2476 0
327 28 24 2477 0
-200 35 -150 2478 0
469 356 340 2479 0
-81 -446 366 2480 0
-137 -143 -313 2481 0
33 24 124 2482 0
-217 -126 -138 2483 0
282 -69 281 2484 0
-321 -322 439 2485 0
-228 -15 -498 2486 0
383 372 414 2487 0
9 -432 358 2488 0
276 -391 105 2489 0
357 -223 113 2490 0
-81 444 -337 2491 0
-300 -285 381 2492 0
-244 239 -55 2493 0
-339 -217 -454 2494 0
-262 -454 401 2495 0
-273 292 93 2496 0
129 -466 303 2497 0
-4 266 -69 2498 0
90 -166 -195 2499 0
498 -449 480 2500 0
207 -462 -80 2501 0
301 -45 -410 2502 0
-161 496 -103 2503 0
-214 88 -51 2504 0
-72 304 162 2505 0
-431 -439 -481 2506 0
336 323 -31 2507 0
-67 458 299 2508 0
-263 -473 363 2509 0
-117 -209 -307 2510 0
387 -123 29 2511 0
-190 99 270 2512 0
485 -317 -138 2513 0
-276 -13 -104 2514 0
-325 345 339 2515 0
-398 156 -403 2516 0
368 -437 -454 2517 0
-347 -275 139 2518 0
320 -169 130 2519 0
396 -486 20 2520 0
301 -78 -150 2521 0
56 277 -247 2522 0
-23 -17 -291 2523 0
484 358 182 2524 0
-465 -137 -58 2525 0
-445 -412 -413 2526 0
406 -161 -163 2527 0
326 -98 211 2528 0
-173 427 -99 2529 0
-437 196 -169 2530 0
223 -196 319 2531 0
-395 420 -76 2532 0
-187 -147 447 2533 0
116 99 463 2534 0
37 11 204 2535 0
-329 163 365 2536 0
55 113 445 2537 0
-499 -328 305 2538 0
431 -137 -75 2539 0
-351 -435 270 2540 0
-442 427 379 2541 0
-346 135 -194 2542 0
-61 414 -298 2543 0
-89 -145 -39 2544 0
465 -399 475 2545 0
-375 290 -280 2546 0
217 55 -346 2547 0
-112 -411 72 2548 0
-196 -449 310 2549 0
-342 -498 63 2550 0
-113 146 -210 2551 0
-50 -160 104 2552 0
-486 -283 403 2553 0
63 -232 -337 2554 0
479 422 -78 2555 0
-124 -483 -411 2556 0
-218 450 136 2557 0
-455 174 -376 2558 0
-65 -321 -171 2559 0
-351 6 -163 2560 0
-492 -352 331 2561 0
462 388 325 2562 0
-460 295 308 2563 0
-288 -445 -102 2564 0
-426 -66 -136 2565 0
478 -356 -273 2566 0
124 375 -277 2567 0
-275 -216 -147 2568 0
340 241 -345 2569 0
-484 -246 41 2570 0
-241 -35 -158 2571 0
-264 -201 92 2572 0
400 419 -210 2573 0
-464 -107 -10 2574 0
89 225 -201 2575 0
-89 78 -328 2576 0
260 -383 -319 2577 0
449 -397 105 2578 0
-480 -417 110 2579 0
-485 -125 304 2580 0
-232 252 358 2581 0
-244 -287 17 2582 0
163 -82 178 2583 0
-393 388 163 2584 0
444 492 430 2585 0
-365 -448 421 2586 0
478 -392 -71 2587 0
-128 -8 -135 2588 0
88 -386 -489 2589 0
-436 133 -483 2590 0
-482 103 -335 2591 0
-154 235 -83 2592 0
6 -447 370 2593 0
-234 395 99 2594 0
-422 -372 -162 2595 0
-251 241 450 2596 0
-13 -385 416 2597 0
258 -316 -73 2598 0
390 104 498 2599 0
103 -180 37 2600 0
183 -60 131 2601 0
382 -387 437 2602 0
-289 103 -63 2603 0
-18 270 404 2604 0
67 -209 -400 2605 0
-232 468 57 2606 0
319 91 40 2607 0
-422 26 88 2608 0
179 26 229 2609 0
292 475 -151 2610 0
163 -166 -151 2611 0
-318 55 -483 2612 0
-245 -247 -321 2613 0
178 -316 -189 2614 0
464 -337 368 2615 0
-154 -13 -9 2616 0
-202 -182 -443 2617 0
379 -95 80 2618 0
-274 209 -51 2619 0
420 3 330 2620 0
-115 -457 38 2621 0
-354 15 290 2622 0
216 271 490 2623 0
57 181 -40 2624 0
127 -19 -88 2625 0
-398 -287 -425 2626 0
-205 -436 -414 2627 0
331 122 -493 2628 0
-165 -269 460 2629 0
38 133 78 2630 0
-480 23 -159 2631 0
398 -379 51 2632 0
487 49 -253 2633 0
413 343 -111 2634 0
89 -352 139 2635 0
-223 -117 475 2636 0
-36 -17 -117 2637 0
-399 299 -272 2638 0
-220 -484 256 2639 0
106 -384 192 2640 0
-60 -262 -253 2641 0
307 124 -49 2642 0
-56 -298 266 2643 0
-112 257 288 2644 0
-197 183 -245 2645 0
139 -137 383 2646 0
-482 486 -166 2647 0
-235 -88 192 2648 0
153 -134 316 2649 0
462 -199 265 2650 0
