p cnf 2650 2150
220 218 172 501 0
329 -99 -116 502 0
128 50 -16 503 0
-34 298 -386 504 0
-204 -454 251 505 0
-437 -346 58 506 0
111 -152 430 507 0
6 -486 466 508 0
131 -416 -351 509 0
159 -199 173 510 0
-256 -403 431 511 0
289 -255 -266 512 0
-442 -238 358 513 0
19 347 120 514 0
-8 -170 145 515 0
-35 -159 217 516 0
-118 322 -355 517 0
151 -472 456 518 0
82 213 52 519 0
307 237 -390 520 0
-403 414 165 521 0
-137 76 446 522 0
245 -403 -229 523 0
-395 63 -261 524 0
-330 -434 453 525 0
93 257 110 526 0
-391 58 -450 527 0
-306 -106 -227 528 0
64 186 411 529 0
-108 446 -34 530 0
387 64 -267 531 0
289 297 -463 532 0
-126 295 -13 533 0
-243 -118 20 534 0
-35 -249 52 535 0
374 463 -331 536 0
193 152 492 537 0
448 -378 -96 538 0
-119 408 172 539 0
-218 -229 -21 540 0
456 2 258 541 0
458 -112 -475 542 0
-34 143 -238 543 0
358 37 222 544 0
477 -208 -453 545 0
202 -453 -379 546 0
-348 262 373 547 0
-409 411 -247 548 0
-259 393 -79 549 0
-286 -91 346 550 0
133 198 469 551 0
-447 -235 -57 552 0
337 -316 -394 553 0
-281 -231 -449 554 0
436 409 373 555 0
-262 52 205 556 0
105 127 -388 557 0
-429 -121 477 558 0
28 -228 -83 559 0
-125 71 -178 560 0
239 146 263 561 0
22 491 464 562 0
468 -433 -16 563 0
-437 -452 370 564 0
405 220 395 565 0
-397 -180 229 566 0
-315 -194 439 567 0
-54 476 136 568 0
243 75 -17 569 0
202 294 349 570 0
320 -82 -201 571 0
-244 -301 212 572 0
460 76 -452 573 0
245 -401 -300 574 0
228 -347 102 575 0
-497 457 -461 576 0
-171 -434 144 577 0
220 244 204 578 0
133 341 254 579 0
427 -377 -410 580 0
175 -205 -432 581 0
86 443 -371 582 0
-17 407 47 583 0
-154 482 -49 584 0
-377 457 199 585 0
154 270 310 586 0
-147 -365 255 587 0
2 -326 -226 588 0
-335 -244 -479 589 0
-348 370 256 590 0
-273 -375 -46 591 0
-153 -68 -178 592 0
-221 119 302 593 0
479 -119 -201 594 0
143 -99 -137 595 0
-235 -60 435 596 0
-52 75 438 597 0
-386 -406 353 598 0
-18 171 207 599 0
-208 286 -455 600 0
-493 19 390 601 0
220 219 98 602 0
-405 -299 -197 603 0
-473 -9 -306 604 0
-159 -38 -217 605 0
-90 165 -209 606 0
-42 -223 -444 607 0
-161 361 -213 608 0
387 -81 -379 609 0
-203 -11 -245 610 0
-395 -465 239 611 0
-67 18 69 612 0
-285 474 -56 613 0
53 110 -95 614 0
-494 -212 -47 615 0
-400 -110 -99 616 0
143 98 -268 617 0
-35 -279 204 618 0
-366 -396 -128 619 0
-299 -445 229 620 0
227 187 294 621 0
230 -361 -436 622 0
477 218 378 623 0
-104 -96 -492 624 0
-289 74 -18 625 0
-384 252 272 626 0
-267 -343 111 627 0
-287 159 292 628 0
-433 299 -300 629 0
488 -106 464 630 0
25 78 -103 631 0
-206 -196 269 632 0
462 285 -398 633 0
-117 -462 492 634 0
-213 -15 -136 635 0
190 -313 -167 636 0
87 484 -142 637 0
129 -140 282 638 0
219 494 -340 639 0
-175 -483 260 640 0
283 193 -140 641 0
-158 145 209 642 0
123 99 6 643 0
74 245 367 644 0
87 -170 -391 645 0
-363 15 -348 646 0
-241 366 134 647 0
132 -269 96 648 0
292 398 460 649 0
483 319 485 650 0
-228 -172 359 651 0
-491 -364 -131 652 0
42 47 193 653 0
-401 -30 -140 654 0
440 -370 121 655 0
-395 237 -109 656 0
156 -189 497 657 0
410 -91 364 658 0
-177 45 426 659 0
35 372 223 660 0
347 255 477 661 0
-45 -473 -236 662 0
-465 -448 -456 663 0
-56 372 -364 664 0
-223 380 227 665 0
99 -232 3 666 0
35 4 -335 667 0
56 -94 252 668 0
-186 -108 3 669 0
287 -133 94 670 0
107 290 -100 671 0
392 49 -278 672 0
343 -233 437 673 0
-325 67 -407 674 0
183 202 -22 675 0
-463 -199 -388 676 0
-88 -335 -193 677 0
-426 -50 -147 678 0
485 -395 -24 679 0
333 318 -206 680 0
-222 -273 -269 681 0
408 452 156 682 0
-52 61 -354 683 0
-476 481 -317 684 0
-263 -414 -235 685 0
30 34 -132 686 0
-182 -399 -369 687 0
315 -318 28 688 0
287 -135 164 689 0
-396 162 199 690 0
291 -287 206 691 0
-237 -318 -383 692 0
34 211 480 693 0
-123 -396 -120 694 0
480 393 476 695 0
-298 -286 488 696 0
89 -135 -414 697 0
142 -273 206 698 0
421 -468 143 699 0
-94 -391 -266 700 0
273 -464 42 701 0
-273 310 59 702 0
-319 231 106 703 0
269 383 193 704 0
227 141 91 705 0
482 249 151 706 0
-405 148 216 707 0
211 -185 -233 708 0
-342 17 330 709 0
-370 -469 -254 710 0
-401 -463 -278 711 0
384 186 396 712 0
-482 -70 -218 713 0
126 5 -64 714 0
-456 -448 -9 715 0
333 383 -313 716 0
373 14 -255 717 0
-238 -493 327 718 0
-208 -199 81 719 0
436 -315 -500 720 0
267 -443 218 721 0
-175 -472 336 722 0
178 -398 254 723 0
-211 -38 46 724 0
-418 -232 422 725 0
-373 197 142 726 0
-32 171 182 727 0
245 490 25 728 0
-361 130 -253 729 0
360 -84 16 730 0
-105 -317 243 731 0
258 60 431 732 0
249 194 375 733 0
-91 40 251 734 0
-252 75 91 735 0
-332 -131 69 736 0
405 -459 -115 737 0
-469 -394 224 738 0
166 389 413 739 0
306 -262 293 740 0
-356 6 101 741 0
338 -88 467 742 0
170 -21 -23 743 0
-438 -69 -23 744 0
-250 279 -145 745 0
231 -371 412 746 0
-154 4 307 747 0
305 -158 -98 748 0
423 154 -90 749 0
405 12 474 750 0
-379 40 94 751 0
-237 134 479 752 0
216 370 -423 753 0
-390 -436 86 754 0
-434 158 75 755 0
236 388 -457 756 0
279 297 -2 757 0
91 -10 169 758 0
-116 489 83 759 0
-196 -432 345 760 0
190 222 175 761 0
-270 -13 -391 762 0
-149 -137 -5 763 0
-24 -252 -242 764 0
-58 304 -206 765 0
-65 -500 371 766 0
237 -303 -147 767 0
-110 -252 -142 768 0
-422 271 -292 769 0
-470 -123 460 770 0
464 185 -267 771 0
-99 -214 94 772 0
366 -45 -456 773 0
109 29 -98 774 0
-65 -83 28 775 0
197 -114 255 776 0
-496 -276 243 777 0
157 -163 91 778 0
-240 -354 158 779 0
237 -279 86 780 0
-343 413 -326 781 0
-189 211 -486 782 0
-340 -83 -161 783 0
-323 146 197 784 0
-45 487 -29 785 0
80 165 73 786 0
320 -495 468 787 0
-332 134 -311 788 0
380 -286 20 789 0
-289 -167 -251 790 0
-234 100 -415 791 0
-328 -381 493 792 0
213 300 -198 793 0
424 -454 -239 794 0
486 -471 -103 795 0
-83 -295 318 796 0
-265 -191 264 797 0
161 259 -61 798 0
-256 -183 -373 799 0
-164 -246 -30 800 0
192 -210 -207 801 0
226 480 -159 802 0
-477 -187 87 803 0
-19 139 -241 804 0
-385 -492 -95 805 0
-40 -463 17 806 0
-169 -334 213 807 0
-68 -266 146 808 0
-249 423 256 809 0
481 -286 -427 810 0
-253 132 -144 811 0
-483 28 -152 812 0
-265 -364 48 813 0
-115 391 253 814 0
265 -282 236 815 0
-10 -290 -286 816 0
-296 -379 -309 817 0
227 428 442 818 0
-300 139 -284 819 0
374 283 -483 820 0
69 78 236 821 0
7 38 4 822 0
-24 -487 430 823 0
-347 407 327 824 0
381 76 382 825 0
251 450 84 826 0
-222 -399 403 827 0
-257 -171 -7 828 0
85 -166 162 829 0
288 -274 35 830 0
-119 -436 -67 831 0
-240 -327 176 832 0
-444 -62 236 833 0
-248 50 -323 834 0
351 490 -82 835 0
-465 -113 -315 836 0
-277 -9 376 837 0
-176 -63 -208 838 0
-403 249 -374 839 0
215 -61 188 840 0
-429 -480 213 841 0
259 -68 66 842 0
-303 -395 -372 843 0
-182 450 431 844 0
-268 350 419 845 0
-84 -435 -271 846 0
-32 -237 453 847 0
217 -354 471 848 0
112 152 -156 849 0
110 -148 -197 850 0
206 -75 107 851 0
-149 145 -278 852 0
-429 -230 -332 853 0
-382 376 482 854 0
84 437 454 855 0
69 398 -347 856 0
270 -337 298 857 0
212 -375 176 858 0
-372 -344 -356 859 0
126 -464 397 860 0
-417 381 -317 861 0
-294 127 14 862 0
-193 285 -340 863 0
333 102 21 864 0
-374 461 -356 865 0
131 -199 450 866 0
-132 -276 62 867 0
95 434 37 868 0
-196 -298 -94 869 0
467 -275 269 870 0
176 108 -331 871 0
-197 433 147 872 0
-199 -158 101 873 0
-449 -342 -98 874 0
-233 -413 329 875 0
425 232 -279 876 0
191 474 -75 877 0
226 -71 -134 878 0
-201 244 -149 879 0
153 -229 322 880 0
-343 -7 -68 881 0
-352 426 -43 882 0
75 -25 -450 883 0
-281 469 -68 884 0
-310 323 354 885 0
-415 203 -291 886 0
81 -13 -276 887 0
-149 -6 462 888 0
314 205 208 889 0
64 162 31 890 0
104 334 -147 891 0
245 107 -259 892 0
260 406 378 893 0
-238 3 11 894 0
290 370 -296 895 0
500 390 169 896 0
-64 175 12 897 0
-203 200 201 898 0
65 164 -307 899 0
-373 324 -309 900 0
182 299 214 901 0
500 214 282 902 0
-468 412 -248 903 0
304 -390 -308 904 0
-26 -156 454 905 0
-439 479 -207 906 0
276 90 209 907 0
-226 440 245 908 0
27 -183 375 909 0
-438 -417 351 910 0
236 -353 362 911 0
-335 -371 190 912 0
126 211 -46 913 0
487 -184 -82 914 0
219 57 -66 915 0
314 240 -299 916 0
419 289 -454 917 0
104 -437 -154 918 0
341 -162 -280 919 0
-320 -452 -376 920 0
107 -41 396 921 0
56 -262 -21 922 0
212 -441 247 923 0
308 -229 -340 924 0
305 -456 285 925 0
66 -63 473 926 0
-487 412 289 927 0
-424 -423 479 928 0
-111 184 -353 929 0
-200 226 132 930 0
-252 -409 376 931 0
-27 436 -195 932 0
36 482 -316 933 0
64 -258 59 934 0
-406 50 -273 935 0
-76 -362 -158 936 0
-461 -312 310 937 0
-275 223 -353 938 0
381 -428 -374 939 0
-328 -116 250 940 0
-344 294 -286 941 0
242 -122 -143 942 0
330 -148 -473 943 0
331 211 -355 944 0
477 -1 -81 945 0
197 268 327 946 0
329 -5 -332 947 0
279 79 277 948 0
-189 -179 -58 949 0
349 364 412 950 0
463 224 404 951 0
-26 68 43 952 0
392 -288 -335 953 0
-253 -26 -28 954 0
290 61 -401 955 0
282 -82 -43 956 0
-284 468 -190 957 0
-35 51 -336 958 0
15 340 150 959 0
273 -301 -76 960 0
-155 -471 121 961 0
-47 431 342 962 0
171 197 -351 963 0
-311 159 -427 964 0
84 72 -122 965 0
-115 -420 -303 966 0
98 23 -292 967 0
194 -63 175 968 0
323 239 -475 969 0
52 -32 -22 970 0
-97 291 -277 971 0
-25 295 182 972 0
-487 -219 -152 973 0
261 294 338 974 0
407 176 -324 975 0
255 -339 -55 976 0
447 -5 450 977 0
90 -497 322 978 0
-229 -125 -136 979 0
35 378 -177 980 0
-48 -3 500 981 0
-217 -432 451 982 0
-46 95 -101 983 0
-88 -354 139 984 0
-112 -351 -157 985 0
-179 281 -481 986 0
-322 -129 -420 987 0
189 116 2 988 0
-462 465 -257 989 0
-240 441 -166 990 0
-26 179 -225 991 0
-362 339 -18 992 0
-481 -194 -48 993 0
-493 331 -312 994 0
445 55 -396 995 0
345 -171 -400 996 0
137 -305 94 997 0
216 -344 382 998 0
167 -418 -188 999 0
-58 -321 20 1000 0
148 299 -230 1001 0
-461 384 46 1002 0
387 302 383 1003 0
-278 354 -129 1004 0
-174 351 101 1005 0
-285 154 -99 1006 0
-26 -89 -45 1007 0
434 -182 -491 1008 0
-50 402 331 1009 0
78 -442 418 1010 0
-21 -364 487 1011 0
228 -27 -279 1012 0
341 -82 -398 1013 0
457 323 438 1014 0
-429 298 475 1015 0
-124 218 284 1016 0
-303 221 -249 1017 0
318 -127 228 1018 0
80 -157 -201 1019 0
239 87 -388 1020 0
-326 -359 -319 1021 0
481 393 -220 1022 0
-495 -404 292 1023 0
18 346 426 1024 0
69 -448 -159 1025 0
313 -238 154 1026 0
-60 -43 -251 1027 0
-244 273 -112 1028 0
499 409 -89 1029 0
398 -265 -259 1030 0
-18 -348 100 1031 0
-459 223 369 1032 0
271 -229 -105 1033 0
97 -232 161 1034 0
239 -334 -122 1035 0
285 -143 477 1036 0
126 389 -111 1037 0
-185 125 184 1038 0
-86 467 -252 1039 0
231 -36 -284 1040 0
326 342 126 1041 0
-358 -490 246 1042 0
-452 -317 212 1043 0
-181 134 -135 1044 0
-190 290 18 1045 0
-219 -241 -440 1046 0
458 -136 -188 1047 0
-336 348 259 1048 0
-283 -459 -195 1049 0
-173 162 -176 1050 0
-247 -354 287 1051 0
-130 45 -186 1052 0
25 -20 -481 1053 0
-146 -125 115 1054 0
385 -114 285 1055 0
315 6 -181 1056 0
186 -479 131 1057 0
-139 482 384 1058 0
307 235 420 1059 0
-231 422 406 1060 0
399 132 -49 1061 0
-15 94 -488 1062 0
452 206 270 1063 0
-187 -117 382 1064 0
161 -481 445 1065 0
442 -440 120 1066 0
181 87 -469 1067 0
-496 -107 474 1068 0
232 -7 284 1069 0
316 -297 217 1070 0
-144 71 -298 1071 0
-345 54 -411 1072 0
-18 -189 219 1073 0
316 -183 362 1074 0
-178 264 173 1075 0
-359 -21 -42 1076 0
-159 -495 117 1077 0
13 112 408 1078 0
-151 446 -270 1079 0
-30 -456 -362 1080 0
37 322 -99 1081 0
211 -218 292 1082 0
163 -410 -112 1083 0
-45 135 -307 1084 0
-376 46 -367 1085 0
-42 375 341 1086 0
461 -102 -297 1087 0
-165 -373 -247 1088 0
218 -30 181 1089 0
-239 336 141 1090 0
-354 386 111 1091 0
492 -232 -21 1092 0
217 -398 405 1093 0
-439 -111 421 1094 0
-230 199 116 1095 0
146 475 -465 1096 0
287 96 285 1097 0
-260 -33 -381 1098 0
-91 170 -373 1099 0
-402 20 -114 1100 0
168 372 32 1101 0
39 -467 206 1102 0
-21 498 -87 1103 0
-301 -363 -311 1104 0
365 372 -126 1105 0
-244 -227 164 1106 0
184 -2 137 1107 0
50 387 -379 1108 0
-80 -394 425 1109 0
-457 -318 470 1110 0
-134 47 -157 1111 0
-486 283 332 1112 0
-18 -220 -278 1113 0
-397 458 -433 1114 0
-22 430 192 1115 0
382 62 39 1116 0
-471 -459 466 1117 0
-78 -143 -286 1118 0
-177 21 -12 1119 0
22 -274 -93 1120 0
291 -178 -411 1121 0
-206 -165 -97 1122 0
153 273 -160 1123 0
-298 -79 278 1124 0
77 95 -25 1125 0
-391 -488 330 1126 0
-175 -231 -363 1127 0
410 -232 -332 1128 0
433 122 62 1129 0
148 -330 -407 1130 0
-451 261 310 1131 0
157 -244 -177 1132 0
83 125 -362 1133 0
154 -311 44 1134 0
17 -417 177 1135 0
-453 354 482 1136 0
-313 447 97 1137 0
-355 -18 205 1138 0
-198 -18 -212 1139 0
176 307 -43 1140 0
-173 195 -182 1141 0
108 411 -266 1142 0
-90 -110 444 1143 0
336 133 494 1144 0
-149 -118 -82 1145 0
-193 493 252 1146 0
194 -201 -485 1147 0
-452 281 89 1148 0
-50 -422 389 1149 0
9 261 -288 1150 0
-276 -283 110 1151 0
-189 -102 167 1152 0
499 237 -47 1153 0
282 -13 -459 1154 0
268 -363 -34 1155 0
363 240 219 1156 0
24 483 147 1157 0
-447 353 -208 1158 0
124 303 271 1159 0
91 398 -315 1160 0
480 -422 57 1161 0
286 -402 70 1162 0
230 459 24 1163 0
-242 -134 -348 1164 0
368 -422 447 1165 0
126 59 294 1166 0
235 171 -484 1167 0
-498 -76 338 1168 0
354 434 399 1169 0
256 14 -341 1170 0
499 -338 -346 1171 0
-491 -104 464 1172 0
417 187 -79 1173 0
-339 -163 -18 1174 0
258 -167 64 1175 0
328 98 -459 1176 0
89 52 98 1177 0
428 -499 -393 1178 0
346 71 -214 1179 0
406 110 -98 1180 0
273 66 341 1181 0
-491 -385 32 1182 0
216 -284 340 1183 0
-12 21 473 1184 0
-401 353 253 1185 0
166 346 -86 1186 0
-93 306 -174 1187 0
396 500 -95 1188 0
46 346 -196 1189 0
-251 -156 286 1190 0
-61 454 -202 1191 0
114 -199 120 1192 0
-21 436 55 1193 0
-62 270 -399 1194 0
-490 335 -186 1195 0
-417 -443 -73 1196 0
328 427 -156 1197 0
264 352 134 1198 0
-269 454 140 1199 0
-2 359 120 1200 0
-123 -331 -10 1201 0
-475 -69 -12 1202 0
346 388 -434 1203 0
480 26 -439 1204 0
-233 213 75 1205 0
-223 241 -182 1206 0
249 85 193 1207 0
114 90 -409 1208 0
-235 -132 -423 1209 0
-117 419 428 1210 0
62 179 376 1211 0
60 -74 -203 1212 0
222 -250 -66 1213 0
105 263 218 1214 0
25 330 399 1215 0
-284 -481 241 1216 0
-76 276 -300 1217 0
-307 209 -57 1218 0
251 29 61 1219 0
-172 -211 93 1220 0
-199 353 -58 1221 0
275 -485 167 1222 0
-491 -340 -17 1223 0
-92 225 -367 1224 0
-16 -161 -367 1225 0
57 -435 428 1226 0
181 -238 178 1227 0
257 229 -388 1228 0
-376 -206 -219 1229 0
151 -495 -110 1230 0
-247 471 -211 1231 0
339 -375 147 1232 0
-400 -368 2 1233 0
298 387 -174 1234 0
-336 236 -143 1235 0
-128 -62 -127 1236 0
-88 100 212 1237 0
-88 -274 198 1238 0
195 -229 -411 1239 0
-63 381 -95 1240 0
335 46 298 1241 0
449 -238 -145 1242 0
-436 57 462 1243 0
328 296 -354 1244 0
-124 -36 416 1245 0
-486 -256 -287 1246 0
304 -288 -470 1247 0
9 258 190 1248 0
79 110 186 1249 0
-237 -252 -300 1250 0
108 37 243 1251 0
204 -89 -424 1252 0
-110 43 33 1253 0
-225 -130 -143 1254 0
-388 -105 -112 1255 0
372 -332 -14 1256 0
440 -438 169 1257 0
-56 -58 -189 1258 0
201 -303 150 1259 0
316 -345 -480 1260 0
73 199 190 1261 0
-55 -150 -37 1262 0
-25 271 -215 1263 0
311 443 261 1264 0
339 292 -489 1265 0
-465 390 412 1266 0
476 30 35 1267 0
-199 -432 -253 1268 0
264 -132 23 1269 0
-101 140 -192 1270 0
225 258 66 1271 0
-393 185 135 1272 0
-79 -193 -405 1273 0
382 -204 -253 1274 0
-2 -185 -161 1275 0
34 -383 359 1276 0
-224 107 73 1277 0
185 398 331 1278 0
-78 2 158 1279 0
-475 95 156 1280 0
-458 344 55 1281 0
-46 -66 223 1282 0
-279 -236 -310 1283 0
230 257 -132 1284 0
-43 -145 451 1285 0
459 366 143 1286 0
-156 122 290 1287 0
148 -352 -234 1288 0
464 -113 -272 1289 0
143 244 -268 1290 0
-362 -368 -489 1291 0
486 270 -37 1292 0
246 165 -238 1293 0
83 -48 -232 1294 0
-454 56 -253 1295 0
492 302 107 1296 0
-138 -369 -119 1297 0
-411 -470 56 1298 0
131 152 -392 1299 0
-65 -152 -179 1300 0
181 446 489 1301 0
-435 -340 378 1302 0
233 278 167 1303 0
-158 -138 -132 1304 0
470 -352 -434 1305 0
265 212 26 1306 0
272 -124 -284 1307 0
73 264 -154 1308 0
-300 191 -466 1309 0
94 85 -360 1310 0
183 6 -149 1311 0
-11 -245 -388 1312 0
-424 -365 -340 1313 0
447 -87 281 1314 0
-194 119 143 1315 0
-421 -436 119 1316 0
141 -486 -379 1317 0
-100 -136 42 1318 0
-358 -288 432 1319 0
-259 -124 272 1320 0
-251 414 -454 1321 0
154 -302 344 1322 0
-410 35 -298 1323 0
-188 7 38 1324 0
-211 307 418 1325 0
-312 -100 413 1326 0
72 224 443 1327 0
-330 261 71 1328 0
-306 -106 -7 1329 0
-378 -316 67 1330 0
431 470 -344 1331 0
404 9 -79 1332 0
363 458 164 1333 0
-94 242 -258 1334 0
51 -425 365 1335 0
-90 -32 -396 1336 0
-406 28 41 1337 0
-205 358 -267 1338 0
-25 -412 -324 1339 0
-358 -417 -191 1340 0
-331 286 379 1341 0
-199 -77 -224 1342 0
330 -173 459 1343 0
-366 343 -487 1344 0
268 -40 89 1345 0
-245 -80 -30 1346 0
218 -83 297 1347 0
-227 169 -360 1348 0
-145 -168 164 1349 0
-316 206 -89 1350 0
196 -155 -373 1351 0
147 -438 9 1352 0
7 276 29 1353 0
-402 426 397 1354 0
-421 -482 302 1355 0
207 -112 -456 1356 0
189 87 -445 1357 0
329 456 395 1358 0
-186 -170 376 1359 0
483 470 -324 1360 0
-401 -317 -221 1361 0
280 429 134 1362 0
134 169 79 1363 0
-34 -126 -235 1364 0
-47 -214 468 1365 0
-297 201 -147 1366 0
-243 96 271 1367 0
-281 -211 179 1368 0
-272 483 -329 1369 0
269 -25 -319 1370 0
-397 -185 -8 1371 0
-373 62 -287 1372 0
-101 -314 258 1373 0
-232 -241 334 1374 0
198 122 197 1375 0
289 -271 234 1376 0
69 58 76 1377 0
-443 90 -151 1378 0
378 370 76 1379 0
476 139 -441 1380 0
-74 -179 -291 1381 0
-445 40 290 1382 0
-343 20 172 1383 0
-110 -473 301 1384 0
390 -333 -6 1385 0
101 142 -246 1386 0
-38 -308 484 1387 0
-163 -392 -112 1388 0
27 -133 -432 1389 0
-314 -19 435 1390 0
210 -475 255 1391 0
-350 259 -153 1392 0
-6 17 -459 1393 0
159 147 -72 1394 0
493 499 -23 1395 0
82 229 -306 1396 0
-125 -137 -495 1397 0
-132 149 261 1398 0
8 -373 -316 1399 0
-17 228 -339 1400 0
-212 142 357 1401 0
267 34 -361 1402 0
339 -301 85 1403 0
-265 -293 281 1404 0
45 135 -125 1405 0
-468 377 87 1406 0
-258 297 -224 1407 0
22 -85 122 1408 0
-28 -392 -98 1409 0
-242 -361 440 1410 0
143 247 -43 1411 0
1 143 158 1412 0
-483 385 -120 1413 0
103 -87 153 1414 0
187 -396 381 1415 0
436 -235 100 1416 0
63 -458 93 1417 0
-170 394 243 1418 0
-184 -436 -170 1419 0
178 -455 249 1420 0
7 -443 -8 1421 0
-463 133 -155 1422 0
335 -308 -357 1423 0
407 79 100 1424 0
-444 -84 -451 1425 0
173 -181 461 1426 0
355 -473 324 1427 0
-403 -174 -447 1428 0
177 -497 -13 1429 0
-451 244 261 1430 0
-363 308 -303 1431 0
98 400 395 1432 0
-223 -268 406 1433 0
84 -60 -300 1434 0
263 -133 -105 1435 0
-302 218 -286 1436 0
-441 226 124 1437 0
70 -58 112 1438 0
479 -360 392 1439 0
428 459 274 1440 0
476 153 496 1441 0
-89 387 237 1442 0
-312 438 -431 1443 0
-98 -188 199 1444 0
-58 -482 -140 1445 0
-49 -296 331 1446 0
-258 249 466 1447 0
-217 72 155 1448 0
-110 450 411 1449 0
176 -378 313 1450 0
-492 384 -183 1451 0
-412 -422 39 1452 0
-88 -228 126 1453 0
214 222 -79 1454 0
192 421 237 1455 0
-64 158 424 1456 0
384 369 97 1457 0
423 50 271 1458 0
381 71 247 1459 0
187 11 487 1460 0
37 69 -436 1461 0
103 401 335 1462 0
72 -238 -150 1463 0
-469 -192 261 1464 0
151 -216 208 1465 0
-60 -200 -336 1466 0
72 403 95 1467 0
-118 -338 321 1468 0
-63 160 336 1469 0
-397 -44 -53 1470 0
125 59 -188 1471 0
-276 -219 366 1472 0
-422 95 358 1473 0
-168 469 -340 1474 0
461 -71 251 1475 0
-160 -107 351 1476 0
-203 -393 -387 1477 0
254 45 -303 1478 0
462 -423 16 1479 0
-367 -176 -257 1480 0
113 415 3 1481 0
-492 -172 483 1482 0
297 -110 368 1483 0
-368 170 -413 1484 0
-101 254 314 1485 0
223 -32 145 1486 0
-375 -370 110 1487 0
-7 338 110 1488 0
-73 157 -306 1489 0
-210 -455 -18 1490 0
299 89 -19 1491 0
367 -129 495 1492 0
123 378 288 1493 0
271 382 -264 1494 0
276 422 -342 1495 0
-252 -440 425 1496 0
325 -431 -421 1497 0
-19 -245 319 1498 0
386 -144 161 1499 0
-208 -209 87 1500 0
1 25 148 1501 0
421 -65 356 1502 0
-101 38 -260 1503 0
-455 459 -346 1504 0
-53 113 -110 1505 0
267 -60 -466 1506 0
317 -485 -325 1507 0
-91 -327 -18 1508 0
65 190 37 1509 0
339 179 368 1510 0
-80 -483 347 1511 0
-99 -303 -324 1512 0
-109 -61 -287 1513 0
3 410 86 1514 0
-211 -339 -340 1515 0
-305 -205 271 1516 0
-417 454 180 1517 0
-282 -158 25 1518 0
-463 -174 210 1519 0
109 -426 229 1520 0
415 136 490 1521 0
184 -30 345 1522 0
-40 194 -324 1523 0
95 59 -48 1524 0
103 -315 -434 1525 0
-428 395 115 1526 0
-212 -499 179 1527 0
386 325 138 1528 0
-159 303 235 1529 0
-216 -479 272 1530 0
-238 330 -429 1531 0
17 -478 -210 1532 0
483 -478 154 1533 0
103 -185 243 1534 0
-238 -436 237 1535 0
-54 -272 -499 1536 0
-149 -194 471 1537 0
275 304 253 1538 0
451 165 209 1539 0
-170 456 -411 1540 0
384 379 195 1541 0
280 -152 432 1542 0
387 46 -37 1543 0
154 310 219 1544 0
-79 243 290 1545 0
-73 155 420 1546 0
-288 252 114 1547 0
481 -103 -250 1548 0
-483 159 120 1549 0
-287 -494 -469 1550 0
226 263 -324 1551 0
434 210 -388 1552 0
115 437 -367 1553 0
211 382 67 1554 0
-457 489 233 1555 0
82 169 302 1556 0
-354 7 -234 1557 0
173 -144 161 1558 0
-404 285 84 1559 0
307 233 166 1560 0
269 56 -431 1561 0
145 308 -156 1562 0
469 235 -215 1563 0
207 -251 64 1564 0
-108 -289 46 1565 0
-121 -231 -426 1566 0
434 286 -85 1567 0
-267 -355 308 1568 0
-216 -217 360 1569 0
-395 -486 -133 1570 0
137 -151 66 1571 0
-276 -142 -165 1572 0
-269 -402 152 1573 0
-33 298 41 1574 0
-376 73 -384 1575 0
-374 452 -175 1576 0
-123 351 -377 1577 0
163 -435 -267 1578 0
-230 -66 -387 1579 0
114 -367 -466 1580 0
297 -392 -173 1581 0
-215 -179 441 1582 0
-273 -408 104 1583 0
-99 284 -209 1584 0
65 -141 -343 1585 0
-413 -362 -425 1586 0
-164 3 -463 1587 0
-298 -419 269 1588 0
-268 -104 90 1589 0
-488 50 -191 1590 0
-89 126 14 1591 0
191 -323 205 1592 0
23 -242 -72 1593 0
181 135 -278 1594 0
175 -159 148 1595 0
44 -420 282 1596 0
53 -287 -329 1597 0
-100 277 -46 1598 0
-76 -203 -379 1599 0
241 -121 87 1600 0
258 72 426 1601 0
-237 -208 -429 1602 0
-130 -285 -55 1603 0
-344 -498 -242 1604 0
54 215 -332 1605 0
117 -323 -392 1606 0
-98 -94 -257 1607 0
4 309 -313 1608 0
-299 133 -442 1609 0
-349 310 397 1610 0
60 -408 438 1611 0
414 301 461 1612 0
266 -496 446 1613 0
-53 111 -373 1614 0
441 283 333 1615 0
390 48 -318 1616 0
32 -408 -403 1617 0
230 236 268 1618 0
-181 298 -461 1619 0
-248 -3 78 1620 0
128 -274 -445 1621 0
147 -479 -228 1622 0
-261 -264 -480 1623 0
353 -284 345 1624 0
-329 458 392 1625 0
298 248 300 1626 0
-235 -375 -335 1627 0
-50 138 133 1628 0
-157 -274 -48 1629 0
-358 147 -189 1630 0
-193 253 -130 1631 0
-454 -290 -28 1632 0
98 429 -217 1633 0
-431 30 488 1634 0
-29 471 -74 1635 0
-441 -297 -101 1636 0
-10 -136 -223 1637 0
52 456 211 1638 0
444 109 185 1639 0
380 -138 440 1640 0
77 19 -451 1641 0
52 359 -192 1642 0
-473 -311 149 1643 0
-147 -371 183 1644 0
-468 179 -261 1645 0
466 -414 -148 1646 0
270 -429 310 1647 0
458 92 130 1648 0
-57 -407 -220 1649 0
-149 -157 -176 1650 0
113 53 -34 1651 0
101 64 159 1652 0
-189 468 -342 1653 0
-375 143 -147 1654 0
70 215 144 1655 0
246 -448 120 1656 0
268 -436 -197 1657 0
-162 -165 -19 1658 0
-72 -139 -206 1659 0
-271 -412 -264 1660 0
-318 374 -387 1661 0
-490 316 73 1662 0
122 -62 -212 1663 0
493 278 -132 1664 0
361 -229 -296 1665 0
-35 -315 75 1666 0
118 386 7 1667 0
361 -193 -486 1668 0
130 65 234 1669 0
-119 -371 -267 1670 0
-258 -113 55 1671 0
-410 359 162 1672 0
-262 -83 -350 1673 0
201 -282 121 1674 0
467 175 148 1675 0
307 345 448 1676 0
-105 -239 16 1677 0
-389 -323 223 1678 0
-182 -215 55 1679 0
481 -253 -238 1680 0
-106 14 -89 1681 0
-377 312 -86 1682 0
9 435 56 1683 0
-182 246 -455 1684 0
-256 264 -103 1685 0
-147 -80 23 1686 0
-442 245 -391 1687 0
-477 -120 355 1688 0
93 -433 -12 1689 0
-268 413 -113 1690 0
388 498 -253 1691 0
-179 -65 223 1692 0
-100 174 -327 1693 0
39 443 492 1694 0
332 -229 -341 1695 0
-433 -333 134 1696 0
-459 193 437 1697 0
-404 -18 -34 1698 0
-443 390 96 1699 0
-74 -72 -166 1700 0
-300 -131 -182 1701 0
394 197 -134 1702 0
-419 369 270 1703 0
448 283 313 1704 0
-6 202 360 1705 0
-379 -396 -445 1706 0
-207 84 488 1707 0
-368 -44 455 1708 0
-415 -251 -315 1709 0
-59 -111 -426 1710 0
-278 -426 -432 1711 0
122 -121 358 1712 0
-363 -122 -135 1713 0
-43 295 -274 1714 0
376 -144 -365 1715 0
-143 230 -242 1716 0
-370 -495 -448 1717 0
-346 242 248 1718 0
139 -358 307 1719 0
334 133 129 1720 0
-308 -330 -305 1721 0
140 448 -432 1722 0
263 409 286 1723 0
105 -468 -206 1724 0
394 238 94 1725 0
-470 -252 374 1726 0
-411 -425 255 1727 0
-49 -370 385 1728 0
215 152 15 1729 0
-77 -7 299 1730 0
-287 -187 464 1731 0
333 -400 -351 1732 0
280 224 43 1733 0
105 86 -327 1734 0
3 418 77 1735 0
126 -94 495 1736 0
132 12 -318 1737 0
-299 -345 356 1738 0
470 172 -387 1739 0
287 368 472 1740 0
-192 -382 228 1741 0
-157 407 -268 1742 0
-110 29 136 1743 0
-432 -59 -215 1744 0
-342 455 -304 1745 0
-394 50 -433 1746 0
403 143 -497 1747 0
249 -425 428 1748 0
-370 499 -296 1749 0
232 386 -102 1750 0
254 -209 -227 1751 0
267 -315 -314 1752 0
-122 -141 -442 1753 0
158 71 -92 1754 0
-117 -326 101 1755 0
-31 -136 -366 1756 0
270 204 -284 1757 0
238 371 85 1758 0
-231 -300 460 1759 0
393 -366 -308 1760 0
-242 145 -394 1761 0
490 -13 -461 1762 0
-442 279 489 1763 0
-398 223 12 1764 0
375 -156 176 1765 0
18 -364 349 1766 0
375 71 -165 1767 0
298 -94 -165 1768 0
-459 495 -231 1769 0
-492 177 -485 1770 0
-454 236 326 1771 0
428 -246 289 1772 0
459 -221 -478 1773 0
-48 -272 303 1774 0
88 466 79 1775 0
-105 -188 -249 1776 0
206 458 373 1777 0
491 273 280 1778 0
-216 122 -364 1779 0
-412 -158 -426 1780 0
-111 -151 -338 1781 0
-121 -202 -473 1782 0
-2 346 77 1783 0
-289 49 -345 1784 0
-215 -437 -400 1785 0
-320 -316 -226 1786 0
-306 479 383 1787 0
464 439 40 1788 0
265 -22 -208 1789 0
-310 -133 -42 1790 0
-370 417 145 1791 0
306 256 245 1792 0
-140 304 -38 1793 0
127 -147 -188 1794 0
259 249 -50 1795 0
4 364 151 1796 0
-411 -134 -264 1797 0
107 26 -55 1798 0
189 -68 39 1799 0
466 456 -207 1800 0
-426 158 -89 1801 0
312 -408 -167 1802 0
-49 -96 -341 1803 0
-133 260 -16 1804 0
380 267 -327 1805 0
-75 -356 119 1806 0
223 -308 231 1807 0
194 478 -294 1808 0
-477 -190 112 1809 0
370 -283 406 1810 0
-373 269 357 1811 0
442 -370 6 1812 0
-103 -385 8 1813 0
25 -486 500 1814 0
483 -311 -400 1815 0
204 -110 -95 1816 0
-472 243 -138 1817 0
124 318 -14 1818 0
-342 109 458 1819 0
452 -300 56 1820 0
192 306 -9 1821 0
343 -425 -37 1822 0
456 -88 438 1823 0
289 21 366 1824 0
407 -173 410 1825 0
-166 427 230 1826 0
-347 -326 -419 1827 0
488 -147 373 1828 0
497 149 89 1829 0
-320 -315 156 1830 0
170 477 -383 1831 0
-81 249 377 1832 0
-487 -357 182 1833 0
-205 306 149 1834 0
-22 176 333 1835 0
344 -157 -202 1836 0
-453 457 393 1837 0
-269 -30 -17 1838 0
437 479 105 1839 0
496 78 -492 1840 0
389 33 122 1841 0
28 445 -266 1842 0
-5 -319 -292 1843 0
357 217 253 1844 0
124 -313 85 1845 0
96 -361 -273 1846 0
-55 50 -117 1847 0
-306 187 29 1848 0
435 120 199 1849 0
302 76 -323 1850 0
-493 -173 -475 1851 0
99 -221 -117 1852 0
-200 -453 -375 1853 0
-17 -121 -257 1854 0
-90 303 429 1855 0
36 491 347 1856 0
-86 -478 -56 1857 0
-314 -171 34 1858 0
-385 -209 -109 1859 0
491 -411 -130 1860 0
118 82 441 1861 0
-399 23 492 1862 0
-459 -120 -341 1863 0
199 -157 29 1864 0
-147 -199 91 1865 0
-61 191 456 1866 0
-183 287 -226 1867 0
-369 459 450 1868 0
-180 105 69 1869 0
156 479 -197 1870 0
207 -154 -29 1871 0
-122 455 -420 1872 0
38 -296 179 1873 0
168 -355 -475 1874 0
-322 66 -448 1875 0
-227 -377 3 1876 0
1 -333 -434 1877 0
-327 389 434 1878 0
420 -310 9 1879 0
-376 410 302 1880 0
381 -428 -406 1881 0
202 187 31 1882 0
-119 -299 253 1883 0
340 272 -298 1884 0
13 245 -494 1885 0
190 -488 358 1886 0
46 72 -323 1887 0
170 -473 -165 1888 0
497 19 99 1889 0
405 -14 -156 1890 0
434 321 -476 1891 0
260 11 271 1892 0
-268 -466 -85 1893 0
114 -233 1 1894 0
-127 320 456 1895 0
-49 387 68 1896 0
170 -11 -161 1897 0
132 -97 308 1898 0
232 -435 -288 1899 0
245 -20 -319 1900 0
-313 54 -173 1901 0
-421 -325 -299 1902 0
298 149 -221 1903 0
159 42 463 1904 0
-395 315 -371 1905 0
373 127 238 1906 0
427 -300 -395 1907 0
299 -263 -178 1908 0
-468 350 471 1909 0
5 4 463 1910 0
-482 -340 -367 1911 0
243 -371 -4 1912 0
458 426 179 1913 0
150 -138 497 1914 0
-375 430 -140 1915 0
155 -483 245 1916 0
-438 -201 -247 1917 0
-195 -84 100 1918 0
-468 300 -487 1919 0
155 -260 -476 1920 0
-400 247 -292 1921 0
314 42 294 1922 0
23 208 -243 1923 0
214 185 164 1924 0
339 481 276 1925 0
447 199 125 1926 0
-361 -414 -497 1927 0
454 236 300 1928 0
324 -280 140 1929 0
-165 -378 -172 1930 0
-263 295 43 1931 0
-38 -270 341 1932 0
152 22 143 1933 0
473 475 316 1934 0
-323 416 367 1935 0
-42 29 418 1936 0
101 500 359 1937 0
27 -227 192 1938 0
-404 -444 307 1939 0
-175 68 95 1940 0
427 142 314 1941 0
-218 -62 -300 1942 0
-76 -349 301 1943 0
237 -488 274 1944 0
220 -465 -324 1945 0
-219 253 -208 1946 0
172 68 -58 1947 0
8 307 151 1948 0
24 -143 -446 1949 0
-88 40 -355 1950 0
-436 -275 300 1951 0
4 -447 -484 1952 0
7 -305 339 1953 0
-442 206 -4 1954 0
125 312 21 1955 0
-27 69 -149 1956 0
293 19 136 1957 0
-446 -409 157 1958 0
322 41 -415 1959 0
-489 261 252 1960 0
177 322 359 1961 0
-37 -98 303 1962 0
-202 359 213 1963 0
-366 448 410 1964 0
-17 -168 224 1965 0
-326 485 -281 1966 0
225 438 228 1967 0
-437 199 -390 1968 0
27 218 432 1969 0
59 -175 -112 1970 0
298 451 142 1971 0
-146 -319 215 1972 0
-201 -65 53 1973 0
-149 -402 -38 1974 0
-269 41 33 1975 0
-174 318 469 1976 0
-54 323 -484 1977 0
-199 291 -9 1978 0
498 404 337 1979 0
53 148 -464 1980 0
-111 373 308 1981 0
336 348 368 1982 0
372 145 -494 1983 0
339 -324 -411 1984 0
119 288 -154 1985 0
-485 174 -346 1986 0
-100 468 -140 1987 0
111 32 -484 1988 0
402 66 85 1989 0
-47 480 -182 1990 0
400 270 153 1991 0
163 -64 -179 1992 0
418 157 377 1993 0
354 -149 -80 1994 0
-268 35 170 1995 0
46 353 -237 1996 0
449 361 -117 1997 0
-95 443 104 1998 0
382 -388 389 1999 0
72 -368 363 2000 0
184 43 -41 2001 0
-27 -276 -449 2002 0
419 404 30 2003 0
258 -468 -136 2004 0
73 -132 466 2005 0
486 389 433 2006 0
-354 -146 -80 2007 0
-436 -195 -427 2008 0
-11 70 85 2009 0
-308 12 -95 2010 0
-5 -9 -307 2011 0
-412 155 267 2012 0
-112 213 436 2013 0
387 333 138 2014 0
409 -41 -449 2015 0
276 -361 -57 2016 0
-104 -15 -166 2017 0
96 -371 -187 2018 0
251 173 179 2019 0
-63 200 -182 2020 0
132 -142 -238 2021 0
59 67 98 2022 0
21 -481 127 2023 0
332 -60 226 2024 0
-416 -215 299 2025 0
449 -452 -337 2026 0
-255 268 -165 2027 0
279 359 165 2028 0
480 -196 -324 2029 0
-467 497 297 2030 0
-145 57 396 2031 0
451 253 -118 2032 0
313 134 -357 2033 0
230 453 -65 2034 0
-186 -213 198 2035 0
-117 -55 -121 2036 0
-168 201 118 2037 0
285 -10 204 2038 0
317 474 -312 2039 0
-317 -348 84 2040 0
-438 150 435 2041 0
-173 -395 61 2042 0
300 -492 -356 2043 0
-70 306 140 2044 0
-361 430 -403 2045 0
275 437 -465 2046 0
9 -298 242 2047 0
-30 175 -260 2048 0
316 -276 463 2049 0
-355 196 -5 2050 0
-494 -428 204 2051 0
-92 -388 218 2052 0
492 495 -235 2053 0
-90 -451 125 2054 0
-127 291 -332 2055 0
-267 354 -187 2056 0
-316 -93 -201 2057 0
202 -45 153 2058 0
-337 -422 494 2059 0
-134 322 -256 2060 0
142 -242 97 2061 0
337 -205 -148 2062 0
317 -384 -295 2063 0
175 317 7 2064 0
-326 121 -117 2065 0
103 21 -500 2066 0
-60 469 205 2067 0
257 333 -324 2068 0
271 -292 399 2069 0
-477 -102 -163 2070 0
410 -213 -378 2071 0
-70 -278 102 2072 0
-280 421 -371 2073 0
194 -161 337 2074 0
198 331 -419 2075 0
-400 94 -100 2076 0
-336 -420 -80 2077 0
-88 -282 -364 2078 0
-52 366 357 2079 0
124 -255 94 2080 0
6 -275 496 2081 0
-483 47 -212 2082 0
-309 -31 -46 2083 0
315 -402 288 2084 0
156 -71 424 2085 0
-407 -309 447 2086 0
-250 -184 409 2087 0
53 -419 -449 2088 0
-348 402 40 2089 0
-419 348 -339 2090 0
-382 -62 332 2091 0
-317 338 283 2092 0
-449 397 -394 2093 0
-6 -453 186 2094 0
80 -431 402 2095 0
293 -41 493 2096 0
323 209 479 2097 0
-215 246 182 2098 0
21 114 230 2099 0
-147 233 215 2100 0
25 -190 473 2101 0
489 -483 -205 2102 0
-112 354 137 2103 0
431 -386 485 2104 0
-256 -77 -433 2105 0
126 84 -378 2106 0
-203 -49 -316 2107 0
-143 -424 -365 2108 0
302 -477 -191 2109 0
59 269 334 2110 0
179 -164 497 2111 0
200 -174 386 2112 0
-234 -492 65 2113 0
44 -429 96 2114 0
-43 89 156 2115 0
190 32 -436 2116 0
160 24 159 2117 0
-238 116 98 2118 0
-471 -102 -365 2119 0
378 243 1 2120 0
-380 197 228 2121 0
-191 -424 492 2122 0
25 123 -188 2123 0
-127 -287 -154 2124 0
-188 -90 380 2125 0
-66 242 60 2126 0
111 443 424 2127 0
147 -119 371 2128 0
-308 323 -159 2129 0
464 486 91 2130 0
217 435 -176 2131 0
-123 267 -59 2132 0
-460 -219 312 2133 0
-264 98 -412 2134 0
301 -24 447 2135 0
-230 -413 319 2136 0
-48 -81 -339 2137 0
-86 -344 -270 2138 0
405 282 120 2139 0
-160 407 -471 2140 0
-469 254 -483 2141 0
33 -297 -391 2142 0
-281 25 -9 2143 0
195 135 -106 2144 0
-13 -17 471 2145 0
251 -61 -408 2146 0
38 192 285 2147 0
-207 -14 121 2148 0
11 192 495 2149 0
-109 -147 10 2150 0
48 -79 -337 2151 0
255 -341 500 2152 0
-273 213 -362 2153 0
-345 403 -30 2154 0
289 282 280 2155 0
-370 -44 -210 2156 0
-450 -166 157 2157 0
-224 -142 -252 2158 0
-340 463 -247 2159 0
-376 -116 428 2160 0
-62 312 194 2161 0
116 -239 113 2162 0
13 -417 317 2163 0
-141 186 143 2164 0
94 -151 -104 2165 0
226 -275 -478 2166 0
-339 47 387 2167 0
25 -73 -462 2168 0
-154 -475 496 2169 0
57 -142 -27 2170 0
30 -357 82 2171 0
-334 -279 -71 2172 0
-333 -146 -186 2173 0
-298 -369 135 2174 0
25 49 47 2175 0
-461 194 141 2176 0
-190 335 248 2177 0
-310 -291 303 2178 0
309 388 433 2179 0
-257 196 217 2180 0
-18 -105 193 2181 0
300 -290 -426 2182 0
-402 385 -142 2183 0
-164 -245 -468 2184 0
440 480 385 2185 0
118 69 303 2186 0
-54 100 -245 2187 0
129 -442 246 2188 0
-431 108 439 2189 0
487 -155 -206 2190 0
282 -283 -271 2191 0
-484 -249 320 2192 0
1 -373 -51 2193 0
-323 -120 335 2194 0
-447 -179 -313 2195 0
452 -42 -413 2196 0
-267 -381 65 2197 0
357 359 139 2198 0
-66 61 -32 2199 0
491 97 150 2200 0
-434 -33 -232 2201 0
453 472 299 2202 0
-173 -383 -441 2203 0
481 420 -52 2204 0
16 478 -341 2205 0
-322 -95 448 2206 0
144 277 237 2207 0
272 211 321 2208 0
-375 436 -292 2209 0
6 -414 -46 2210 0
-490 156 -80 2211 0
219 90 -146 2212 0
201 -169 437 2213 0
395 472 -214 2214 0
378 57 382 2215 0
-122 -166 223 2216 0
-352 330 494 2217 0
327 165 -422 2218 0
45 -99 347 2219 0
223 -96 -8 2220 0
481 -310 -309 2221 0
152 -307 -100 2222 0
-496 -385 -141 2223 0
-344 486 -195 2224 0
-80 288 385 2225 0
-333 379 470 2226 0
-94 99 193 2227 0
-21 -427 -312 2228 0
389 236 -433 2229 0
258 -375 -100 2230 0
-23 -73 -96 2231 0
-481 -356 181 2232 0
-58 -56 287 2233 0
46 -462 -257 2234 0
453 142 418 2235 0
-239 389 -462 2236 0
3 230 11 2237 0
406 -239 153 2238 0
18 -157 311 2239 0
8 34 -2 2240 0
469 164 146 2241 0
-66 307 380 2242 0
111 -158 311 2243 0
-333 -223 -174 2244 0
352 66 -115 2245 0
7 490 -178 2246 0
85 415 160 2247 0
-389 175 -449 2248 0
493 202 194 2249 0
-16 475 437 2250 0
499 410 -98 2251 0
406 423 218 2252 0
-190 -217 -204 2253 0
78 -405 473 2254 0
247 -204 449 2255 0
-114 -122 -427 2256 0
-141 -51 374 2257 0
-200 -228 439 2258 0
326 335 101 2259 0
433 276 -411 2260 0
-145 370 176 2261 0
279 420 70 2262 0
9 126 -337 2263 0
-266 -427 -303 2264 0
-118 138 -269 2265 0
443 11 218 2266 0
230 -127 -308 2267 0
-200 369 206 2268 0
105 -161 76 2269 0
-184 -194 -426 2270 0
124 388 204 2271 0
154 -399 -74 2272 0
-39 -479 326 2273 0
477 -250 423 2274 0
159 -460 161 2275 0
390 339 490 2276 0
134 56 -233 2277 0
152 -21 -68 2278 0
432 -275 -310 2279 0
357 -436 340 2280 0
316 160 449 2281 0
-258 335 -178 2282 0
-123 -441 -63 2283 0
404 -303 -148 2284 0
228 -422 73 2285 0
69 -11 -62 2286 0
410 340 153 2287 0
228 234 -433 2288 0
-422 174 311 2289 0
-333 410 -83 2290 0
-365 471 378 2291 0
-304 487 286 2292 0
402 -482 -426 2293 0
-69 293 189 2294 0
441 137 -202 2295 0
-384 56 -454 2296 0
-213 130 -62 2297 0
350 248 412 2298 0
-247 110 262 2299 0
170 154 -383 2300 0
-97 370 351 2301 0
74 -64 55 2302 0
361 -417 232 2303 0
427 146 -485 2304 0
-360 82 -171 2305 0
171 99 -123 2306 0
38 -64 433 2307 0
148 368 -157 2308 0
-76 -411 381 2309 0
205 389 -37 2310 0
458 2 -385 2311 0
-205 45 -365 2312 0
-204 -96 33 2313 0
384 238 113 2314 0
-51 412 8 2315 0
40 -111 -119 2316 0
52 340 462 2317 0
-152 163 -79 2318 0
-85 -168 -91 2319 0
205 -191 442 2320 0
65 -455 -124 2321 0
-339 229 -40 2322 0
-428 -444 -243 2323 0
-335 239 -289 2324 0
-316 160 -414 2325 0
419 205 -76 2326 0
457 128 -42 2327 0
351 -369 -35 2328 0
-219 409 225 2329 0
-459 500 -397 2330 0
108 -195 -189 2331 0
466 383 -259 2332 0
-122 -54 -44 2333 0
332 -47 237 2334 0
-398 177 -308 2335 0
441 -207 -82 2336 0
471 -339 399 2337 0
333 -248 266 2338 0
87 -199 208 2339 0
9 -264 -238 2340 0
-473 426 -53 2341 0
275 202 360 2342 0
-299 303 111 2343 0
-219 417 177 2344 0
78 309 -371 2345 0
218 -203 -484 2346 0
481 49 -31 2347 0
288 -27 354 2348 0
182 181 137 2349 0
332 -220 235 2350 0
-75 -435 400 2351 0
216 -246 96 2352 0
494 440 374 2353 0
251 -212 -461 2354 0
110 -213 210 2355 0
-301 469 -361 2356 0
369 224 -75 2357 0
379 -318 -462 2358 0
228 420 -312 2359 0
-99 -109 -179 2360 0
405 363 249 2361 0
-276 -92 -69 2362 0
174 -73 387 2363 0
-324 19 -225 2364 0
-286 278 -232 2365 0
254 -38 158 2366 0
-68 219 105 2367 0
326 -210 -237 2368 0
484 118 85 2369 0
454 -144 432 2370 0
-232 -283 -391 2371 0
-475 161 288 2372 0
-288 275 -95 2373 0
125 -137 232 2374 0
282 -376 -409 2375 0
302 -215 366 2376 0
-398 236 400 2377 0
209 330 -500 2378 0
67 -400 -114 2379 0
-7 436 -276 2380 0
-318 -382 436 2381 0
-133 151 -251 2382 0
-489 -310 222 2383 0
264 -294 111 2384 0
-50 -82 447 2385 0
45 -296 227 2386 0
-468 -18 -104 2387 0
20 -220 -234 2388 0
394 -230 -347 2389 0
-245 223 -405 2390 0
-65 443 51 2391 0
-12 418 -77 2392 0
-154 -410 -146 2393 0
162 -230 -16 2394 0
138 -410 36 2395 0
-136 400 472 2396 0
212 281 436 2397 0
409 375 412 2398 0
-138 83 -97 2399 0
-309 282 -29 2400 0
474 -105 -441 2401 0
-11 -377 -371 2402 0
-43 417 -47 2403 0
-490 -137 -94 2404 0
-341 -39 131 2405 0
-456 -445 -368 2406 0
11 406 458 2407 0
-69 -262 -80 2408 0
-320 65 -48 2409 0
-249 189 258 2410 0
-407 -145 -148 2411 0
-16 114 -425 2412 0
-119 -466 219 2413 0
181 -92 -130 2414 0
-294 209 180 2415 0
53 -226 395 2416 0
325 369 -164 2417 0
-81 -332 463 2418 0
-135 252 243 2419 0
427 157 358 2420 0
-109 -380 472 2421 0
51 379 303 2422 0
470 -299 -336 2423 0
244 -44 -493 2424 0
-249 209 -378 2425 0
-296 -152 141 2426 0
279 -363 263 2427 0
-263 -436 -57 2428 0
-178 422 120 2429 0
418 -491 237 2430 0
-106 434 -451 2431 0
279 -192 100 2432 0
-57 -43 -243 2433 0
-337 -260 86 2434 0
171 -440 458 2435 0
426 -30 -58 2436 0
-332 -253 -93 2437 0
-120 119 69 2438 0
138 -22 417 2439 0
-498 173 114 2440 0
129 336 250 2441 0
-220 -406 -280 2442 0
164 425 -241 2443 0
-62 393 -329 2444 0
329 347 157 2445 0
-329 -394 272 2446 0
-389 56 237 2447 0
193 84 108 2448 0
179 -381 -211 2449 0
-189 393 -357 2450 0
-479 -213 -331 2451 0
27 -361 -93 2452 0
-163 477 73 2453 0
473 49 -458 2454 0
73 39 -236 2455 0
-111 -494 -429 2456 0
8 -164 37 2457 0
-51 -410 80 2458 0
-415 -375 -14 2459 0
445 -68 463 2460 0
-414 346 318 2461 0
-107 381 -108 2462 0
29 -418 -360 2463 0
211 -396 175 2464 0
364 428 -462 2465 0
-465 454 -213 2466 0
-174 227 115 2467 0
210 421 -429 2468 0
153 96 -29 2469 0
-325 -294 -435 2470 0
-213 -197 161 2471 0
-90 -446 271 2472 0
258 -156 414 2473 0
168 -202 489 2474 0
-117 -62 370 2475 0
382 496 260 2476 0
204 -85 425 2477 0
186 40 -207 2478 0
95 -239 41 2479 0
297 -478 414 2480 0
-480 -79 -213 2481 0
229 276 448 2482 0
169 -112 61 2483 0
-62 -303 405 2484 0
-90 -14 -161 2485 0
-388 367 366 2486 0
-111 -396 340 2487 0
-255 166 -416 2488 0
-112 -440 -260 2489 0
-263 -291 84 2490 0
498 -210 -146 2491 0
-310 379 -403 2492 0
275 -500 136 2493 0
211 129 382 2494 0
-387 -77 131 2495 0
-453 351 -299 2496 0
-352 65 89 2497 0
474 390 -156 2498 0
483 -27 -215 2499 0
-489 181 -266 2500 0
369 201 402 2501 0
-288 490 319 2502 0
212 -168 -221 2503 0
79 -214 -126 2504 0
-62 486 -428 2505 0
357 75 -329 2506 0
-149 -409 411 2507 0
-40 -296 -189 2508 0
-305 44 332 2509 0
-310 -268 56 2510 0
-87 -63 -31 2511 0
365 -235 220 2512 0
411 18 -490 2513 0
489 162 498 2514 0
337 203 -268 2515 0
149 -33 247 2516 0
142 223 420 2517 0
149 267 362 2518 0
-300 448 229 2519 0
-436 61 448 2520 0
456 -112 469 2521 0
309 177 75 2522 0
500 -111 -10 2523 0
368 -74 -464 2524 0
249 414 -14 2525 0
-166 -466 464 2526 0
254 264 -208 2527 0
-452 433 204 2528 0
-242 -203 236 2529 0
82 341 -409 2530 0
65 -214 -71 2531 0
81 -283 120 2532 0
-120 188 -315 2533 0
-484 130 114 2534 0
-183 190 500 2535 0
69 145 91 2536 0
162 -185 167 2537 0
472 -276 415 2538 0
352 -99 -369 2539 0
456 428 365 2540 0
394 216 91 2541 0
165 488 456 2542 0
234 359 345 2543 0
-39 -376 84 2544 0
-466 -82 -29 2545 0
-387 394 -279 2546 0
27 -47 3 2547 0
-22 -80 312 2548 0
-92 -52 253 2549 0
296 444 188 2550 0
426 -115 132 2551 0
-274 -44 196 2552 0
-373 29 -357 2553 0
202 362 -130 2554 0
485 -360 357 2555 0
-110 92 -459 2556 0
-184 14 217 2557 0
147 -167 -54 2558 0
317 263 -469 2559 0
168 -169 450 2560 0
-272 -180 233 2561 0
469 -146 333 2562 0
-427 -41 214 2563 0
407 -336 -260 2564 0
477 158 -289 2565 0
-335 188 199 2566 0
27 -152 30 2567 0
-225 424 -56 2568 0
-248 331 -147 2569 0
-197 -289 -212 2570 0
336 -67 -76 2571 0
410 -64 261 2572 0
-199 -3 -121 2573 0
197 356 288 2574 0
13 391 343 2575 0
-237 342 -312 2576 0
-64 157 421 2577 0
487 4 -74 2578 0
-21 143 -110 2579 0
-416 -214 266 2580 0
251 115 316 2581 0
-442 -78 -63 2582 0
436 -258 -479 2583 0
406 452 -90 2584 0
412 -239 -492 2585 0
-344 -314 23 2586 0
-38 -317 16 2587 0
-279 34 114 2588 0
-258 307 6 2589 0
334 446 -433 2590 0
139 369 -499 2591 0
200 -135 431 2592 0
366 184 277 2593 0
458 380 -132 2594 0
230 269 156 2595 0
362 382 -130 2596 0
200 -432 -140 2597 0
-64 -345 -180 2598 0
-449 -189 388 2599 0
-164 179 375 2600 0
-317 89 -294 2601 0
-389 -147 -441 2602 0
54 -12 -475 2603 0
2 137 316 2604 0
122 -302 482 2605 0
382 192 -30 2606 0
470 -450 291 2607 0
96 -202 332 2608 0
-72 -252 -370 2609 0
145 411 226 2610 0
-247 119 -464 2611 0
-403 1 247 2612 0
-458 219 -316 2613 0
-396 -380 300 2614 0
355 281 -92 2615 0
-312 -170 269 2616 0
-130 120 -365 2617 0
-15 -130 179 2618 0
413 86 -456 2619 0
61 -414 -136 2620 0
-133 -243 -218 2621 0
291 -471 17 2622 0
186 273 -3 2623 0
8 -279 -247 2624 0
-492 -195 -326 2625 0
-218 -465 293 2626 0
-408 -482 113 2627 0
-486 -383 440 2628 0
329 -316 20 2629 0
-169 -448 -257 2630 0
-484 -136 331 2631 0
268 -271 489 2632 0
-198 490 137 2633 0
154 486 -291 2634 0
-238 -467 -477 2635 0
-485 190 85 2636 0
-440 275 -305 2637 0
6 480 -390 2638 0
-27 -251 -305 2639 0
257 -204 381 2640 0
180 -289 -102 2641 0
-241 134 -403 2642 0
439 -453 -35 2643 0
-283 138 481 2644 0
399 46 275 2645 0
-255 337 -392 2646 0
79 -4 -51 2647 0
-156 474 343 2648 0
-116 445 318 2649 0
305 -455 -292 2650 0
