p cnf 2650 2150
433 494 220 501 0
-130 -182 -34 502 0
149 291 -16 503 0
-276 416 -318 504 0
47 242 469 505 0
173 379 353 506 0
-102 231 455 507 0
305 10 -456 508 0
-383 105 478 509 0
-1 327 -416 510 0
167 -55 483 511 0
495 -186 -87 512 0
-204 430 298 513 0
-285 -270 -408 514 0
-433 461 162 515 0
-368 348 -352 516 0
16 -156 -409 517 0
-118 262 370 518 0
-449 -428 224 519 0
-131 193 -109 520 0
98 424 194 521 0
-299 -431 -72 522 0
156 203 -300 523 0
-117 109 252 524 0
-113 -30 -168 525 0
344 492 -58 526 0
-254 -290 66 527 0
106 -364 -317 528 0
-65 106 319 529 0
-359 289 -216 530 0
84 -198 296 531 0
-70 374 -484 532 0
-473 -121 370 533 0
191 -367 -61 534 0
325 -29 183 535 0
-264 479 92 536 0
139 216 -478 537 0
-171 -280 57 538 0
18 -153 135 539 0
-372 225 -72 540 0
230 -483 -306 541 0
-65 120 -186 542 0
32 -179 166 543 0
-88 -307 -348 544 0
-269 -99 -297 545 0
49 77 -333 546 0
-99 -334 447 547 0
185 -32 143 548 0
428 435 -262 549 0
-30 297 11 550 0
290 -362 392 551 0
-433 419 284 552 0
34 416 394 553 0
-446 -438 -377 554 0
-459 211 -492 555 0
182 -340 -188 556 0
244 467 446 557 0
374 -305 -289 558 0
284 488 -341 559 0
177 -376 69 560 0
-65 159 404 561 0
437 -36 -201 562 0
-322 480 -197 563 0
-28 -404 451 564 0
61 378 -159 565 0
452 -160 -294 566 0
154 -425 -445 567 0
-212 65 180 568 0
-273 298 -361 569 0
-296 271 -476 570 0
-338 192 403 571 0
-161 329 428 572 0
-500 352 -263 573 0
245 -21 -380 574 0
176 -48 36 575 0
487 -232 490 576 0
-384 74 376 577 0
-108 92 -54 578 0
-446 443 -250 579 0
357 295 222 580 0
-445 -105 -16 581 0
366 -229 -179 582 0
259 368 36 583 0
4 -462 -65 584 0
64 -239 442 585 0
359 -56 -38 586 0
-19 -212 257 587 0
279 -374 -312 588 0
433 223 -340 589 0
-141 -459 382 590 0
-365 -354 -467 591 0
-71 -391 30 592 0
-215 87 -500 593 0
-370 -415 -339 594 0
488 -358 420 595 0
-325 289 149 596 0
-380 -226 292 597 0
-76 -488 -265 598 0
-135 -494 92 599 0
423 276 -244 600 0
489 -344 371 601 0
70 -18 168 602 0
74 -362 280 603 0
-2 151 -365 604 0
452 217 -62 605 0
-222 2 -372 606 0
357 -353 -44 607 0
-339 -104 -8 608 0
-498 -277 284 609 0
98 -137 166 610 0
76 -476 -463 611 0
-116 451 -455 612 0
-105 244 112 613 0
75 102 -259 614 0
461 288 283 615 0
318 -211 438 616 0
67 -426 436 617 0
429 -441 194 618 0
339 -160 348 619 0
365 -256 163 620 0
184 375 324 621 0
-241 326 -464 622 0
-330 -149 247 623 0
178 -386 399 624 0
216 -306 -189 625 0
97 -7 24 626 0
-42 -476 -402 627 0
-45 263 -4 628 0
-237 -186 -207 629 0
1 -202 -28 630 0
86 -61 -198 631 0
-478 486 252 632 0
469 -480 264 633 0
-77 285 171 634 0
-124 434 13 635 0
-88 -319 231 636 0
382 -212 132 637 0
-479 -271 -172 638 0
-153 -450 -428 639 0
328 120 -239 640 0
-261 -226 -141 641 0
409 -293 -332 642 0
-433 -311 -275 643 0
-315 421 80 644 0
-183 -365 396 645 0
-362 433 103 646 0
-98 290 -230 647 0
39 443 -438 648 0
266 391 -491 649 0
-187 258 -217 650 0
354 -484 -145 651 0
318 98 453 652 0
-229 -479 425 653 0
465 -110 -495 654 0
-493 -204 -264 655 0
449 71 233 656 0
-320 -35 341 657 0
134 -424 109 658 0
495 291 -107 659 0
-406 -296 -37 660 0
-366 281 484 661 0
-139 250 -219 662 0
22 32 -420 663 0
-486 325 -212 664 0
300 279 -147 665 0
185 363 251 666 0
399 -216 413 667 0
144 136 375 668 0
-410 -171 364 669 0
107 468 -411 670 0
-146 17 55 671 0
285 145 -214 672 0
208 -46 416 673 0
352 -35 356 674 0
1 126 285 675 0
433 72 -364 676 0
-362 3 -167 677 0
51 329 332 678 0
-296 -271 -334 679 0
-217 -230 115 680 0
-208 406 -309 681 0
380 -59 -441 682 0
-348 -249 -127 683 0
-174 -406 207 684 0
442 42 -280 685 0
438 -7 11 686 0
80 -431 440 687 0
159 -88 37 688 0
-406 440 -46 689 0
410 298 -82 690 0
-65 -358 247 691 0
-418 13 -355 692 0
-227 -204 -41 693 0
420 425 -264 694 0
-440 -148 151 695 0
41 102 444 696 0
139 -357 359 697 0
205 495 -112 698 0
249 -162 -451 699 0
122 475 -314 700 0
298 -299 12 701 0
312 -340 -422 702 0
-186 -267 -253 703 0
-252 -96 80 704 0
246 -472 26 705 0
51 -409 313 706 0
-86 -493 467 707 0
179 80 -385 708 0
314 427 -210 709 0
-429 -330 -354 710 0
-301 418 -452 711 0
321 59 -376 712 0
-9 437 212 713 0
-100 -378 408 714 0
-219 -493 304 715 0
484 99 110 716 0
-85 -78 327 717 0
-277 417 -116 718 0
-165 -311 -386 719 0
25 -219 324 720 0
157 -416 -113 721 0
111 417 372 722 0
218 -9 -188 723 0
-343 -108 -274 724 0
205 -4 -111 725 0
227 417 6 726 0
-317 497 396 727 0
-97 -41 431 728 0
108 438 308 729 0
368 -82 207 730 0
-338 257 -11 731 0
262 247 -400 732 0
-92 -135 -360 733 0
-131 34 314 734 0
-214 -492 -465 735 0
-116 83 248 736 0
-466 239 270 737 0
-243 -401 -32 738 0
-60 305 -61 739 0
-311 -402 -319 740 0
-223 233 498 741 0
301 -417 -7 742 0
-379 -93 270 743 0
158 -96 -494 744 0
-135 57 133 745 0
307 167 -78 746 0
97 -279 -173 747 0
-390 -403 37 748 0
253 319 -385 749 0
-87 -41 -396 750 0
411 340 -88 751 0
487 -309 -281 752 0
-136 -458 -401 753 0
107 59 -464 754 0
-278 272 168 755 0
-465 -79 250 756 0
278 -460 -481 757 0
-417 -131 203 758 0
330 -63 -159 759 0
-200 274 267 760 0
-241 -54 -212 761 0
-311 26 173 762 0
-77 -481 299 763 0
41 64 -280 764 0
71 18 -214 765 0
453 13 488 766 0
-472 118 150 767 0
96 421 431 768 0
-500 466 279 769 0
-483 -56 -371 770 0
-189 477 -105 771 0
441 24 -156 772 0
-337 -284 -8 773 0
-280 -489 47 774 0
310 -282 -129 775 0
114 -232 458 776 0
-153 255 373 777 0
-389 143 -94 778 0
100 103 463 779 0
487 411 283 780 0
219 210 461 781 0
132 102 361 782 0
494 -211 -447 783 0
-163 119 110 784 0
479 81 387 785 0
-217 243 236 786 0
345 30 384 787 0
70 445 -193 788 0
49 485 438 789 0
-485 355 -487 790 0
-270 328 -293 791 0
-336 399 -410 792 0
-102 278 -422 793 0
-355 -469 -480 794 0
-461 113 -170 795 0
139 -258 430 796 0
-182 54 -352 797 0
240 -494 -293 798 0
-28 292 156 799 0
-384 -415 -249 800 0
76 -20 442 801 0
-445 -380 -143 802 0
152 -61 -221 803 0
-63 364 302 804 0
155 376 33 805 0
285 151 -175 806 0
88 -85 48 807 0
-239 434 374 808 0
297 -380 401 809 0
-163 74 267 810 0
-365 -5 60 811 0
434 173 143 812 0
58 457 -250 813 0
-401 -365 336 814 0
-354 370 -170 815 0
474 -453 -261 816 0
-312 483 292 817 0
436 321 474 818 0
-419 104 -405 819 0
41 -387 -390 820 0
-248 -172 226 821 0
-198 -33 -410 822 0
353 -224 235 823 0
-130 104 435 824 0
103 -407 377 825 0
-8 -4 -390 826 0
275 -302 -437 827 0
45 37 109 828 0
-211 257 -256 829 0
-82 481 363 830 0
-210 -400 -401 831 0
374 -207 31 832 0
-129 -489 -29 833 0
145 -24 302 834 0
332 -32 -204 835 0
183 313 -98 836 0
12 -213 439 837 0
268 330 -473 838 0
-42 -133 136 839 0
161 -258 -358 840 0
-416 -305 -263 841 0
72 295 143 842 0
-167 197 171 843 0
383 359 -207 844 0
-432 -1 29 845 0
358 336 -422 846 0
341 136 380 847 0
-253 446 -452 848 0
-497 306 -84 849 0
58 258 110 850 0
285 -306 257 851 0
301 312 -290 852 0
-389 10 -221 853 0
174 96 -463 854 0
173 284 148 855 0
-310 151 53 856 0
282 -254 -163 857 0
-133 188 -305 858 0
-358 471 -441 859 0
62 -259 -180 860 0
42 -168 47 861 0
-159 -437 75 862 0
-112 -13 182 863 0
-266 127 -459 864 0
-427 -317 -247 865 0
282 -286 134 866 0
26 384 -136 867 0
11 -381 223 868 0
128 -328 -127 869 0
164 -115 206 870 0
-480 -229 198 871 0
35 322 496 872 0
-327 473 171 873 0
263 77 -465 874 0
144 59 -400 875 0
-60 -136 -459 876 0
242 -209 359 877 0
-225 -438 -350 878 0
108 66 204 879 0
249 441 -267 880 0
-36 -71 -440 881 0
399 -195 248 882 0
-214 -381 230 883 0
-399 354 -414 884 0
70 -161 74 885 0
430 -222 -209 886 0
104 -378 356 887 0
96 -297 242 888 0
-404 97 -191 889 0
279 -463 -332 890 0
-269 465 473 891 0
-245 -390 -163 892 0
235 305 244 893 0
-49 -469 -4 894 0
420 122 63 895 0
-81 283 28 896 0
138 1 29 897 0
-175 289 152 898 0
103 198 -349 899 0
-437 -452 20 900 0
-115 -183 -7 901 0
128 -400 -464 902 0
-103 -97 413 903 0
-6 203 283 904 0
-136 -329 -34 905 0
117 -420 -220 906 0
-490 413 -410 907 0
302 465 -407 908 0
20 -279 92 909 0
-315 -177 -173 910 0
-321 -489 197 911 0
-478 119 -206 912 0
128 -377 -260 913 0
420 344 -335 914 0
-322 424 210 915 0
-112 465 -313 916 0
460 -196 382 917 0
-70 -341 -379 918 0
265 -125 -174 919 0
-194 -459 220 920 0
-398 -158 190 921 0
136 229 250 922 0
126 -204 -147 923 0
34 360 227 924 0
361 -309 207 925 0
261 -437 484 926 0
-269 21 -322 927 0
-77 -360 -57 928 0
414 417 -481 929 0
356 168 77 930 0
-33 -405 -392 931 0
-488 -122 90 932 0
283 399 90 933 0
461 226 449 934 0
-211 -377 456 935 0
-134 302 248 936 0
165 -347 -445 937 0
-341 107 -448 938 0
141 -125 7 939 0
450 424 -94 940 0
-398 316 322 941 0
-31 -308 97 942 0
186 -365 -83 943 0
13 -43 -455 944 0
-262 -237 -97 945 0
-42 329 -229 946 0
397 446 139 947 0
-227 -163 -153 948 0
-395 41 81 949 0
418 -66 46 950 0
-272 364 -20 951 0
-159 -33 -92 952 0
-275 327 -45 953 0
96 248 -278 954 0
445 -85 439 955 0
-299 -356 -161 956 0
173 -265 -118 957 0
164 -201 -101 958 0
306 385 -292 959 0
-341 -486 -135 960 0
-133 -357 46 961 0
24 -232 -270 962 0
273 160 404 963 0
444 -480 463 964 0
-111 -185 -488 965 0
-432 -408 353 966 0
402 -267 -35 967 0
-436 -9 -323 968 0
-15 79 92 969 0
-380 -128 -493 970 0
-240 -235 27 971 0
-487 304 -287 972 0
-7 321 -496 973 0
-391 -270 -302 974 0
155 374 229 975 0
-494 -177 44 976 0
-307 426 -472 977 0
-294 381 349 978 0
-14 -12 -427 979 0
192 -184 -103 980 0
-194 -7 90 981 0
213 343 -271 982 0
107 -463 -44 983 0
-340 -468 499 984 0
105 225 160 985 0
494 -11 497 986 0
376 -452 383 987 0
-333 70 21 988 0
451 425 -427 989 0
447 393 -271 990 0
171 -5 493 991 0
15 424 105 992 0
-82 417 72 993 0
-410 -487 -240 994 0
-8 -353 -448 995 0
180 -374 -51 996 0
-192 -54 429 997 0
395 -68 352 998 0
343 159 -309 999 0
279 -158 -348 1000 0
-112 354 443 1001 0
-342 -416 30 1002 0
318 1 46 1003 0
-149 -393 -126 1004 0
-164 93 -315 1005 0
-424 -145 -191 1006 0
119 -52 -110 1007 0
221 -88 376 1008 0
25 -265 196 1009 0
-23 197 -268 1010 0
-269 -437 -121 1011 0
-164 424 -28 1012 0
217 253 484 1013 0
419 430 -478 1014 0
-19 -371 -124 1015 0
-163 412 25 1016 0
321 136 18 1017 0
-261 -274 -457 1018 0
-34 129 196 1019 0
373 416 328 1020 0
67 465 280 1021 0
-419 -493 -1 1022 0
459 -313 -169 1023 0
311 -483 -332 1024 0
308 123 -182 1025 0
-255 -445 83 1026 0
317 195 -10 1027 0
188 289 -202 1028 0
-476 381 -351 1029 0
122 24 -293 1030 0
-58 224 399 1031 0
-166 387 -86 1032 0
-169 95 63 1033 0
440 138 -422 1034 0
139 440 -402 1035 0
-446 141 142 1036 0
-308 -223 -147 1037 0
-243 451 -237 1038 0
383 324 94 1039 0
-83 174 -373 1040 0
418 317 -406 1041 0
483 334 448 1042 0
-358 467 -416 1043 0
330 134 93 1044 0
289 488 10 1045 0
61 373 -158 1046 0
278 483 71 1047 0
95 -371 -436 1048 0
-160 168 145 1049 0
84 -267 -38 1050 0
25 45 390 1051 0
-27 309 118 1052 0
382 476 495 1053 0
243 -283 -391 1054 0
-305 -207 -59 1055 0
238 -31 412 1056 0
113 -120 -185 1057 0
-239 -397 -304 1058 0
-134 351 451 1059 0
422 -421 -51 1060 0
195 150 207 1061 0
-442 -198 -108 1062 0
142 249 302 1063 0
65 102 -235 1064 0
-251 -209 432 1065 0
-99 -418 484 1066 0
179 351 -435 1067 0
37 448 259 1068 0
226 277 -298 1069 0
272 -194 427 1070 0
290 163 236 1071 0
-92 108 -10 1072 0
24 -500 -263 1073 0
1 -376 459 1074 0
-343 251 316 1075 0
401 -210 127 1076 0
-339 367 330 1077 0
479 451 -491 1078 0
347 499 -289 1079 0
43 -186 230 1080 0
-490 -146 231 1081 0
-38 -1 -271 1082 0
-82 -117 88 1083 0
490 -199 -48 1084 0
-308 -264 -14 1085 0
-398 -129 -151 1086 0
-219 -417 -195 1087 0
-126 199 -30 1088 0
163 358 478 1089 0
-303 -304 463 1090 0
-430 -98 -185 1091 0
-18 -438 266 1092 0
458 121 352 1093 0
-384 -158 488 1094 0
386 73 43 1095 0
-357 -399 171 1096 0
-366 311 158 1097 0
421 -115 405 1098 0
41 28 -474 1099 0
-208 375 459 1100 0
-51 -121 -487 1101 0
370 1 124 1102 0
462 232 152 1103 0
-239 -258 3 1104 0
74 58 36 1105 0
246 327 499 1106 0
159 255 -244 1107 0
160 498 -478 1108 0
-97 -136 -373 1109 0
158 73 397 1110 0
93 118 156 1111 0
-130 331 -160 1112 0
274 -478 467 1113 0
-224 -431 -25 1114 0
-126 1 461 1115 0
-110 408 -417 1116 0
-65 352 9 1117 0
-164 -13 -344 1118 0
288 -117 149 1119 0
338 -47 215 1120 0
-320 -455 136 1121 0
-49 -124 -88 1122 0
39 359 155 1123 0
-259 230 -35 1124 0
-497 -280 -57 1125 0
-361 -17 -118 1126 0
186 124 157 1127 0
-12 -188 -129 1128 0
-110 445 284 1129 0
-90 59 224 1130 0
46 -238 124 1131 0
-326 64 -284 1132 0
-5 -103 -323 1133 0
314 55 -368 1134 0
244 -296 -258 1135 0
21 418 11 1136 0
-494 -128 469 1137 0
217 -319 215 1138 0
476 -244 171 1139 0
-258 -164 356 1140 0
-377 439 -429 1141 0
238 422 -229 1142 0
-385 -43 -49 1143 0
166 38 388 1144 0
455 413 415 1145 0
-409 482 -306 1146 0
345 -303 474 1147 0
425 -250 -160 1148 0
-291 -266 126 1149 0
249 -365 452 1150 0
339 480 249 1151 0
410 -458 14 1152 0
-273 208 189 1153 0
-305 -424 -336 1154 0
2 -302 134 1155 0
-90 -146 -435 1156 0
138 101 411 1157 0
-95 -476 292 1158 0
-164 -321 109 1159 0
-369 -66 213 1160 0
-358 -114 442 1161 0
462 469 427 1162 0
-130 -308 350 1163 0
-9 -474 110 1164 0
-237 -499 -272 1165 0
-317 22 -302 1166 0
175 -308 178 1167 0
-270 291 321 1168 0
473 -408 368 1169 0
197 -478 -477 1170 0
163 319 -60 1171 0
-53 466 -27 1172 0
71 -9 -241 1173 0
-404 206 76 1174 0
137 -103 -33 1175 0
-271 -387 -158 1176 0
-348 -62 200 1177 0
183 280 355 1178 0
274 40 356 1179 0
-308 -357 -218 1180 0
-325 -407 -68 1181 0
-500 -48 -452 1182 0
94 367 -113 1183 0
327 273 -206 1184 0
-251 -461 -492 1185 0
-214 -159 300 1186 0
277 -425 486 1187 0
-83 286 191 1188 0
477 117 -177 1189 0
258 391 439 1190 0
-476 -285 -11 1191 0
-318 462 -178 1192 0
221 107 -41 1193 0
348 54 380 1194 0
439 -228 -299 1195 0
-416 -259 -152 1196 0
-17 105 -206 1197 0
-72 66 216 1198 0
11 387 -432 1199 0
-302 352 229 1200 0
-440 94 -425 1201 0
-275 354 -178 1202 0
-500 248 -415 1203 0
33 281 -12 1204 0
-38 7 -155 1205 0
-343 198 207 1206 0
80 454 -486 1207 0
112 60 -211 1208 0
495 -122 -252 1209 0
-296 -408 -231 1210 0
73 53 365 1211 0
-11 316 306 1212 0
150 -80 437 1213 0
331 -269 -417 1214 0
433 464 -348 1215 0
211 323 254 1216 0
-400 107 -458 1217 0
-458 235 -474 1218 0
-82 -346 8 1219 0
-158 -283 -382 1220 0
-380 469 -403 1221 0
323 165 -445 1222 0
-411 158 444 1223 0
374 414 -373 1224 0
-208 -494 -321 1225 0
468 149 -355 1226 0
-497 -192 -473 1227 0
-4 -490 378 1228 0
-496 134 464 1229 0
-378 328 -400 1230 0
-84 289 275 1231 0
70 314 -140 1232 0
469 -312 160 1233 0
-478 -179 -329 1234 0
63 296 365 1235 0
-153 385 -236 1236 0
56 135 371 1237 0
334 171 269 1238 0
-397 -149 406 1239 0
491 150 115 1240 0
-13 9 -416 1241 0
60 481 281 1242 0
-56 427 446 1243 0
-347 -222 -118 1244 0
109 244 123 1245 0
-246 -401 27 1246 0
108 351 -8 1247 0
251 -117 -90 1248 0
214 -477 -268 1249 0
408 304 198 1250 0
393 150 -396 1251 0
-456 -68 -464 1252 0
97 497 58 1253 0
146 453 297 1254 0
-37 -389 407 1255 0
26 -73 315 1256 0
474 -3 267 1257 0
395 326 -238 1258 0
-259 97 357 1259 0
-71 -30 -152 1260 0
-327 490 -54 1261 0
-174 489 10 1262 0
-160 -227 -357 1263 0
-106 363 1 1264 0
194 -270 -374 1265 0
-157 158 -312 1266 0
-486 -151 -293 1267 0
398 186 246 1268 0
294 310 -136 1269 0
168 -263 -267 1270 0
366 -284 -378 1271 0
368 -264 -185 1272 0
-86 43 -394 1273 0
292 -406 380 1274 0
-1 -263 77 1275 0
-199 482 302 1276 0
-137 53 -129 1277 0
434 490 -190 1278 0
-207 35 194 1279 0
-284 74 -380 1280 0
-128 29 322 1281 0
-321 -358 -345 1282 0
-388 -183 -253 1283 0
-124 -178 258 1284 0
232 202 -139 1285 0
177 128 258 1286 0
-443 469 -226 1287 0
-364 40 34 1288 0
-7 -446 -276 1289 0
-105 56 452 1290 0
-204 223 -103 1291 0
17 357 263 1292 0
-309 46 95 1293 0
295 -93 43 1294 0
-364 -1 -149 1295 0
-289 294 -455 1296 0
-367 -2 -16 1297 0
-139 -69 52 1298 0
-150 -90 -130 1299 0
-90 -372 -202 1300 0
189 282 341 1301 0
38 -265 46 1302 0
214 -9 112 1303 0
380 -389 163 1304 0
319 6 161 1305 0
470 20 -495 1306 0
-408 -281 -290 1307 0
278 334 -293 1308 0
-139 192 -39 1309 0
-171 -323 245 1310 0
-292 -29 432 1311 0
483 240 118 1312 0
146 42 -85 1313 0
-481 -277 400 1314 0
180 36 -326 1315 0
-90 -277 101 1316 0
312 150 332 1317 0
-267 -400 -324 1318 0
-239 370 282 1319 0
-218 9 415 1320 0
258 314 -428 1321 0
-16 22 366 1322 0
-10 363 210 1323 0
90 429 317 1324 0
133 152 -450 1325 0
-9 254 -251 1326 0
-139 186 -31 1327 0
-343 -17 7 1328 0
-24 -496 498 1329 0
95 -356 435 1330 0
157 -401 260 1331 0
91 -330 226 1332 0
-293 360 172 1333 0
-112 288 202 1334 0
-346 163 -440 1335 0
-124 -445 -490 1336 0
-226 427 -275 1337 0
260 309 367 1338 0
-246 -498 -318 1339 0
405 37 -428 1340 0
423 -170 -153 1341 0
-482 -48 -457 1342 0
120 89 -251 1343 0
-436 102 224 1344 0
-491 72 413 1345 0
140 382 -477 1346 0
-50 375 415 1347 0
29 208 -102 1348 0
486 380 379 1349 0
114 151 -178 1350 0
396 473 -347 1351 0
-193 -441 257 1352 0
4 27 -233 1353 0
-35 447 -307 1354 0
51 208 -159 1355 0
23 211 -305 1356 0
-428 218 -283 1357 0
481 -100 -241 1358 0
293 170 382 1359 0
312 476 275 1360 0
312 -413 -433 1361 0
-475 335 456 1362 0
-79 -325 -82 1363 0
291 108 -290 1364 0
-322 152 14 1365 0
-81 -50 -169 1366 0
-98 -275 -313 1367 0
281 128 -300 1368 0
444 -178 185 1369 0
-64 -292 296 1370 0
402 -313 -330 1371 0
480 -223 -38 1372 0
380 42 127 1373 0
-365 -120 -421 1374 0
-385 -142 330 1375 0
93 -51 -77 1376 0
137 -169 146 1377 0
-100 -459 296 1378 0
153 159 7 1379 0
-225 -181 -334 1380 0
483 -281 -137 1381 0
-232 102 -21 1382 0
-296 252 -133 1383 0
-452 1 117 1384 0
130 280 94 1385 0
383 262 -107 1386 0
-441 91 -80 1387 0
334 460 -111 1388 0
-279 471 22 1389 0
-120 337 -394 1390 0
281 -247 -93 1391 0
442 416 -229 1392 0
109 -24 -202 1393 0
457 71 -435 1394 0
-472 -79 -463 1395 0
-355 208 279 1396 0
102 -277 23 1397 0
72 -118 -200 1398 0
-59 314 -328 1399 0
-334 -11 2 1400 0
37 3 150 1401 0
-233 373 381 1402 0
-480 -194 352 1403 0
321 190 193 1404 0
-374 -299 -396 1405 0
251 -342 451 1406 0
429 99 141 1407 0
293 80 -429 1408 0
108 -432 -386 1409 0
318 -108 186 1410 0
-307 -220 -453 1411 0
-51 480 47 1412 0
123 344 -447 1413 0
-42 -7 148 1414 0
-464 348 6 1415 0
-367 -316 -147 1416 0
-332 340 -153 1417 0
-445 348 -471 1418 0
-57 -454 449 1419 0
63 -160 358 1420 0
-467 -190 -65 1421 0
-36 -298 -332 1422 0
216 453 58 1423 0
470 -450 361 1424 0
93 -122 343 1425 0
432 377 -345 1426 0
-238 -82 -212 1427 0
298 69 -262 1428 0
-130 460 328 1429 0
-388 -243 -241 1430 0
272 325 -308 1431 0
-405 54 314 1432 0
427 236 -193 1433 0
-225 458 -194 1434 0
425 388 415 1435 0
7 270 140 1436 0
-272 102 47 1437 0
108 -492 351 1438 0
-463 -235 -413 1439 0
206 -435 -378 1440 0
45 84 363 1441 0
128 386 482 1442 0
158 178 230 1443 0
179 -331 341 1444 0
224 -97 4 1445 0
-305 -75 -435 1446 0
435 89 1 1447 0
-295 -37 -379 1448 0
-249 442 -228 1449 0
-386 -339 -52 1450 0
492 -448 111 1451 0
-269 37 -197 1452 0
169 369 95 1453 0
-390 -293 187 1454 0
213 275 233 1455 0
-172 -458 -367 1456 0
-303 -249 373 1457 0
477 362 -310 1458 0
-181 -18 -164 1459 0
-224 318 279 1460 0
421 -453 -122 1461 0
-429 314 131 1462 0
379 197 128 1463 0
60 -422 -160 1464 0
-3 314 416 1465 0
157 32 320 1466 0
-196 -396 28 1467 0
302 -433 -223 1468 0
-254 -150 -420 1469 0
-8 -203 162 1470 0
301 -278 196 1471 0
-444 -207 -74 1472 0
-484 228 19 1473 0
395 433 226 1474 0
-164 -161 -323 1475 0
265 -46 -468 1476 0
257 301 -354 1477 0
-8 87 393 1478 0
113 -93 469 1479 0
433 99 114 1480 0
359 459 154 1481 0
-330 -70 233 1482 0
-93 152 261 1483 0
-195 294 392 1484 0
-408 -265 -227 1485 0
196 -87 -50 1486 0
309 228 173 1487 0
-232 -217 -493 1488 0
286 -313 466 1489 0
473 417 -484 1490 0
-436 190 -196 1491 0
241 113 395 1492 0
35 318 245 1493 0
394 390 489 1494 0
-60 495 -145 1495 0
132 341 -391 1496 0
-206 11 497 1497 0
425 -92 467 1498 0
-48 31 361 1499 0
-414 -460 -334 1500 0
324 428 -120 1501 0
-236 44 368 1502 0
164 -143 233 1503 0
98 -110 157 1504 0
-155 -465 -496 1505 0
296 72 -463 1506 0
297 456 -185 1507 0
200 155 149 1508 0
-241 467 230 1509 0
333 485 479 1510 0
350 288 41 1511 0
383 -14 -318 1512 0
-103 -215 -100 1513 0
-318 -154 39 1514 0
310 375 268 1515 0
108 -378 429 1516 0
-27 61 112 1517 0
-54 406 109 1518 0
36 210 302 1519 0
-159 -94 451 1520 0
-387 434 491 1521 0
494 -170 90 1522 0
-9 388 -325 1523 0
263 -343 469 1524 0
459 432 -78 1525 0
157 68 -351 1526 0
-284 -464 282 1527 0
133 343 457 1528 0
-256 -478 21 1529 0
-346 -333 -417 1530 0
-448 -279 -90 1531 0
-348 -135 -182 1532 0
367 -346 -146 1533 0
-169 -86 -181 1534 0
-221 -48 -102 1535 0
-472 -398 -436 1536 0
16 -141 108 1537 0
473 -351 356 1538 0
-360 362 14 1539 0
-245 231 72 1540 0
-208 55 -362 1541 0
-481 -128 377 1542 0
458 188 -162 1543 0
-497 262 -27 1544 0
-237 317 -401 1545 0
78 149 451 1546 0
476 -205 455 1547 0
-436 -385 -228 1548 0
106 303 390 1549 0
453 -415 -339 1550 0
-103 -339 -243 1551 0
39 -473 -43 1552 0
-468 -493 164 1553 0
-50 -135 465 1554 0
-67 -71 -448 1555 0
-464 -176 -408 1556 0
365 -147 333 1557 0
104 451 454 1558 0
360 315 -6 1559 0
253 -166 243 1560 0
40 236 -152 1561 0
-485 395 197 1562 0
95 -336 -54 1563 0
415 -400 9 1564 0
-217 -124 443 1565 0
-287 -317 -83 1566 0
221 224 -178 1567 0
-191 -245 430 1568 0
430 -439 497 1569 0
305 -308 218 1570 0
372 -103 75 1571 0
134 448 -41 1572 0
464 -23 353 1573 0
-393 100 192 1574 0
450 126 -88 1575 0
-456 59 167 1576 0
-87 436 372 1577 0
-340 180 286 1578 0
25 -195 -264 1579 0
251 -480 95 1580 0
124 362 6 1581 0
-310 62 103 1582 0
105 -139 398 1583 0
77 174 -387 1584 0
117 459 -355 1585 0
-418 82 204 1586 0
460 -348 -22 1587 0
-414 257 196 1588 0
415 -401 -352 1589 0
353 373 109 1590 0
465 -132 312 1591 0
306 -227 -201 1592 0
319 425 -480 1593 0
-394 -282 488 1594 0
-61 -111 -275 1595 0
-316 -138 223 1596 0
-494 1 -327 1597 0
158 300 -188 1598 0
-160 -420 -26 1599 0
86 -438 -443 1600 0
-76 187 43 1601 0
261 -486 33 1602 0
-466 351 -207 1603 0
-296 -222 417 1604 0
418 423 -335 1605 0
-463 371 -111 1606 0
383 -78 -237 1607 0
-152 172 -228 1608 0
113 485 369 1609 0
-24 373 -270 1610 0
315 -9 -339 1611 0
-458 -181 407 1612 0
-91 127 -490 1613 0
-375 303 331 1614 0
417 59 49 1615 0
-55 -404 -32 1616 0
-370 10 -423 1617 0
-180 -207 490 1618 0
229 301 246 1619 0
431 -287 102 1620 0
-350 68 42 1621 0
-295 314 245 1622 0
-370 -393 372 1623 0
-39 -219 -85 1624 0
-427 -239 267 1625 0
233 92 346 1626 0
-162 -38 -297 1627 0
-258 432 -306 1628 0
224 -335 -11 1629 0
242 -225 -217 1630 0
396 -280 -196 1631 0
135 437 -93 1632 0
16 301 317 1633 0
-282 145 107 1634 0
-38 -298 17 1635 0
95 -339 170 1636 0
-383 305 10 1637 0
-236 393 -131 1638 0
-9 -283 49 1639 0
-314 -390 245 1640 0
443 -47 356 1641 0
-375 -438 345 1642 0
462 -216 287 1643 0
134 -396 351 1644 0
-163 -91 102 1645 0
385 217 -264 1646 0
85 354 63 1647 0
108 251 307 1648 0
440 188 397 1649 0
466 -470 -31 1650 0
189 4 -315 1651 0
-149 -238 -161 1652 0
-104 162 203 1653 0
-55 -7 -83 1654 0
-110 307 477 1655 0
-12 -369 473 1656 0
-68 61 -286 1657 0
54 -387 -358 1658 0
255 -159 -71 1659 0
180 13 290 1660 0
21 -121 -230 1661 0
-36 283 154 1662 0
-473 10 414 1663 0
142 290 220 1664 0
-398 -361 -121 1665 0
-474 -414 399 1666 0
-97 -296 90 1667 0
-453 472 385 1668 0
-264 -130 -338 1669 0
-446 -27 77 1670 0
245 -154 -303 1671 0
405 -61 -125 1672 0
-270 -50 -73 1673 0
391 -115 414 1674 0
-190 60 -365 1675 0
476 312 332 1676 0
372 293 354 1677 0
-266 -461 -53 1678 0
235 -50 -419 1679 0
318 -31 424 1680 0
-389 -15 122 1681 0
-74 309 -163 1682 0
239 -19 360 1683 0
170 -62 -67 1684 0
-147 -86 -364 1685 0
479 79 -188 1686 0
-238 -383 60 1687 0
-236 -43 -199 1688 0
476 -216 -112 1689 0
-130 5 -191 1690 0
161 -400 432 1691 0
-361 -83 -159 1692 0
170 280 -425 1693 0
-86 -421 -251 1694 0
56 296 -179 1695 0
-273 -10 -322 1696 0
-383 -256 -227 1697 0
-21 200 -325 1698 0
-430 -349 -302 1699 0
-412 378 -218 1700 0
245 87 120 1701 0
-224 163 -294 1702 0
223 458 321 1703 0
378 256 156 1704 0
-51 7 253 1705 0
-157 378 253 1706 0
-254 -180 -153 1707 0
272 -460 -98 1708 0
-450 292 -248 1709 0
173 80 -413 1710 0
-378 -31 273 1711 0
-127 454 -434 1712 0
82 -141 -41 1713 0
-120 231 264 1714 0
-438 189 -377 1715 0
-220 384 -498 1716 0
109 36 17 1717 0
7 -474 276 1718 0
436 110 219 1719 0
226 -11 224 1720 0
-322 -97 132 1721 0
488 -327 379 1722 0
84 301 -269 1723 0
-262 230 487 1724 0
113 -206 -370 1725 0
-102 -469 373 1726 0
214 74 246 1727 0
-357 275 -224 1728 0
-63 -234 -270 1729 0
458 192 134 1730 0
167 440 -492 1731 0
-284 183 -213 1732 0
38 -125 483 1733 0
-203 475 -485 1734 0
238 234 22 1735 0
-51 488 277 1736 0
103 -309 -206 1737 0
-4 -185 275 1738 0
241 -434 -380 1739 0
-56 483 -91 1740 0
-296 8 -412 1741 0
-16 409 126 1742 0
327 -362 56 1743 0
-20 159 -72 1744 0
211 232 -268 1745 0
437 97 -389 1746 0
308 -450 -178 1747 0
458 -281 485 1748 0
330 -143 -463 1749 0
256 62 -484 1750 0
265 17 405 1751 0
-319 14 261 1752 0
-65 170 240 1753 0
-120 407 463 1754 0
473 -426 -369 1755 0
377 267 -193 1756 0
261 83 330 1757 0
-432 84 159 1758 0
-179 -363 457 1759 0
-20 -389 167 1760 0
-415 -288 19 1761 0
-494 -358 -89 1762 0
5 380 -205 1763 0
65 342 469 1764 0
486 358 59 1765 0
183 -365 -178 1766 0
-330 202 451 1767 0
-490 246 -77 1768 0
-490 -285 409 1769 0
-481 493 162 1770 0
-223 -425 -288 1771 0
-234 195 -38 1772 0
-445 61 -391 1773 0
-364 278 -397 1774 0
257 476 -494 1775 0
79 -92 102 1776 0
-319 1 -402 1777 0
-158 -375 413 1778 0
-90 303 -361 1779 0
-2 439 476 1780 0
-99 -172 -165 1781 0
-169 385 -380 1782 0
-357 334 237 1783 0
342 -88 -231 1784 0
486 359 -21 1785 0
-203 327 -113 1786 0
-380 280 400 1787 0
411 -97 3 1788 0
-68 -232 -397 1789 0
272 -307 175 1790 0
-281 90 -81 1791 0
38 45 -86 1792 0
-475 -283 373 1793 0
-251 465 -270 1794 0
264 41 -373 1795 0
471 -266 -197 1796 0
350 117 -374 1797 0
105 485 -201 1798 0
30 337 -366 1799 0
-78 208 171 1800 0
-55 427 469 1801 0
255 172 62 1802 0
3 -9 449 1803 0
462 285 197 1804 0
-314 -420 235 1805 0
-481 -166 -477 1806 0
128 -405 -318 1807 0
58 -154 319 1808 0
-119 115 306 1809 0
195 -289 27 1810 0
25 -465 68 1811 0
182 450 -372 1812 0
161 271 -139 1813 0
-48 -397 -81 1814 0
54 -176 191 1815 0
-140 -284 -192 1816 0
314 220 -472 1817 0
-397 97 404 1818 0
-303 148 107 1819 0
-288 127 246 1820 0
340 197 185 1821 0
235 285 232 1822 0
457 -419 118 1823 0
-316 -302 231 1824 0
-423 275 307 1825 0
361 325 -4 1826 0
386 374 -447 1827 0
-415 142 -368 1828 0
69 82 -464 1829 0
-232 338 -243 1830 0
263 153 378 1831 0
-429 -175 -22 1832 0
192 -437 196 1833 0
431 -438 435 1834 0
-124 -426 -35 1835 0
364 373 -183 1836 0
-51 -27 -406 1837 0
-330 404 -412 1838 0
475 -262 -168 1839 0
164 117 -377 1840 0
-99 168 -165 1841 0
-452 460 -342 1842 0
-419 -347 111 1843 0
331 -433 193 1844 0
-350 187 216 1845 0
-102 -161 26 1846 0
283 129 -360 1847 0
121 -474 -215 1848 0
474 487 -406 1849 0
-73 221 67 1850 0
-323 -328 288 1851 0
-258 413 -348 1852 0
-97 329 3 1853 0
-283 -462 480 1854 0
-349 -479 -5 1855 0
-222 -315 228 1856 0
246 -462 -328 1857 0
-401 -470 67 1858 0
-270 -115 -43 1859 0
150 -192 -36 1860 0
64 302 264 1861 0
-132 -188 153 1862 0
103 439 327 1863 0
186 -228 -472 1864 0
161 -349 401 1865 0
7 266 -334 1866 0
399 -63 -319 1867 0
-56 205 247 1868 0
-232 -170 422 1869 0
481 -451 -9 1870 0
-360 -246 -315 1871 0
-375 26 -377 1872 0
-113 -330 19 1873 0
-260 156 -257 1874 0
476 442 -45 1875 0
62 -395 -174 1876 0
224 392 61 1877 0
239 -98 -416 1878 0
-56 200 -161 1879 0
126 462 237 1880 0
492 267 348 1881 0
-232 -115 178 1882 0
254 -230 -497 1883 0
-366 -57 275 1884 0
166 -260 401 1885 0
-401 -338 287 1886 0
214 413 317 1887 0
-299 -114 486 1888 0
116 -451 -399 1889 0
456 -208 -372 1890 0
182 184 53 1891 0
348 45 -171 1892 0
-109 256 -139 1893 0
103 341 186 1894 0
333 -359 19 1895 0
45 231 -425 1896 0
99 -54 -349 1897 0
-240 -76 9 1898 0
-430 -77 -235 1899 0
-60 -97 26 1900 0
178 -296 -135 1901 0
148 154 100 1902 0
-456 -350 9 1903 0
39 49 302 1904 0
485 -150 -51 1905 0
-8 149 -393 1906 0
-311 139 324 1907 0
350 8 -194 1908 0
214 -4 19 1909 0
428 10 -39 1910 0
-379 -327 -353 1911 0
64 -348 -323 1912 0
473 -369 -304 1913 0
-113 269 227 1914 0
142 250 -42 1915 0
-208 -22 97 1916 0
-257 -303 -51 1917 0
326 -24 455 1918 0
305 -141 81 1919 0
-70 -28 -448 1920 0
-131 -240 -96 1921 0
23 -313 383 1922 0
160 30 303 1923 0
358 169 32 1924 0
206 485 -405 1925 0
21 170 327 1926 0
-256 141 400 1927 0
405 148 62 1928 0
144 -51 322 1929 0
245 -319 494 1930 0
-35 -264 207 1931 0
178 45 229 1932 0
-421 353 -349 1933 0
231 -380 312 1934 0
13 107 -25 1935 0
280 103 -144 1936 0
196 269 -273 1937 0
4 91 -277 1938 0
-165 11 443 1939 0
336 -2 -326 1940 0
-352 27 -104 1941 0
332 -10 20 1942 0
-399 -88 -159 1943 0
-281 -107 -466 1944 0
-213 -409 255 1945 0
323 -439 426 1946 0
-41 -54 219 1947 0
-194 -143 -209 1948 0
36 366 -25 1949 0
25 336 385 1950 0
250 -385 -330 1951 0
146 395 22 1952 0
-384 378 -385 1953 0
-230 26 284 1954 0
-60 -34 270 1955 0
-194 343 455 1956 0
38 188 384 1957 0
-467 80 -365 1958 0
-59 -383 -90 1959 0
421 477 -36 1960 0
-389 -6 -19 1961 0
173 314 47 1962 0
269 470 431 1963 0
128 -206 378 1964 0
-359 386 232 1965 0
-437 -482 68 1966 0
-73 26 -486 1967 0
-314 165 -256 1968 0
48 -266 322 1969 0
-220 -132 -139 1970 0
159 158 -85 1971 0
423 479 81 1972 0
334 453 437 1973 0
391 -414 -56 1974 0
380 150 -285 1975 0
-103 -419 161 1976 0
-58 -53 277 1977 0
382 -291 8 1978 0
179 318 143 1979 0
-112 -232 438 1980 0
376 153 8 1981 0
202 451 -342 1982 0
387 371 157 1983 0
291 400 196 1984 0
14 -486 -380 1985 0
-441 -241 138 1986 0
171 -188 497 1987 0
74 -477 336 1988 0
140 165 174 1989 0
-55 -344 109 1990 0
-419 -401 468 1991 0
488 -231 -494 1992 0
-482 129 -273 1993 0
266 381 -84 1994 0
215 -346 -157 1995 0
487 -69 423 1996 0
-89 161 423 1997 0
-400 -308 111 1998 0
329 -380 -201 1999 0
-487 -160 -344 2000 0
-185 231 88 2001 0
240 233 -85 2002 0
-316 -94 -451 2003 0
252 225 -222 2004 0
96 373 4 2005 0
-201 24 477 2006 0
480 -73 -264 2007 0
242 -230 179 2008 0
481 440 -189 2009 0
-171 -252 493 2010 0
-447 -57 170 2011 0
-233 -313 -349 2012 0
-265 152 -413 2013 0
211 339 -356 2014 0
236 121 396 2015 0
-305 -156 85 2016 0
200 -470 -201 2017 0
472 107 -183 2018 0
-53 36 -64 2019 0
-473 -36 424 2020 0
234 -221 -14 2021 0
85 259 -419 2022 0
311 -471 -235 2023 0
185 367 306 2024 0
245 -476 -236 2025 0
148 251 197 2026 0
230 362 263 2027 0
332 -55 -274 2028 0
-210 -45 59 2029 0
84 231 -82 2030 0
-410 -116 177 2031 0
406 -191 -463 2032 0
-207 108 222 2033 0
187 -330 304 2034 0
374 449 -124 2035 0
307 -474 411 2036 0
-309 -403 -222 2037 0
276 -181 114 2038 0
-318 471 -44 2039 0
-26 -357 -239 2040 0
323 -186 -19 2041 0
356 212 101 2042 0
426 271 -218 2043 0
-260 -131 -377 2044 0
-355 167 485 2045 0
96 -20 242 2046 0
437 448 403 2047 0
-89 -129 335 2048 0
266 423 -139 2049 0
-204 -338 -418 2050 0
-489 397 -367 2051 0
-28 -353 372 2052 0
-77 -447 -129 2053 0
-97 383 183 2054 0
-275 186 -147 2055 0
230 -35 -308 2056 0
487 -363 25 2057 0
333 159 -294 2058 0
-12 111 292 2059 0
376 -149 378 2060 0
307 414 -425 2061 0
-480 -226 -334 2062 0
-24 -194 -154 2063 0
-54 369 352 2064 0
-169 486 -255 2065 0
-291 -367 -469 2066 0
-493 -325 -148 2067 0
-368 -130 233 2068 0
118 -242 264 2069 0
282 -376 206 2070 0
-275 -183 472 2071 0
-382 -89 134 2072 0
-18 486 -144 2073 0
-426 493 -24 2074 0
-267 465 321 2075 0
-130 -448 394 2076 0
-232 -126 108 2077 0
41 365 -283 2078 0
478 108 83 2079 0
-458 15 52 2080 0
-165 424 180 2081 0
186 422 190 2082 0
-180 -378 357 2083 0
-325 -10 35 2084 0
95 258 -453 2085 0
-90 48 108 2086 0
-176 491 -351 2087 0
330 -407 235 2088 0
-157 416 -352 2089 0
-352 187 98 2090 0
65 334 44 2091 0
9 -167 -225 2092 0
-450 -166 39 2093 0
377 -279 -363 2094 0
42 64 -246 2095 0
-9 -442 -204 2096 0
-140 422 -423 2097 0
483 -388 246 2098 0
276 -383 381 2099 0
322 64 121 2100 0
452 -453 -483 2101 0
-239 -346 -489 2102 0
29 -235 -21 2103 0
-141 200 -64 2104 0
264 -377 -234 2105 0
-43 -472 46 2106 0
-379 -273 -449 2107 0
-21 -324 359 2108 0
66 -319 154 2109 0
-158 -137 70 2110 0
392 -27 -77 2111 0
123 -362 -172 2112 0
-392 -145 -366 2113 0
376 -391 -448 2114 0
-384 -157 438 2115 0
110 92 487 2116 0
-11 -446 -143 2117 0
-434 -19 209 2118 0
27 367 441 2119 0
395 312 49 2120 0
-12 -294 362 2121 0
177 183 113 2122 0
-429 360 410 2123 0
203 93 369 2124 0
-90 48 465 2125 0
-390 317 -166 2126 0
-400 -364 110 2127 0
-350 -439 -37 2128 0
-30 99 -417 2129 0
-471 -493 266 2130 0
-132 58 -270 2131 0
-410 -12 488 2132 0
-188 246 256 2133 0
336 378 -455 2134 0
363 209 -484 2135 0
-391 -251 20 2136 0
-496 -406 -245 2137 0
-379 -88 -150 2138 0
-183 495 123 2139 0
64 -413 35 2140 0
205 -21 -252 2141 0
-426 466 -164 2142 0
117 255 -473 2143 0
139 -149 -398 2144 0
465 148 392 2145 0
-370 149 -474 2146 0
168 -117 240 2147 0
-439 31 -19 2148 0
-249 -323 -194 2149 0
183 92 435 2150 0
-472 -358 345 2151 0
425 -345 198 2152 0
-229 375 -470 2153 0
109 311 141 2154 0
-188 180 -346 2155 0
173 300 -63 2156 0
-146 -345 142 2157 0
124 357 -112 2158 0
-109 345 -413 2159 0
-386 -282 -349 2160 0
258 206 -454 2161 0
225 -303 -338 2162 0
57 156 91 2163 0
275 105 376 2164 0
69 -407 -398 2165 0
-344 217 -388 2166 0
200 -253 -37 2167 0
339 68 330 2168 0
-332 32 298 2169 0
-261 312 173 2170 0
-84 386 -406 2171 0
437 375 -192 2172 0
326 -306 49 2173 0
-297 200 -478 2174 0
-330 -401 283 2175 0
-327 -293 329 2176 0
359 348 332 2177 0
-361 166 75 2178 0
227 100 -303 2179 0
-372 317 -419 2180 0
315 273 185 2181 0
-304 206 472 2182 0
-111 -333 348 2183 0
139 -87 -157 2184 0
45 -289 441 2185 0
-405 -305 -323 2186 0
-110 213 422 2187 0
126 321 -296 2188 0
72 329 386 2189 0
432 58 -308 2190 0
-7 -432 -17 2191 0
120 -470 440 2192 0
211 131 251 2193 0
-49 -223 -111 2194 0
277 -174 -414 2195 0
-105 324 260 2196 0
183 -250 275 2197 0
381 84 -11 2198 0
421 -342 363 2199 0
59 -357 100 2200 0
179 -47 302 2201 0
128 285 170 2202 0
-442 -265 -90 2203 0
-222 -311 72 2204 0
-241 295 -423 2205 0
106 392 -162 2206 0
274 -306 -175 2207 0
7 160 -428 2208 0
362 457 475 2209 0
-49 -136 -469 2210 0
-278 338 -41 2211 0
375 278 387 2212 0
-364 -428 -499 2213 0
476 -108 247 2214 0
-85 319 433 2215 0
-95 377 -34 2216 0
490 52 459 2217 0
-129 426 -112 2218 0
171 6 -350 2219 0
-6 135 -221 2220 0
64 -266 41 2221 0
-261 -81 -164 2222 0
-227 412 47 2223 0
-446 -285 28 2224 0
-399 254 -387 2225 0
299 376 453 2226 0
-140 -212 327 2227 0
441 -123 45 2228 0
-470 -308 -41 2229 0
-455 -196 275 2230 0
55 -215 35 2231 0
244 314 -105 2232 0
-373 391 -468 2233 0
477 -310 189 2234 0
-227 -230 -125 2235 0
-354 271 375 2236 0
255 -118 -245 2237 0
-53 76 -193 2238 0
258 359 122 2239 0
-96 376 -422 2240 0
-72 235 149 2241 0
55 -465 101 2242 0
461 359 -441 2243 0
-19 -23 408 2244 0
-431 446 146 2245 0
315 -84 -29 2246 0
-310 414 -482 2247 0
260 -239 160 2248 0
312 -392 320 2249 0
-4 344 283 2250 0
4 227 190 2251 0
460 -302 -156 2252 0
55 270 187 2253 0
-248 470 491 2254 0
342 191 -38 2255 0
-185 487 450 2256 0
-78 367 -66 2257 0
204 14 228 2258 0
-449 -246 14 2259 0
-183 483 -184 2260 0
263 240 67 2261 0
444 15 270 2262 0
16 434 -194 2263 0
200 -163 -326 2264 0
254 311 240 2265 0
368 -432 -80 2266 0
458 -137 -287 2267 0
-184 408 220 2268 0
-189 44 -198 2269 0
-187 296 232 2270 0
-79 -240 -7 2271 0
452 384 -380 2272 0
9 -17 271 2273 0
370 -9 -240 2274 0
292 174 330 2275 0
-484 -113 -212 2276 0
483 384 -412 2277 0
411 51 -380 2278 0
-141 55 -485 2279 0
-96 -369 88 2280 0
-250 -338 43 2281 0
215 -310 -238 2282 0
66 61 353 2283 0
258 -420 -413 2284 0
-431 -32 -351 2285 0
-124 130 38 2286 0
2 311 307 2287 0
309 76 90 2288 0
-152 161 -55 2289 0
342 -57 -134 2290 0
249 -364 29 2291 0
-233 -235 -279 2292 0
-202 -77 249 2293 0
339 -270 7 2294 0
257 -455 303 2295 0
-411 -373 -421 2296 0
248 104 -393 2297 0
27 490 195 2298 0
-145 399 252 2299 0
336 -362 -7 2300 0
-214 342 -324 2301 0
-320 -255 24 2302 0
-30 -36 -446 2303 0
489 207 415 2304 0
44 -440 86 2305 0
-230 402 85 2306 0
341 -201 136 2307 0
-303 23 61 2308 0
-118 -152 398 2309 0
-122 173 -348 2310 0
-7 175 478 2311 0
-420 -351 208 2312 0
4 11 103 2313 0
290 197 189 2314 0
424 -298 -68 2315 0
330 -4 -104 2316 0
-336 28 353 2317 0
-413 342 -226 2318 0
180 -292 240 2319 0
120 11 -423 2320 0
-154 301 119 2321 0
9 -401 403 2322 0
-309 102 389 2323 0
-207 -178 -267 2324 0
-25 361 274 2325 0
324 114 496 2326 0
-304 -366 -358 2327 0
-44 -15 -247 2328 0
-15 -50 161 2329 0
-71 -349 47 2330 0
385 391 -9 2331 0
-294 397 -282 2332 0
-497 -411 466 2333 0
-359 50 83 2334 0
148 439 267 2335 0
-91 39 -341 2336 0
-491 -345 164 2337 0
-290 297 75 2338 0
-237 -500 369 2339 0
27 474 -93 2340 0
490 -67 -301 2341 0
41 -344 466 2342 0
-82 -441 420 2343 0
-373 -409 -186 2344 0
-91 -101 -310 2345 0
267 403 303 2346 0
-322 -181 -146 2347 0
335 -306 -166 2348 0
-368 -355 -44 2349 0
-39 -249 -72 2350 0
-16 -468 244 2351 0
-4 -231 16 2352 0
-261 14 23 2353 0
338 -389 449 2354 0
20 55 108 2355 0
277 -275 22 2356 0
-427 366 -440 2357 0
69 -461 332 2358 0
430 -380 88 2359 0
457 -14 -163 2360 0
-170 174 47 2361 0
312 -259 -117 2362 0
-486 440 344 2363 0
398 -367 -198 2364 0
-200 -98 96 2365 0
-24 493 -207 2366 0
-496 498 316 2367 0
-132 -374 -414 2368 0
-42 286 262 2369 0
-139 -63 230 2370 0
-496 -45 -479 2371 0
426 -425 233 2372 0
460 314 -176 2373 0
-96 360 -419 2374 0
189 -102 116 2375 0
324 -214 -341 2376 0
-63 -76 -347 2377 0
288 65 -473 2378 0
398 -16 -475 2379 0
432 -47 438 2380 0
43 30 -335 2381 0
163 -268 59 2382 0
-1 452 300 2383 0
-234 -181 -304 2384 0
-326 -303 26 2385 0
-284 377 480 2386 0
-419 471 137 2387 0
-373 306 308 2388 0
-104 44 -350 2389 0
-433 -122 204 2390 0
-469 429 -105 2391 0
-350 -95 -400 2392 0
108 -83 434 2393 0
-493 -318 356 2394 0
-283 -44 -196 2395 0
-28 191 427 2396 0
392 -402 -412 2397 0
153 -450 380 2398 0
-347 73 -465 2399 0
-225 150 -257 2400 0
-73 -493 452 2401 0
-18 -221 356 2402 0
-159 133 -487 2403 0
-27 -89 431 2404 0
-225 -240 -89 2405 0
129 379 -34 2406 0
384 460 40 2407 0
-308 -45 491 2408 0
451 -368 -272 2409 0
206 -229 199 2410 0
-251 228 -427 2411 0
-424 -225 -362 2412 0
389 -72 120 2413 0
-128 248 66 2414 0
-410 -133 333 2415 0
470 -184 -405 2416 0
307 347 447 2417 0
-241 233 -367 2418 0
-358 200 -459 2419 0
266 -317 80 2420 0
-297 129 -417 2421 0
-1 -89 168 2422 0
453 -238 -54 2423 0
-433 31 488 2424 0
36 381 -107 2425 0
407 120 195 2426 0
434 366 -296 2427 0
47 303 319 2428 0
386 -344 -224 2429 0
-429 187 -75 2430 0
328 -416 -140 2431 0
209 435 -69 2432 0
495 -347 -192 2433 0
-78 322 -109 2434 0
-201 397 284 2435 0
-122 -332 -73 2436 0
-184 -36 -294 2437 0
460 404 292 2438 0
-458 132 -371 2439 0
391 141 -103 2440 0
-391 135 -18 2441 0
-402 -423 -348 2442 0
-344 -48 -92 2443 0
-257 -438 304 2444 0
-184 -479 -314 2445 0
-306 75 -281 2446 0
494 491 -220 2447 0
7 -79 83 2448 0
-2 -464 142 2449 0
430 236 -299 2450 0
-211 -128 -74 2451 0
-499 -245 -188 2452 0
-70 282 -489 2453 0
-162 -208 -249 2454 0
355 -86 -193 2455 0
-170 -119 -158 2456 0
-77 -463 -434 2457 0
204 -269 415 2458 0
-472 -99 111 2459 0
-178 194 370 2460 0
14 135 -280 2461 0
135 -394 -176 2462 0
199 323 494 2463 0
226 163 -211 2464 0
-403 50 -173 2465 0
-355 -291 -75 2466 0
264 -270 -99 2467 0
106 -141 133 2468 0
163 153 323 2469 0
-418 167 363 2470 0
494 275 -26 2471 0
143 -425 -303 2472 0
-143 251 214 2473 0
447 114 -117 2474 0
71 -432 -100 2475 0
141 -139 -381 2476 0
80 -312 -243 2477 0
66 202 -85 2478 0
-343 -419 416 2479 0
459 -122 65 2480 0
249 -171 -469 2481 0
123 -148 293 2482 0
-7 -313 -50 2483 0
-495 82 36 2484 0
72 -227 260 2485 0
-58 91 417 2486 0
153 307 -158 2487 0
-192 412 -104 2488 0
270 -311 28 2489 0
67 -383 458 2490 0
-305 101 49 2491 0
-433 173 311 2492 0
6 131 -55 2493 0
-480 144 428 2494 0
259 -479 -76 2495 0
-263 303 -66 2496 0
58 24 245 2497 0
-462 183 202 2498 0
-223 -260 -15 2499 0
346 -458 295 2500 0
-396 359 -63 2501 0
392 -1 -438 2502 0
438 362 229 2503 0
444 -191 -378 2504 0
99 407 257 2505 0
129 50 410 2506 0
126 277 -330 2507 0
325 -22 -222 2508 0
-36 -445 -55 2509 0
-283 -326 315 2510 0
8 12 -111 2511 0
-261 -193 288 2512 0
414 -477 338 2513 0
276 -74 -93 2514 0
421 -370 -313 2515 0
-79 39 241 2516 0
153 174 -348 2517 0
-252 -411 -92 2518 0
365 112 -117 2519 0
-30 177 -229 2520 0
-223 -304 296 2521 0
-277 -304 382 2522 0
-94 -380 -63 2523 0
-169 406 -384 2524 0
312 -414 -331 2525 0
-240 350 243 2526 0
22 364 -105 2527 0
-37 -84 -122 2528 0
232 301 117 2529 0
95 -231 -111 2530 0
-129 -195 449 2531 0
-494 -155 -310 2532 0
-76 -153 457 2533 0
-150 -15 -131 2534 0
-311 328 322 2535 0
-356 -20 -454 2536 0
-458 192 441 2537 0
65 222 32 2538 0
438 196 130 2539 0
448 -63 -210 2540 0
-35 18 -76 2541 0
-288 -187 465 2542 0
424 -303 59 2543 0
-410 219 -356 2544 0
-327 189 348 2545 0
133 98 266 2546 0
273 -134 -442 2547 0
64 -420 190 2548 0
293 -277 -396 2549 0
261 350 -422 2550 0
-396 162 -244 2551 0
417 235 -86 2552 0
-213 5 -382 2553 0
-119 76 -405 2554 0
351 -233 378 2555 0
401 180 -268 2556 0
62 -1 -497 2557 0
91 269 -447 2558 0
244 181 -365 2559 0
240 -378 473 2560 0
271 -47 -291 2561 0
-337 -205 21 2562 0
40 -118 -368 2563 0
-324 193 297 2564 0
381 -324 377 2565 0
-414 -489 455 2566 0
-157 452 497 2567 0
-417 71 -446 2568 0
321 87 317 2569 0
366 -412 168 2570 0
-311 -50 261 2571 0
500 -193 174 2572 0
172 158 -470 2573 0
30 213 186 2574 0
467 -80 326 2575 0
175 -54 404 2576 0
78 -162 -220 2577 0
214 -147 -483 2578 0
464 -452 -215 2579 0
278 101 -262 2580 0
228 -317 356 2581 0
-252 485 77 2582 0
-297 -392 -439 2583 0
395 -346 -322 2584 0
-186 200 -469 2585 0
-248 -18 -404 2586 0
-384 -401 426 2587 0
-141 -46 -245 2588 0
258 -413 277 2589 0
281 -180 246 2590 0
463 286 211 2591 0
-5 -468 339 2592 0
-439 126 210 2593 0
-407 62 -273 2594 0
70 -11 -178 2595 0
-279 -276 -419 2596 0
281 -73 -140 2597 0
-319 69 -294 2598 0
-479 459 -63 2599 0
485 266 -482 2600 0
-141 110 -156 2601 0
151 -368 163 2602 0
247 -261 -380 2603 0
38 -168 91 2604 0
-145 -34 101 2605 0
-422 42 -90 2606 0
81 91 376 2607 0
-188 -187 132 2608 0
181 -99 39 2609 0
357 362 21 2610 0
157 -425 453 2611 0
-280 125 301 2612 0
-385 81 -391 2613 0
-115 88 -226 2614 0
33 -383 157 2615 0
-416 -207 -496 2616 0
365 -183 -496 2617 0
-166 57 -37 2618 0
436 -32 -415 2619 0
274 -468 -119 2620 0
-23 -46 280 2621 0
-194 -405 193 2622 0
-353 -11 -260 2623 0
135 -471 265 2624 0
-450 291 197 2625 0
-209 -468 -373 2626 0
233 -350 -49 2627 0
298 -168 188 2628 0
-374 -296 467 2629 0
-96 -436 480 2630 0
-412 -363 -92 2631 0
-290 -360 26 2632 0
369 82 -242 2633 0
-232 346 389 2634 0
90 261 468 2635 0
-69 181 -398 2636 0
416 -36 -304 2637 0
-264 -183 -96 2638 0
-284 -220 -470 2639 0
491 -97 -234 2640 0
154 448 255 2641 0
-480 -121 183 2642 0
-12 296 -416 2643 0
461 304 31 2644 0
447 -391 294 2645 0
-328 -247 -486 2646 0
235 -229 -418 2647 0
-406 -138 -271 2648 0
284 397 43 2649 0
-251 -248 -103 2650 0
