p cnf 2650 2150
-78 148 339 501 0
-221 51 344 502 0
257 -267 -216 503 0
-49 355 -169 504 0
-281 -105 -4 505 0
-42 35 437 506 0
473 307 -80 507 0
-371 392 -232 508 0
398 -419 -98 509 0
-43 -397 -35 510 0
48 -364 -362 511 0
-471 76 -54 512 0
87 499 482 513 0
-206 364 -244 514 0
156 -221 -356 515 0
-109 421 -271 516 0
139 499 371 517 0
-231 112 130 518 0
-227 -263 57 519 0
250 -384 -415 520 0
396 486 -443 521 0
431 -230 -323 522 0
-42 -343 -102 523 0
-232 -475 81 524 0
347 216 346 525 0
-199 278 -379 526 0
129 45 -3 527 0
228 -137 112 528 0
395 19 -357 529 0
-490 -338 -279 530 0
442 232 -246 531 0
41 348 -195 532 0
176 -54 -264 533 0
239 9 -410 534 0
408 -16 -289 535 0
261 324 403 536 0
-307 -161 107 537 0
-383 -419 200 538 0
241 186 456 539 0
-378 262 68 540 0
138 374 490 541 0
-367 136 -20 542 0
185 -488 -410 543 0
283 22 103 544 0
73 344 417 545 0
-85 -440 -312 546 0
-481 -258 85 547 0
-243 426 -421 548 0
-410 -500 149 549 0
-52 -132 471 550 0
-406 484 213 551 0
-273 376 -74 552 0
-289 32 263 553 0
-367 -255 291 554 0
27 374 -177 555 0
-298 331 58 556 0
-140 -477 -408 557 0
-288 394 -470 558 0
-253 250 445 559 0
165 19 -369 560 0
-155 56 -467 561 0
-222 -380 -52 562 0
-57 -11 168 563 0
-47 217 -131 564 0
-75 46 -414 565 0
39 -71 249 566 0
-103 -285 323 567 0
-354 237 336 568 0
-155 302 -251 569 0
295 -111 303 570 0
376 414 173 571 0
58 49 -2 572 0
-258 -60 -80 573 0
438 -452 298 574 0
181 425 426 575 0
302 -46 53 576 0
176 228 165 577 0
-183 -28 -463 578 0
-347 -268 -320 579 0
164 -137 421 580 0
-396 -233 30 581 0
-271 293 238 582 0
-390 260 -369 583 0
-188 24 119 584 0
-57 324 -417 585 0
-239 76 -190 586 0
-6 -475 181 587 0
-26 -257 -77 588 0
208 362 -189 589 0
-186 -9 -173 590 0
-70 365 163 591 0
87 -468 28 592 0
228 -361 -241 593 0
22 -232 -18 594 0
-416 -332 -154 595 0
-289 -106 -88 596 0
94 86 343 597 0
-423 -123 -337 598 0
-206 -336 460 599 0
-370 -459 -63 600 0
-382 26 389 601 0
163 7 -376 602 0
-95 15 326 603 0
76 -131 -376 604 0
330 464 292 605 0
109 276 388 606 0
-26 494 -211 607 0
-9 -443 -479 608 0
31 -287 -329 609 0
310 -277 360 610 0
-253 404 114 611 0
82 -447 -189 612 0
26 -420 -256 613 0
-37 216 -213 614 0
-189 178 -44 615 0
151 -79 389 616 0
-286 111 424 617 0
248 424 -423 618 0
378 120 -450 619 0
365 320 141 620 0
203 469 -171 621 0
242 404 -459 622 0
-54 -315 -84 623 0
-208 297 91 624 0
-67 -499 171 625 0
-376 234 287 626 0
-75 499 -400 627 0
455 -302 -31 628 0
-86 237 -421 629 0
66 -235 387 630 0
205 -400 494 631 0
-118 267 420 632 0
-31 -281 -234 633 0
-1 11 -120 634 0
450 -401 353 635 0
-213 133 43 636 0
-247 -317 488 637 0
-480 -313 -272 638 0
331 -235 -93 639 0
195 59 -348 640 0
320 -132 183 641 0
-166 297 -364 642 0
-64 260 153 643 0
-110 -145 -163 644 0
-210 334 -194 645 0
-280 268 -123 646 0
-363 444 365 647 0
-144 49 463 648 0
-252 111 -310 649 0
161 485 64 650 0
-250 335 -473 651 0
-65 277 221 652 0
-393 -159 -348 653 0
244 123 170 654 0
176 -346 336 655 0
306 -475 253 656 0
150 -86 -482 657 0
-162 13 -68 658 0
123 -106 216 659 0
297 -68 -279 660 0
20 -60 384 661 0
-361 -135 -419 662 0
-461 85 -226 663 0
360 -272 278 664 0
50 -79 -87 665 0
253 -355 -307 666 0
-34 412 -247 667 0
420 194 -326 668 0
-118 -98 327 669 0
433 -42 -320 670 0
29 494 240 671 0
-379 495 234 672 0
86 346 -73 673 0
-215 -305 153 674 0
407 238 363 675 0
10 -195 -187 676 0
-59 334 -309 677 0
-149 338 -125 678 0
160 42 118 679 0
-335 400 -343 680 0
43 -191 178 681 0
-368 -290 265 682 0
-350 422 102 683 0
-208 -367 199 684 0
87 -458 -432 685 0
250 341 478 686 0
-475 205 -218 687 0
-493 66 -29 688 0
-201 317 -90 689 0
-100 -7 346 690 0
-443 -14 430 691 0
453 360 -64 692 0
154 287 470 693 0
-300 -78 172 694 0
-230 102 -244 695 0
480 139 51 696 0
-441 191 302 697 0
-400 -321 -463 698 0
-131 74 387 699 0
90 -379 4 700 0
-486 -265 115 701 0
-294 -154 -393 702 0
370 -478 -212 703 0
340 -44 -363 704 0
102 384 -284 705 0
-26 -109 55 706 0
31 491 344 707 0
39 119 440 708 0
-207 260 -420 709 0
-408 -134 -155 710 0
254 -140 29 711 0
-196 -423 298 712 0
79 71 151 713 0
160 -255 -119 714 0
322 68 489 715 0
-53 484 -212 716 0
-1 -278 -402 717 0
-210 -40 -347 718 0
381 -235 -371 719 0
-499 67 -250 720 0
-245 -51 -471 721 0
-452 -282 489 722 0
-113 -429 325 723 0
311 105 -219 724 0
294 99 -146 725 0
-297 110 243 726 0
-135 -133 -154 727 0
-231 37 -455 728 0
-338 330 8 729 0
483 7 147 730 0
191 -202 -483 731 0
336 -89 -233 732 0
371 83 341 733 0
214 434 -341 734 0
-363 -125 -65 735 0
-268 -360 398 736 0
5 56 219 737 0
145 -460 -387 738 0
144 35 -314 739 0
-104 485 236 740 0
-414 467 459 741 0
461 422 188 742 0
-315 423 116 743 0
421 -484 477 744 0
-398 337 277 745 0
494 444 -46 746 0
256 -348 75 747 0
422 473 388 748 0
459 -279 -378 749 0
-81 239 231 750 0
-372 40 -451 751 0
168 -47 20 752 0
-232 -205 38 753 0
-376 321 447 754 0
-92 67 14 755 0
75 -17 -446 756 0
-131 -313 13 757 0
104 118 -350 758 0
-102 443 -10 759 0
367 -251 170 760 0
-297 435 -356 761 0
-309 -47 439 762 0
-216 449 459 763 0
271 238 -129 764 0
-345 -440 -21 765 0
436 -295 -394 766 0
348 330 214 767 0
-486 -275 185 768 0
375 -84 -152 769 0
-422 298 -368 770 0
239 -69 -40 771 0
-100 -220 134 772 0
-133 -42 216 773 0
288 -419 -298 774 0
446 141 87 775 0
263 185 -472 776 0
-270 119 -244 777 0
104 303 -416 778 0
-264 390 457 779 0
-468 -303 -207 780 0
-427 -229 -39 781 0
-178 -351 -393 782 0
240 124 -210 783 0
490 -356 -447 784 0
417 -145 -426 785 0
259 -407 391 786 0
-263 449 407 787 0
-99 -390 -322 788 0
-155 -446 -369 789 0
-48 -327 335 790 0
360 461 -493 791 0
415 193 256 792 0
-488 487 171 793 0
-433 -31 -42 794 0
45 181 -127 795 0
24 215 365 796 0
-228 -420 -48 797 0
-172 27 363 798 0
-96 417 485 799 0
-486 253 223 800 0
-103 -393 320 801 0
-295 -164 449 802 0
475 -277 -458 803 0
-455 195 311 804 0
-87 -222 -436 805 0
10 456 -438 806 0
-156 261 113 807 0
-424 372 234 808 0
343 110 -40 809 0
123 -284 136 810 0
-105 -303 10 811 0
480 471 -193 812 0
23 386 -84 813 0
-194 -138 254 814 0
4 -135 -54 815 0
-276 141 96 816 0
-347 115 265 817 0
-17 131 -44 818 0
209 -15 -221 819 0
-260 290 213 820 0
477 498 -288 821 0
-204 285 73 822 0
333 -258 -79 823 0
-60 -400 -433 824 0
143 121 -334 825 0
205 -259 -85 826 0
367 -48 207 827 0
90 -440 220 828 0
-82 162 -303 829 0
315 -292 -344 830 0
446 -369 -435 831 0
343 -314 -411 832 0
-247 -469 -236 833 0
-113 74 261 834 0
-435 102 108 835 0
120 364 -494 836 0
387 -388 86 837 0
-483 -405 85 838 0
354 492 -262 839 0
215 335 -244 840 0
427 55 -330 841 0
-1 279 -179 842 0
54 43 -148 843 0
-229 90 213 844 0
-47 -272 -123 845 0
-448 45 -487 846 0
46 -27 409 847 0
180 178 -86 848 0
197 394 297 849 0
-488 9 -152 850 0
-41 -212 -381 851 0
268 92 305 852 0
-383 298 -355 853 0
23 -58 -292 854 0
-278 -438 -380 855 0
-185 -392 -297 856 0
-108 386 -146 857 0
-264 -103 335 858 0
-202 -84 474 859 0
-306 -55 -240 860 0
-101 78 -63 861 0
482 286 92 862 0
429 -4 204 863 0
-425 -326 -297 864 0
-118 -440 227 865 0
-106 431 347 866 0
30 -22 49 867 0
327 -69 107 868 0
268 -328 320 869 0
15 -133 -120 870 0
-335 215 -93 871 0
-6 -416 320 872 0
467 -193 -31 873 0
-206 -379 331 874 0
-388 -455 -203 875 0
-186 -66 -435 876 0
11 -476 395 877 0
25 -454 -353 878 0
160 444 216 879 0
-326 85 316 880 0
251 -231 -48 881 0
108 159 -437 882 0
319 260 -494 883 0
-350 -52 484 884 0
-477 -166 -279 885 0
-379 443 6 886 0
-188 478 -278 887 0
-229 485 -333 888 0
-55 -153 -374 889 0
-147 4 239 890 0
410 266 -147 891 0
-370 -500 -480 892 0
22 417 -290 893 0
496 448 -396 894 0
220 216 -413 895 0
-380 257 -411 896 0
224 -244 -226 897 0
378 -102 -356 898 0
474 -421 320 899 0
97 -92 266 900 0
220 -214 71 901 0
111 20 257 902 0
-67 -6 85 903 0
-86 -324 410 904 0
-167 38 -180 905 0
-453 217 -368 906 0
-286 195 -318 907 0
121 -369 -410 908 0
491 105 -150 909 0
463 -73 -199 910 0
100 -302 -448 911 0
342 -288 327 912 0
459 145 -293 913 0
460 96 474 914 0
-21 83 -194 915 0
-348 -77 -277 916 0
335 119 12 917 0
-296 366 -488 918 0
220 204 111 919 0
-290 130 -342 920 0
-89 132 -216 921 0
286 29 396 922 0
28 -44 288 923 0
359 -169 341 924 0
-472 -21 -232 925 0
-121 -481 411 926 0
-260 -354 177 927 0
-82 386 214 928 0
166 88 188 929 0
-139 437 343 930 0
-278 -70 388 931 0
-482 215 90 932 0
-201 -475 -194 933 0
-360 322 -308 934 0
-3 465 429 935 0
-416 19 482 936 0
-24 108 -230 937 0
478 -475 303 938 0
-376 345 434 939 0
25 -419 -7 940 0
-500 -448 371 941 0
-236 -203 78 942 0
-86 440 -255 943 0
-226 245 302 944 0
167 254 246 945 0
-183 -139 90 946 0
28 -405 39 947 0
11 282 -56 948 0
-341 29 212 949 0
-81 -385 46 950 0
-59 440 -161 951 0
284 -260 494 952 0
-3 -8 15 953 0
-444 -397 115 954 0
271 485 375 955 0
251 294 182 956 0
-422 -455 -374 957 0
100 5 223 958 0
-98 443 -51 959 0
-241 24 -496 960 0
203 206 -247 961 0
208 -254 131 962 0
-241 367 -287 963 0
65 -302 24 964 0
224 -356 -100 965 0
-375 -376 189 966 0
140 89 -110 967 0
212 174 265 968 0
-454 -430 -364 969 0
-421 -266 261 970 0
258 162 -57 971 0
-447 113 456 972 0
-448 -420 73 973 0
117 482 -285 974 0
-159 -182 -310 975 0
-386 350 483 976 0
141 -495 235 977 0
408 -82 -186 978 0
-354 494 233 979 0
-129 -66 -455 980 0
-270 -349 -341 981 0
34 462 394 982 0
104 -168 53 983 0
-402 -407 146 984 0
199 337 -136 985 0
217 377 -116 986 0
-37 99 -224 987 0
-46 -472 -393 988 0
323 -230 -423 989 0
-447 -333 33 990 0
66 -427 -274 991 0
-247 185 323 992 0
332 -20 193 993 0
-317 -116 -181 994 0
-275 296 -279 995 0
-331 -221 -289 996 0
287 259 -50 997 0
219 -422 -10 998 0
494 -387 212 999 0
197 108 136 1000 0
-401 93 193 1001 0
-228 -193 -219 1002 0
-22 -362 -123 1003 0
44 483 356 1004 0
494 -343 -281 1005 0
82 -363 -138 1006 0
-302 -303 -413 1007 0
-493 163 -492 1008 0
364 69 -109 1009 0
167 306 -355 1010 0
-192 -352 -174 1011 0
281 381 -464 1012 0
30 -219 408 1013 0
499 -339 288 1014 0
344 67 -25 1015 0
-486 445 -257 1016 0
494 394 439 1017 0
111 26 270 1018 0
167 418 -332 1019 0
161 178 -133 1020 0
154 -240 -67 1021 0
-319 -257 205 1022 0
313 -291 -354 1023 0
-174 -385 209 1024 0
270 304 357 1025 0
-342 -219 69 1026 0
218 -420 -175 1027 0
138 -19 -445 1028 0
-128 -298 -232 1029 0
-419 -172 305 1030 0
63 -168 489 1031 0
-109 330 -203 1032 0
212 -371 -161 1033 0
-201 390 67 1034 0
24 120 181 1035 0
296 -264 458 1036 0
-178 60 420 1037 0
-108 -468 -201 1038 0
60 103 -14 1039 0
-166 -16 -34 1040 0
121 -170 128 1041 0
-186 -492 476 1042 0
-264 320 -280 1043 0
-403 -446 185 1044 0
328 -87 -203 1045 0
127 -363 487 1046 0
98 -290 -310 1047 0
-184 -393 185 1048 0
-1 264 -61 1049 0
442 491 -345 1050 0
310 366 50 1051 0
-409 -35 367 1052 0
-464 272 -20 1053 0
-265 -264 37 1054 0
-257 -207 -455 1055 0
285 493 -280 1056 0
462 391 -317 1057 0
244 29 84 1058 0
-194 392 262 1059 0
365 294 211 1060 0
-224 335 -473 1061 0
416 -98 -193 1062 0
-39 -14 -49 1063 0
-358 -490 -80 1064 0
-122 207 81 1065 0
-335 279 280 1066 0
-11 188 270 1067 0
-394 -225 -226 1068 0
181 -428 -338 1069 0
-1 -413 222 1070 0
-226 125 6 1071 0
184 106 -297 1072 0
-430 254 -50 1073 0
-473 258 -320 1074 0
337 257 106 1075 0
-201 -460 -390 1076 0
-4 126 367 1077 0
-13 -496 127 1078 0
-24 224 440 1079 0
-92 438 152 1080 0
161 134 360 1081 0
349 -154 139 1082 0
367 340 453 1083 0
284 244 378 1084 0
176 -308 -209 1085 0
318 254 316 1086 0
-24 11 223 1087 0
-340 -100 -99 1088 0
20 86 286 1089 0
383 -421 -150 1090 0
201 290 -209 1091 0
-330 -136 299 1092 0
-249 500 -446 1093 0
297 262 252 1094 0
-232 307 -103 1095 0
194 361 420 1096 0
58 -141 166 1097 0
33 277 -211 1098 0
-421 -3 83 1099 0
41 285 410 1100 0
-434 204 112 1101 0
134 -9 -449 1102 0
-193 -361 345 1103 0
208 27 428 1104 0
-415 -438 340 1105 0
-62 472 432 1106 0
-221 -25 -68 1107 0
-83 -145 325 1108 0
-84 -375 -266 1109 0
291 -197 -294 1110 0
-483 -448 386 1111 0
416 -458 -439 1112 0
-109 -123 -474 1113 0
284 159 236 1114 0
179 369 187 1115 0
96 300 -460 1116 0
-76 401 201 1117 0
126 192 -185 1118 0
192 -238 155 1119 0
-500 426 -166 1120 0
-348 -49 -222 1121 0
126 -312 39 1122 0
353 205 217 1123 0
-8 26 285 1124 0
-264 87 -243 1125 0
19 -201 342 1126 0
207 -268 156 1127 0
247 184 -457 1128 0
-344 -286 -30 1129 0
-109 -4 -300 1130 0
497 -437 -26 1131 0
326 -170 42 1132 0
182 341 30 1133 0
421 155 40 1134 0
-91 -455 -49 1135 0
-348 -28 496 1136 0
-404 420 122 1137 0
442 -342 -204 1138 0
-213 448 190 1139 0
118 65 -375 1140 0
159 401 296 1141 0
152 -194 -193 1142 0
337 237 -46 1143 0
24 -229 -427 1144 0
226 116 54 1145 0
-259 170 337 1146 0
-30 -264 -443 1147 0
153 -221 61 1148 0
70 342 287 1149 0
182 203 386 1150 0
318 369 -449 1151 0
-61 51 472 1152 0
-75 194 -495 1153 0
-320 -349 -210 1154 0
-246 425 380 1155 0
-359 -213 441 1156 0
-121 -313 190 1157 0
-465 296 368 1158 0
-48 -393 488 1159 0
-227 372 51 1160 0
11 348 145 1161 0
-353 -1 16 1162 0
341 -112 -295 1163 0
311 -3 -53 1164 0
416 -18 -232 1165 0
359 413 416 1166 0
93 -78 403 1167 0
245 119 -238 1168 0
416 -105 240 1169 0
-192 -68 42 1170 0
435 220 348 1171 0
384 28 -352 1172 0
-126 251 428 1173 0
33 411 -211 1174 0
207 -206 413 1175 0
207 -255 -151 1176 0
308 -430 73 1177 0
-254 -122 169 1178 0
-108 447 205 1179 0
271 186 -41 1180 0
-33 237 465 1181 0
75 -93 -309 1182 0
394 482 -200 1183 0
-239 -424 216 1184 0
47 376 198 1185 0
182 61 -443 1186 0
-488 377 10 1187 0
212 -163 -12 1188 0
247 -168 341 1189 0
-197 281 -69 1190 0
-477 466 321 1191 0
255 -139 -406 1192 0
-230 108 55 1193 0
356 240 -143 1194 0
328 325 88 1195 0
53 -482 -474 1196 0
392 335 -276 1197 0
286 5 -413 1198 0
-382 -422 391 1199 0
476 325 165 1200 0
-434 184 33 1201 0
-236 -163 -437 1202 0
-138 -274 401 1203 0
234 -239 472 1204 0
440 191 -67 1205 0
220 -313 -219 1206 0
-459 -425 437 1207 0
285 195 302 1208 0
256 8 95 1209 0
15 -200 -441 1210 0
-262 -250 328 1211 0
449 -391 493 1212 0
451 111 -183 1213 0
-50 -478 447 1214 0
-302 281 473 1215 0
-376 176 29 1216 0
230 490 322 1217 0
447 261 117 1218 0
457 432 223 1219 0
-293 48 488 1220 0
357 -274 -64 1221 0
-41 -339 -362 1222 0
-456 -206 424 1223 0
209 127 58 1224 0
111 326 -350 1225 0
358 97 155 1226 0
321 80 269 1227 0
238 380 164 1228 0
160 -247 -127 1229 0
-103 -224 424 1230 0
259 356 373 1231 0
-53 333 -100 1232 0
-140 -391 339 1233 0
353 469 -429 1234 0
-279 -480 -468 1235 0
346 265 262 1236 0
246 447 16 1237 0
435 41 318 1238 0
-464 437 -12 1239 0
-495 8 242 1240 0
-339 239 441 1241 0
-443 309 312 1242 0
206 140 -188 1243 0
145 378 434 1244 0
371 -178 -91 1245 0
-121 287 254 1246 0
-272 306 234 1247 0
182 446 -67 1248 0
235 -290 406 1249 0
-443 -183 -269 1250 0
-328 317 324 1251 0
369 186 -150 1252 0
33 -465 73 1253 0
17 128 -359 1254 0
-373 390 -352 1255 0
-66 104 172 1256 0
3 -220 175 1257 0
-446 437 81 1258 0
287 153 372 1259 0
-277 -214 -304 1260 0
-34 341 -352 1261 0
-305 251 -159 1262 0
-494 28 -185 1263 0
460 432 203 1264 0
-328 -98 -28 1265 0
406 70 469 1266 0
8 98 -11 1267 0
433 180 -13 1268 0
-456 -244 -500 1269 0
-479 461 304 1270 0
-258 494 -283 1271 0
-416 356 -56 1272 0
-391 460 -308 1273 0
89 -37 220 1274 0
60 -18 -80 1275 0
-124 -7 293 1276 0
88 292 -82 1277 0
100 238 -77 1278 0
-461 -451 -222 1279 0
335 39 -172 1280 0
23 66 -80 1281 0
-240 30 358 1282 0
239 357 -264 1283 0
181 379 385 1284 0
-133 -431 -49 1285 0
-213 70 348 1286 0
182 -484 -186 1287 0
449 166 440 1288 0
-304 -225 -139 1289 0
-243 36 375 1290 0
35 72 431 1291 0
-318 -80 -150 1292 0
116 336 -113 1293 0
334 19 -486 1294 0
-175 -337 400 1295 0
-131 331 376 1296 0
97 -154 -155 1297 0
-403 378 336 1298 0
-332 -445 -39 1299 0
463 170 252 1300 0
-325 -463 -295 1301 0
-289 -492 -391 1302 0
179 175 -4 1303 0
-40 -296 238 1304 0
360 459 89 1305 0
-346 -260 -223 1306 0
-385 427 88 1307 0
405 190 -468 1308 0
-105 -479 29 1309 0
-270 121 -434 1310 0
327 -368 -99 1311 0
-133 -425 431 1312 0
383 -258 10 1313 0
-385 452 383 1314 0
-361 192 -350 1315 0
-229 -260 -342 1316 0
-125 136 -349 1317 0
83 340 304 1318 0
-293 -77 194 1319 0
-265 -197 -168 1320 0
-70 -299 303 1321 0
211 131 -361 1322 0
277 -145 282 1323 0
48 -294 -363 1324 0
-326 165 -383 1325 0
-383 -494 138 1326 0
-387 -378 -317 1327 0
65 455 -325 1328 0
-150 -362 -27 1329 0
67 17 146 1330 0
121 106 433 1331 0
480 -118 -239 1332 0
368 -133 31 1333 0
-117 135 -385 1334 0
182 -207 198 1335 0
-152 132 200 1336 0
-219 -396 -401 1337 0
259 -492 362 1338 0
-163 148 256 1339 0
-5 -38 -470 1340 0
-442 492 -214 1341 0
-145 -38 -457 1342 0
185 -299 14 1343 0
76 -375 378 1344 0
39 -226 -476 1345 0
-41 -366 339 1346 0
358 487 -164 1347 0
-231 -382 291 1348 0
489 93 -286 1349 0
237 132 -256 1350 0
40 294 227 1351 0
354 -207 129 1352 0
-10 219 225 1353 0
338 183 79 1354 0
175 325 425 1355 0
108 227 339 1356 0
-71 80 296 1357 0
-68 -191 -315 1358 0
116 -478 217 1359 0
304 137 -33 1360 0
-298 -223 198 1361 0
-126 341 304 1362 0
342 -497 -34 1363 0
-499 360 171 1364 0
106 41 -339 1365 0
11 -197 -445 1366 0
415 -255 497 1367 0
-472 401 259 1368 0
423 -371 460 1369 0
55 -296 -51 1370 0
-339 -234 57 1371 0
346 154 296 1372 0
450 202 -11 1373 0
-130 -278 -454 1374 0
438 -20 -372 1375 0
475 -340 -168 1376 0
-230 -439 330 1377 0
372 -244 464 1378 0
415 -256 16 1379 0
-402 -242 95 1380 0
258 -75 -451 1381 0
99 -400 -199 1382 0
321 426 -73 1383 0
-415 310 334 1384 0
219 -216 -260 1385 0
-16 -96 147 1386 0
-243 -204 -18 1387 0
95 -368 208 1388 0
-231 -241 -472 1389 0
-325 -157 290 1390 0
46 -334 297 1391 0
-195 -447 350 1392 0
158 -436 -26 1393 0
-146 228 302 1394 0
475 -125 -228 1395 0
-432 -97 -107 1396 0
-359 319 29 1397 0
-163 -61 -35 1398 0
-451 273 146 1399 0
-171 256 -371 1400 0
82 72 98 1401 0
-178 424 -315 1402 0
46 -166 -31 1403 0
485 -34 67 1404 0
-374 54 -222 1405 0
191 -443 451 1406 0
227 237 177 1407 0
105 137 13 1408 0
48 154 68 1409 0
-189 98 -256 1410 0
-36 281 -80 1411 0
415 219 -210 1412 0
102 266 -344 1413 0
-264 -313 -226 1414 0
-225 391 399 1415 0
-143 -51 -415 1416 0
-98 -459 -27 1417 0
-453 301 481 1418 0
-21 -440 -343 1419 0
29 -293 -260 1420 0
346 247 -329 1421 0
-88 30 375 1422 0
407 -200 -116 1423 0
-77 260 -483 1424 0
144 -234 -42 1425 0
464 -241 404 1426 0
-52 -457 371 1427 0
-492 -399 259 1428 0
141 233 289 1429 0
37 369 -370 1430 0
-294 -61 152 1431 0
473 17 358 1432 0
215 -145 152 1433 0
-489 41 -241 1434 0
104 338 49 1435 0
-14 39 111 1436 0
-469 -59 -126 1437 0
-123 -346 401 1438 0
386 35 301 1439 0
-420 365 -163 1440 0
195 420 -150 1441 0
-108 -99 -221 1442 0
-38 358 441 1443 0
-471 -241 -402 1444 0
376 -295 -352 1445 0
110 -47 200 1446 0
-227 -7 -223 1447 0
-399 194 -437 1448 0
387 40 -225 1449 0
287 -329 350 1450 0
359 37 -475 1451 0
418 197 163 1452 0
-261 -54 28 1453 0
379 1 -158 1454 0
477 -350 288 1455 0
-497 385 490 1456 0
-142 -39 -212 1457 0
131 -71 282 1458 0
415 -267 463 1459 0
-398 466 -211 1460 0
485 410 -304 1461 0
256 314 335 1462 0
32 75 -282 1463 0
-85 219 -167 1464 0
-24 384 400 1465 0
200 -6 -365 1466 0
-343 -223 -257 1467 0
-89 -444 -253 1468 0
-86 187 323 1469 0
495 -493 -185 1470 0
171 -118 245 1471 0
275 43 357 1472 0
499 -208 -473 1473 0
-430 170 45 1474 0
-466 140 -85 1475 0
49 -200 266 1476 0
446 262 -220 1477 0
-322 181 -134 1478 0
459 -179 -41 1479 0
-109 273 245 1480 0
432 74 143 1481 0
14 -442 20 1482 0
311 -424 -454 1483 0
4 -336 -96 1484 0
-182 -130 -328 1485 0
-6 -49 -468 1486 0
-325 377 188 1487 0
-339 -152 90 1488 0
81 481 85 1489 0
62 324 2 1490 0
249 -186 28 1491 0
-471 291 -383 1492 0
-293 -469 466 1493 0
492 42 400 1494 0
-323 420 7 1495 0
-128 -494 400 1496 0
-371 -473 -407 1497 0
-94 9 48 1498 0
199 331 -86 1499 0
401 -428 -17 1500 0
-324 363 -491 1501 0
394 227 -56 1502 0
276 262 -453 1503 0
79 452 492 1504 0
492 347 -342 1505 0
-49 402 -330 1506 0
372 -470 -228 1507 0
-197 -354 448 1508 0
380 2 -304 1509 0
-121 -45 246 1510 0
-131 337 139 1511 0
356 120 -403 1512 0
168 -117 357 1513 0
-98 358 -143 1514 0
-493 -30 -152 1515 0
479 -354 395 1516 0
-133 395 -446 1517 0
-22 -284 380 1518 0
-398 85 -433 1519 0
-451 -219 -411 1520 0
-20 335 367 1521 0
481 63 358 1522 0
-56 461 -120 1523 0
-137 223 -162 1524 0
-360 107 -38 1525 0
-248 -69 430 1526 0
493 -107 82 1527 0
-89 -413 -241 1528 0
-224 339 -345 1529 0
-72 249 -293 1530 0
-371 233 -472 1531 0
460 91 -207 1532 0
-377 15 68 1533 0
-215 -75 134 1534 0
-453 -11 383 1535 0
28 -472 -481 1536 0
430 252 414 1537 0
-376 46 368 1538 0
280 483 402 1539 0
16 23 -212 1540 0
417 -485 189 1541 0
-252 69 -412 1542 0
-336 -192 314 1543 0
-306 52 -314 1544 0
153 -173 -113 1545 0
-365 -67 152 1546 0
484 -231 284 1547 0
383 262 29 1548 0
181 356 370 1549 0
-164 442 -137 1550 0
-432 40 362 1551 0
456 410 -387 1552 0
-456 -310 -6 1553 0
-426 -453 -392 1554 0
34 -306 321 1555 0
191 -320 17 1556 0
40 -30 -319 1557 0
-495 262 322 1558 0
21 -401 -208 1559 0
430 -368 -124 1560 0
-429 320 75 1561 0
471 -353 174 1562 0
250 -487 215 1563 0
53 -437 266 1564 0
-348 -188 323 1565 0
154 53 476 1566 0
112 -480 373 1567 0
276 261 270 1568 0
-384 -176 -456 1569 0
-442 -64 416 1570 0
194 -471 313 1571 0
-59 -225 400 1572 0
240 -184 -391 1573 0
23 334 -12 1574 0
167 246 328 1575 0
182 334 -39 1576 0
-443 112 354 1577 0
-237 -475 407 1578 0
114 143 -59 1579 0
-35 294 102 1580 0
-41 -252 327 1581 0
471 441 -248 1582 0
384 309 463 1583 0
172 78 -484 1584 0
-75 -444 -25 1585 0
-176 78 -398 1586 0
289 322 449 1587 0
258 -472 -49 1588 0
160 9 -412 1589 0
61 -400 143 1590 0
-489 -185 440 1591 0
-123 54 -150 1592 0
51 -206 -135 1593 0
294 370 373 1594 0
-187 -452 -333 1595 0
-89 29 407 1596 0
467 -76 357 1597 0
-375 -369 -435 1598 0
-130 468 -384 1599 0
-243 -203 -226 1600 0
-397 -347 293 1601 0
241 -380 298 1602 0
-176 -236 -29 1603 0
180 2 496 1604 0
383 31 39 1605 0
-363 -404 -480 1606 0
466 110 459 1607 0
263 -469 -339 1608 0
19 -48 406 1609 0
-491 85 -171 1610 0
15 -170 -36 1611 0
-242 -249 -76 1612 0
218 298 183 1613 0
-434 -310 395 1614 0
213 -35 -155 1615 0
-163 -212 -465 1616 0
-229 -79 218 1617 0
-265 496 497 1618 0
214 -174 218 1619 0
291 -106 -66 1620 0
-234 -333 -15 1621 0
49 346 -336 1622 0
36 -339 -190 1623 0
-458 -77 300 1624 0
381 -70 -375 1625 0
102 224 -336 1626 0
366 -432 -90 1627 0
-90 -216 -157 1628 0
238 -446 416 1629 0
368 -139 -257 1630 0
-443 4 -44 1631 0
-359 -180 291 1632 0
223 -327 2 1633 0
-206 -129 53 1634 0
-102 -423 -234 1635 0
59 -111 114 1636 0
258 121 -10 1637 0
225 -54 -252 1638 0
-395 -175 -401 1639 0
-302 419 157 1640 0
354 -480 -198 1641 0
-131 -246 60 1642 0
98 -38 -97 1643 0
315 -447 -429 1644 0
-112 232 -441 1645 0
-323 -328 17 1646 0
-214 168 -450 1647 0
218 473 19 1648 0
154 240 312 1649 0
42 312 -370 1650 0
188 110 409 1651 0
449 97 -99 1652 0
-67 -467 295 1653 0
-131 -176 -402 1654 0
-99 -482 -307 1655 0
-360 -336 223 1656 0
498 -342 -12 1657 0
-340 -133 -184 1658 0
106 338 -99 1659 0
351 259 -110 1660 0
470 361 72 1661 0
436 194 -299 1662 0
222 334 92 1663 0
192 376 -281 1664 0
6 219 421 1665 0
-339 64 -270 1666 0
297 -61 -231 1667 0
47 -263 -242 1668 0
19 -314 -160 1669 0
302 -200 74 1670 0
-138 470 312 1671 0
-294 -465 312 1672 0
35 226 425 1673 0
192 -284 -435 1674 0
-164 308 -70 1675 0
-171 390 466 1676 0
-412 -282 338 1677 0
208 187 274 1678 0
38 -341 -176 1679 0
56 299 -88 1680 0
217 13 -383 1681 0
350 61 326 1682 0
460 438 80 1683 0
-418 -128 135 1684 0
95 450 -55 1685 0
-373 266 -372 1686 0
-254 -153 -262 1687 0
273 476 -99 1688 0
92 453 -339 1689 0
-412 474 299 1690 0
369 -300 225 1691 0
-208 -178 -317 1692 0
-137 494 40 1693 0
393 212 -266 1694 0
-290 96 -467 1695 0
346 -449 -277 1696 0
159 -68 37 1697 0
-376 107 436 1698 0
-148 -218 141 1699 0
217 1 -420 1700 0
88 21 -313 1701 0
460 285 306 1702 0
454 96 231 1703 0
185 61 -284 1704 0
-165 185 -295 1705 0
241 326 469 1706 0
-327 -144 -490 1707 0
-332 -75 155 1708 0
77 298 -288 1709 0
126 -349 -337 1710 0
-205 280 -454 1711 0
-375 -445 -226 1712 0
147 236 454 1713 0
160 -282 178 1714 0
394 279 -56 1715 0
-357 -93 55 1716 0
-165 -201 -160 1717 0
214 472 67 1718 0
-480 -352 201 1719 0
68 -264 -104 1720 0
-256 310 241 1721 0
453 -92 438 1722 0
55 -171 -436 1723 0
-98 -122 -70 1724 0
-427 -404 94 1725 0
-272 66 262 1726 0
145 56 107 1727 0
-356 292 368 1728 0
98 -359 -378 1729 0
246 -158 32 1730 0
175 -41 306 1731 0
490 424 -129 1732 0
242 -52 -97 1733 0
87 -307 165 1734 0
344 -464 -362 1735 0
-95 230 132 1736 0
-35 126 -266 1737 0
-272 319 99 1738 0
-226 320 -388 1739 0
99 230 -17 1740 0
-2 467 -154 1741 0
494 450 -376 1742 0
342 68 -64 1743 0
-154 371 467 1744 0
-231 32 -403 1745 0
78 -102 -348 1746 0
283 -314 4 1747 0
-309 -87 -328 1748 0
277 -448 86 1749 0
-225 120 -461 1750 0
442 78 409 1751 0
-286 -129 -346 1752 0
-183 457 261 1753 0
-480 -91 -82 1754 0
-38 396 -112 1755 0
-431 -390 135 1756 0
-500 94 -198 1757 0
296 -73 273 1758 0
-119 -446 -149 1759 0
-317 261 175 1760 0
-79 -35 -406 1761 0
-311 -199 -422 1762 0
378 210 -354 1763 0
-342 -213 246 1764 0
-207 -147 -434 1765 0
-486 -436 -276 1766 0
143 -401 -468 1767 0
-28 -303 -327 1768 0
-217 240 395 1769 0
292 -144 -119 1770 0
-289 87 -273 1771 0
31 425 76 1772 0
327 190 -383 1773 0
21 -461 -262 1774 0
-116 436 262 1775 0
456 309 255 1776 0
-220 -246 -398 1777 0
-206 380 458 1778 0
152 66 232 1779 0
-347 186 -466 1780 0
-259 -143 -284 1781 0
-56 192 -288 1782 0
-246 -26 -176 1783 0
360 242 -43 1784 0
314 -174 -261 1785 0
144 27 82 1786 0
305 120 -69 1787 0
135 -142 346 1788 0
239 -236 -462 1789 0
-2 448 149 1790 0
163 443 136 1791 0
-90 493 324 1792 0
93 483 -248 1793 0
15 389 20 1794 0
205 361 -51 1795 0
208 -40 -450 1796 0
-144 127 -101 1797 0
396 -322 350 1798 0
137 71 272 1799 0
-413 -436 -388 1800 0
480 482 49 1801 0
-72 376 244 1802 0
-24 -403 -213 1803 0
-223 183 -499 1804 0
368 13 -484 1805 0
-239 -257 409 1806 0
-422 -416 139 1807 0
-361 110 449 1808 0
-191 41 -252 1809 0
448 132 133 1810 0
-41 -17 -329 1811 0
-186 87 -14 1812 0
493 163 126 1813 0
56 102 -130 1814 0
326 235 -36 1815 0
-51 -394 298 1816 0
-216 -111 131 1817 0
-113 -37 -281 1818 0
316 361 404 1819 0
421 226 -262 1820 0
-397 188 -444 1821 0
-50 -238 -139 1822 0
-144 -303 -261 1823 0
-185 -72 -189 1824 0
-125 476 -343 1825 0
-97 114 -110 1826 0
352 205 -249 1827 0
-87 204 473 1828 0
-401 146 -244 1829 0
-105 -360 430 1830 0
347 -289 286 1831 0
156 401 347 1832 0
-400 454 -23 1833 0
-489 -68 -277 1834 0
-270 -337 -32 1835 0
9 28 193 1836 0
104 207 109 1837 0
-27 473 -92 1838 0
187 -461 314 1839 0
-228 111 405 1840 0
-87 213 -362 1841 0
-298 -446 -81 1842 0
-443 -458 -130 1843 0
-153 82 -199 1844 0
-47 45 263 1845 0
-267 -285 -95 1846 0
-434 -378 -225 1847 0
142 295 -286 1848 0
-347 217 -331 1849 0
-151 -295 -169 1850 0
205 -356 206 1851 0
-230 442 -305 1852 0
266 354 91 1853 0
-157 392 319 1854 0
446 72 221 1855 0
-264 -318 371 1856 0
-82 59 320 1857 0
-293 -354 -468 1858 0
-147 290 -389 1859 0
-114 208 -234 1860 0
-442 -147 92 1861 0
363 -349 -14 1862 0
107 4 -115 1863 0
124 291 333 1864 0
-360 -421 157 1865 0
-65 258 3 1866 0
-42 227 -263 1867 0
303 216 -213 1868 0
-226 -52 102 1869 0
399 69 -305 1870 0
285 -284 -22 1871 0
157 444 -415 1872 0
-292 103 -254 1873 0
416 -56 -450 1874 0
363 327 368 1875 0
182 -478 86 1876 0
-92 96 198 1877 0
-475 486 -60 1878 0
418 -100 182 1879 0
115 -30 -365 1880 0
-379 -350 -214 1881 0
-346 380 -15 1882 0
-327 110 291 1883 0
-30 52 -316 1884 0
-9 169 444 1885 0
400 -414 -265 1886 0
-19 140 -459 1887 0
-428 -47 -378 1888 0
315 320 34 1889 0
18 -292 -337 1890 0
423 29 -102 1891 0
146 408 477 1892 0
-215 61 -292 1893 0
130 303 482 1894 0
216 183 -381 1895 0
-498 494 214 1896 0
-465 27 175 1897 0
-139 -291 161 1898 0
-204 482 481 1899 0
-484 -214 -430 1900 0
292 123 27 1901 0
57 -441 489 1902 0
-66 451 -472 1903 0
279 271 -292 1904 0
-138 72 -347 1905 0
298 -443 -115 1906 0
261 55 -410 1907 0
-215 -101 -160 1908 0
173 -487 -474 1909 0
-320 -433 477 1910 0
109 -93 -310 1911 0
36 -327 440 1912 0
129 270 409 1913 0
-119 -72 -400 1914 0
148 435 157 1915 0
420 301 -175 1916 0
-251 13 -256 1917 0
435 420 300 1918 0
-38 -157 -323 1919 0
297 -106 -343 1920 0
-14 -400 252 1921 0
-56 247 -336 1922 0
359 231 425 1923 0
156 -367 464 1924 0
136 -333 -244 1925 0
466 -402 -376 1926 0
-388 152 248 1927 0
466 300 464 1928 0
209 -396 355 1929 0
-279 -378 -15 1930 0
-197 398 81 1931 0
172 -365 -274 1932 0
-64 461 -136 1933 0
-49 84 -352 1934 0
-247 318 144 1935 0
-9 375 -80 1936 0
-85 400 468 1937 0
101 -414 332 1938 0
-359 -238 188 1939 0
-454 131 -187 1940 0
40 132 393 1941 0
-333 126 -426 1942 0
-140 81 154 1943 0
-175 344 -337 1944 0
-214 429 -22 1945 0
297 9 438 1946 0
-254 -245 204 1947 0
272 -418 -73 1948 0
-159 491 326 1949 0
482 457 -402 1950 0
-165 -349 118 1951 0
-131 350 238 1952 0
499 381 157 1953 0
275 348 499 1954 0
313 -366 -459 1955 0
445 478 -426 1956 0
452 -60 -80 1957 0
18 -98 -27 1958 0
418 71 -16 1959 0
-257 419 268 1960 0
363 288 -382 1961 0
-317 -121 265 1962 0
149 -257 290 1963 0
381 229 -491 1964 0
-39 -249 -72 1965 0
-17 -195 -171 1966 0
-455 -467 -478 1967 0
-14 180 -192 1968 0
470 251 159 1969 0
227 387 -273 1970 0
295 349 120 1971 0
-136 98 235 1972 0
409 -468 66 1973 0
95 -285 -442 1974 0
32 403 374 1975 0
237 -477 -455 1976 0
191 366 -187 1977 0
-227 -431 -425 1978 0
-391 395 -444 1979 0
-448 64 472 1980 0
53 309 137 1981 0
-323 314 -262 1982 0
-189 351 64 1983 0
-105 353 342 1984 0
-97 467 -266 1985 0
118 26 -313 1986 0
-279 117 -411 1987 0
12 -126 -268 1988 0
154 -363 167 1989 0
-321 -42 -259 1990 0
-282 -165 -272 1991 0
200 73 -395 1992 0
-480 256 258 1993 0
359 -35 240 1994 0
229 -166 -420 1995 0
-354 135 -391 1996 0
123 -490 -36 1997 0
-346 -88 -428 1998 0
-9 471 -297 1999 0
377 453 -376 2000 0
-486 346 411 2001 0
304 -147 306 2002 0
8 266 -27 2003 0
-140 -221 -90 2004 0
369 -269 3 2005 0
3 -339 -208 2006 0
239 481 279 2007 0
-124 69 -458 2008 0
230 439 -419 2009 0
206 -325 191 2010 0
-386 249 288 2011 0
299 -473 496 2012 0
-15 -430 491 2013 0
-68 221 362 2014 0
-461 -243 -363 2015 0
-138 352 -441 2016 0
416 16 -132 2017 0
79 195 230 2018 0
-71 -319 55 2019 0
-261 -13 439 2020 0
97 -275 -312 2021 0
-492 -494 326 2022 0
-323 -412 -378 2023 0
-305 81 -315 2024 0
-258 -372 -499 2025 0
-457 -396 -492 2026 0
-318 226 -486 2027 0
-23 -402 467 2028 0
473 104 -413 2029 0
333 -477 -305 2030 0
-324 -261 -352 2031 0
494 -420 -433 2032 0
-128 172 84 2033 0
-48 327 -199 2034 0
-470 345 -318 2035 0
-319 -87 -123 2036 0
42 -325 -259 2037 0
-339 -325 110 2038 0
-304 211 53 2039 0
-400 295 357 2040 0
-133 -355 -483 2041 0
-174 -370 -428 2042 0
-144 -277 -267 2043 0
-425 248 347 2044 0
-65 -296 170 2045 0
-221 470 42 2046 0
226 -79 113 2047 0
359 88 -188 2048 0
-85 -61 485 2049 0
-350 36 -304 2050 0
-69 1 308 2051 0
-196 -279 305 2052 0
-23 -222 -134 2053 0
486 305 -349 2054 0
493 108 442 2055 0
498 -179 70 2056 0
93 404 -205 2057 0
458 144 -160 2058 0
-223 193 169 2059 0
-269 109 85 2060 0
-67 -101 -107 2061 0
-51 -212 -234 2062 0
203 -128 162 2063 0
357 -24 -368 2064 0
477 -247 411 2065 0
-109 396 -343 2066 0
66 -143 40 2067 0
120 -263 312 2068 0
-40 270 351 2069 0
-304 -20 -234 2070 0
88 -166 311 2071 0
-304 -36 379 2072 0
-134 282 -487 2073 0
251 289 442 2074 0
-91 -458 -364 2075 0
-42 491 12 2076 0
-289 -390 29 2077 0
-464 -208 -322 2078 0
-427 399 -390 2079 0
-456 464 -381 2080 0
291 -395 372 2081 0
102 342 -412 2082 0
-184 341 265 2083 0
-62 396 -422 2084 0
443 -110 -150 2085 0
435 162 268 2086 0
-143 -227 298 2087 0
-103 -143 -308 2088 0
-320 252 -376 2089 0
321 -495 -93 2090 0
180 460 -62 2091 0
485 281 -114 2092 0
322 368 -485 2093 0
-380 -93 224 2094 0
-468 107 -278 2095 0
171 380 -301 2096 0
-239 -434 80 2097 0
-342 -2 -66 2098 0
-126 456 87 2099 0
-311 123 -134 2100 0
-46 -252 -308 2101 0
-474 -366 -497 2102 0
-182 -427 -136 2103 0
-447 454 208 2104 0
364 326 285 2105 0
-270 236 -387 2106 0
-500 -377 470 2107 0
134 -95 96 2108 0
-195 492 338 2109 0
387 62 170 2110 0
240 -400 -395 2111 0
-244 11 303 2112 0
-454 208 73 2113 0
-146 -348 -246 2114 0
435 140 232 2115 0
97 85 -346 2116 0
334 -272 -268 2117 0
409 197 236 2118 0
-89 -202 -384 2119 0
418 -172 -63 2120 0
425 -36 125 2121 0
208 428 448 2122 0
46 -269 -448 2123 0
346 -226 200 2124 0
-340 -433 424 2125 0
412 -174 -284 2126 0
258 -65 -200 2127 0
-161 190 -285 2128 0
-11 376 190 2129 0
-321 389 298 2130 0
-197 -3 78 2131 0
417 400 240 2132 0
-408 -26 -86 2133 0
-446 -362 -285 2134 0
-420 169 224 2135 0
114 216 259 2136 0
-442 370 233 2137 0
212 152 -495 2138 0
-467 -176 -318 2139 0
265 -487 -325 2140 0
106 -103 -316 2141 0
-388 391 386 2142 0
131 -132 -338 2143 0
-449 18 143 2144 0
-2 -149 421 2145 0
-36 434 -2 2146 0
-308 -184 -54 2147 0
99 258 377 2148 0
-439 -290 445 2149 0
-220 -19 452 2150 0
-169 446 -22 2151 0
-437 -382 -335 2152 0
248 -153 -461 2153 0
387 -323 -305 2154 0
213 427 -377 2155 0
9 39 -204 2156 0
91 3 299 2157 0
-391 -297 -171 2158 0
367 -246 9 2159 0
-340 -426 304 2160 0
494 -281 -124 2161 0
-228 -483 -422 2162 0
76 -328 218 2163 0
-289 -31 269 2164 0
-322 217 241 2165 0
457 332 -126 2166 0
-281 -317 -362 2167 0
-322 -254 -160 2168 0
-174 -268 314 2169 0
77 491 -260 2170 0
-88 3 409 2171 0
-22 -258 -154 2172 0
377 376 -334 2173 0
35 -122 -151 2174 0
-372 -54 -255 2175 0
288 221 296 2176 0
466 -287 -62 2177 0
216 -408 210 2178 0
55 -280 -312 2179 0
203 -110 15 2180 0
112 488 182 2181 0
320 -350 -398 2182 0
-398 -121 243 2183 0
-11 485 -258 2184 0
-326 -320 377 2185 0
92 -370 -393 2186 0
-107 -336 -277 2187 0
-135 -179 346 2188 0
-464 -108 233 2189 0
4 496 -368 2190 0
47 -149 154 2191 0
354 -460 16 2192 0
-290 -311 -265 2193 0
422 -476 398 2194 0
-255 -345 22 2195 0
-84 110 336 2196 0
-340 89 -323 2197 0
76 -49 -416 2198 0
-138 330 -28 2199 0
374 306 81 2200 0
355 -361 301 2201 0
487 -462 -126 2202 0
255 463 262 2203 0
-353 -363 -255 2204 0
233 285 -62 2205 0
-103 -96 -243 2206 0
-323 172 283 2207 0
461 340 -195 2208 0
-102 -189 129 2209 0
-187 -459 -500 2210 0
-140 419 -28 2211 0
453 -489 237 2212 0
-79 -159 -372 2213 0
-120 452 35 2214 0
-10 13 -149 2215 0
-221 -200 -473 2216 0
-83 -348 27 2217 0
-323 -277 347 2218 0
-415 167 11 2219 0
-159 -180 280 2220 0
147 193 95 2221 0
-286 -280 -474 2222 0
276 373 -279 2223 0
-280 358 -257 2224 0
-15 171 -348 2225 0
59 -341 -373 2226 0
-118 -384 302 2227 0
171 60 158 2228 0
401 404 300 2229 0
32 332 287 2230 0
-242 181 -96 2231 0
95 356 -166 2232 0
-490 -351 196 2233 0
-397 49 -186 2234 0
-17 -491 -135 2235 0
305 -149 -367 2236 0
14 -246 218 2237 0
-12 25 -319 2238 0
-152 -399 215 2239 0
1 -364 133 2240 0
-196 -356 33 2241 0
-498 214 -142 2242 0
471 -110 -282 2243 0
-249 -346 -196 2244 0
377 14 352 2245 0
-469 489 207 2246 0
325 -207 356 2247 0
-217 339 82 2248 0
-60 -216 -88 2249 0
461 -225 84 2250 0
145 -214 474 2251 0
480 280 -426 2252 0
85 -216 -80 2253 0
416 473 -174 2254 0
-500 -121 -419 2255 0
-283 -332 349 2256 0
219 154 -495 2257 0
236 -159 439 2258 0
-296 215 -124 2259 0
390 27 -467 2260 0
100 449 -146 2261 0
160 356 -95 2262 0
-345 395 466 2263 0
-15 -150 -169 2264 0
-30 277 182 2265 0
222 205 351 2266 0
-150 -184 -8 2267 0
348 -221 -283 2268 0
-8 476 157 2269 0
176 -191 269 2270 0
406 196 -417 2271 0
-288 455 125 2272 0
-324 320 -288 2273 0
-22 87 436 2274 0
258 344 284 2275 0
-227 -223 47 2276 0
-250 -365 -93 2277 0
2 -289 281 2278 0
102 -329 92 2279 0
-327 -123 -376 2280 0
343 494 -397 2281 0
280 189 -137 2282 0
229 407 494 2283 0
-88 -51 308 2284 0
144 -434 -301 2285 0
-423 7 -161 2286 0
-266 14 420 2287 0
207 181 -191 2288 0
-320 -34 -162 2289 0
53 -8 -277 2290 0
-277 303 -408 2291 0
344 -106 -460 2292 0
42 -329 -87 2293 0
285 50 -64 2294 0
43 38 261 2295 0
269 -477 -147 2296 0
-16 -441 60 2297 0
318 190 -174 2298 0
409 197 -476 2299 0
-365 -467 -202 2300 0
195 79 463 2301 0
201 -300 -424 2302 0
-235 232 -218 2303 0
423 321 34 2304 0
-2 79 -373 2305 0
-24 470 -397 2306 0
-340 200 176 2307 0
-173 -496 121 2308 0
1 -288 -193 2309 0
-189 -181 -309 2310 0
-66 -282 138 2311 0
-479 304 227 2312 0
-38 489 -5 2313 0
121 51 392 2314 0
-130 -343 237 2315 0
-343 -303 -269 2316 0
254 -362 324 2317 0
-449 87 116 2318 0
321 -17 54 2319 0
164 -142 -121 2320 0
-179 351 -203 2321 0
-74 169 360 2322 0
-363 -99 -176 2323 0
-293 -99 477 2324 0
206 -182 329 2325 0
386 302 -72 2326 0
-305 -252 453 2327 0
-206 -164 310 2328 0
-101 451 -368 2329 0
381 -40 25 2330 0
207 -474 106 2331 0
285 356 -51 2332 0
409 -444 342 2333 0
138 -451 -428 2334 0
-425 323 472 2335 0
485 -355 431 2336 0
-325 449 -418 2337 0
-141 -430 388 2338 0
-337 -119 91 2339 0
-460 -402 251 2340 0
240 -261 -62 2341 0
-441 225 -211 2342 0
174 -453 -35 2343 0
48 -35 490 2344 0
-329 -324 -56 2345 0
63 309 188 2346 0
-357 -463 43 2347 0
-494 458 -498 2348 0
478 -44 185 2349 0
-317 416 -431 2350 0
190 -284 -456 2351 0
119 -248 -221 2352 0
-53 -26 -73 2353 0
364 25 462 2354 0
133 160 -41 2355 0
-259 136 31 2356 0
-135 429 457 2357 0
136 259 -253 2358 0
-46 -69 -89 2359 0
292 -286 -95 2360 0
-12 416 -298 2361 0
35 468 -320 2362 0
-324 97 246 2363 0
-369 -26 170 2364 0
243 -63 -36 2365 0
-270 52 -59 2366 0
-285 173 -6 2367 0
-420 -274 -443 2368 0
-152 452 330 2369 0
-264 484 12 2370 0
-25 -26 437 2371 0
-15 -224 -383 2372 0
-56 179 106 2373 0
-422 -400 138 2374 0
174 -183 -141 2375 0
-138 373 -445 2376 0
168 449 -282 2377 0
-321 345 -54 2378 0
222 408 274 2379 0
-373 -154 79 2380 0
263 464 33 2381 0
211 -156 -261 2382 0
-186 254 336 2383 0
146 -306 -436 2384 0
-64 342 -105 2385 0
-262 -81 404 2386 0
136 -167 265 2387 0
-128 303 -426 2388 0
224 92 387 2389 0
452 -440 482 2390 0
120 -9 402 2391 0
-411 -97 83 2392 0
-216 32 -221 2393 0
274 79 196 2394 0
-109 -432 261 2395 0
-379 386 -271 2396 0
257 432 109 2397 0
-26 -459 -246 2398 0
-445 322 -231 2399 0
-376 446 -256 2400 0
-178 320 -326 2401 0
322 65 238 2402 0
53 -74 -309 2403 0
57 -146 258 2404 0
75 -208 -280 2405 0
-445 -416 241 2406 0
-446 450 -27 2407 0
476 491 191 2408 0
-473 -378 12 2409 0
388 414 -201 2410 0
27 476 132 2411 0
210 334 432 2412 0
218 33 77 2413 0
-449 -319 -444 2414 0
-389 251 -51 2415 0
-134 -15 220 2416 0
-108 417 -280 2417 0
-264 -28 -352 2418 0
144 405 449 2419 0
-221 64 56 2420 0
278 208 -465 2421 0
129 380 137 2422 0
-476 153 131 2423 0
-253 3 -50 2424 0
435 -120 -128 2425 0
-90 465 158 2426 0
169 196 39 2427 0
-412 -48 -372 2428 0
-240 247 -457 2429 0
413 -214 37 2430 0
213 -367 -422 2431 0
-492 -263 121 2432 0
282 -123 -2 2433 0
413 307 -197 2434 0
-481 390 103 2435 0
499 -472 -19 2436 0
-112 324 474 2437 0
-242 -436 313 2438 0
-36 -434 250 2439 0
-130 -131 -89 2440 0
-285 -174 181 2441 0
-368 -33 -106 2442 0
-86 -208 -186 2443 0
71 405 -257 2444 0
149 -27 402 2445 0
-233 367 -373 2446 0
452 -76 -292 2447 0
-434 -477 -408 2448 0
96 -12 -22 2449 0
14 423 -487 2450 0
202 231 -135 2451 0
-327 -46 187 2452 0
127 -306 350 2453 0
50 390 -54 2454 0
-476 395 -300 2455 0
-61 145 -338 2456 0
-4 174 69 2457 0
-165 -202 167 2458 0
-345 -183 236 2459 0
-363 79 325 2460 0
144 434 346 2461 0
56 -61 237 2462 0
-325 -114 -321 2463 0
-278 -62 288 2464 0
-36 -13 -9 2465 0
20 390 25 2466 0
234 181 -304 2467 0
280 198 -61 2468 0
389 257 -27 2469 0
-195 -250 80 2470 0
413 -159 225 2471 0
275 -39 60 2472 0
250 491 -394 2473 0
-335 216 200 2474 0
299 -164 35 2475 0
-339 221 -435 2476 0
-404 236 -70 2477 0
499 -459 -294 2478 0
-22 -164 -268 2479 0
328 319 430 2480 0
-437 262 475 2481 0
69 282 -90 2482 0
175 482 360 2483 0
384 313 -157 2484 0
430 142 64 2485 0
460 -96 -58 2486 0
288 334 -469 2487 0
-382 482 345 2488 0
-273 -400 17 2489 0
-333 281 -458 2490 0
-35 -20 130 2491 0
-88 9 -169 2492 0
201 193 500 2493 0
-17 320 -479 2494 0
18 221 -392 2495 0
-473 387 399 2496 0
-12 101 198 2497 0
30 -473 423 2498 0
-228 64 469 2499 0
14 -444 -432 2500 0
360 265 454 2501 0
347 285 -21 2502 0
69 467 -405 2503 0
55 -39 -5 2504 0
-96 402 -410 2505 0
294 40 424 2506 0
-91 -281 125 2507 0
-194 1 93 2508 0
-433 -304 -496 2509 0
407 -331 -26 2510 0
-6 64 391 2511 0
357 267 409 2512 0
60 -445 -377 2513 0
-428 479 80 2514 0
-486 179 113 2515 0
-213 -429 -276 2516 0
372 -264 62 2517 0
59 369 244 2518 0
-402 361 11 2519 0
-432 288 -195 2520 0
-454 380 -301 2521 0
-61 26 -418 2522 0
158 -355 163 2523 0
-446 397 -301 2524 0
-152 135 -459 2525 0
39 126 -389 2526 0
236 53 -111 2527 0
448 -129 -284 2528 0
51 -483 -398 2529 0
235 38 272 2530 0
-405 -121 424 2531 0
318 -305 35 2532 0
322 -6 313 2533 0
-404 -417 -270 2534 0
294 -445 301 2535 0
388 490 -133 2536 0
-463 434 232 2537 0
15 352 -481 2538 0
95 -295 370 2539 0
166 -161 103 2540 0
382 344 -391 2541 0
252 77 -19 2542 0
-382 274 -249 2543 0
-464 221 491 2544 0
-179 -364 328 2545 0
-44 -96 236 2546 0
193 397 -326 2547 0
-119 307 109 2548 0
-173 -235 -28 2549 0
110 -331 285 2550 0
181 365 -143 2551 0
51 -106 22 2552 0
-291 -207 -483 2553 0
169 -156 316 2554 0
162 -101 -46 2555 0
402 -280 -99 2556 0
146 -28 127 2557 0
-324 -362 199 2558 0
351 -71 96 2559 0
217 342 415 2560 0
-220 314 -75 2561 0
79 406 -284 2562 0
155 442 4 2563 0
156 -376 181 2564 0
468 -169 88 2565 0
-160 79 108 2566 0
-107 -413 -433 2567 0
230 -460 -5 2568 0
-86 14 -470 2569 0
-251 393 25 2570 0
-424 -148 338 2571 0
-280 370 251 2572 0
474 -217 -384 2573 0
203 132 -222 2574 0
437 303 -99 2575 0
-70 294 -123 2576 0
96 -381 123 2577 0
-314 172 -139 2578 0
419 180 -53 2579 0
-348 490 243 2580 0
-463 260 -188 2581 0
-73 381 441 2582 0
-209 -106 236 2583 0
-48 -344 -412 2584 0
487 277 140 2585 0
134 -1 -500 2586 0
-11 -460 53 2587 0
335 481 -252 2588 0
282 360 -69 2589 0
-255 127 -74 2590 0
-260 -324 -485 2591 0
452 -98 234 2592 0
-312 319 258 2593 0
-9 133 -361 2594 0
-54 233 -112 2595 0
201 85 -198 2596 0
-162 9 483 2597 0
418 84 -268 2598 0
-484 320 -67 2599 0
-328 -385 267 2600 0
220 457 -378 2601 0
138 248 134 2602 0
172 -323 387 2603 0
-298 18 250 2604 0
353 322 470 2605 0
445 409 -60 2606 0
393 47 -261 2607 0
-406 264 139 2608 0
262 12 -397 2609 0
-367 -297 -494 2610 0
133 147 -34 2611 0
349 -147 157 2612 0
43 146 217 2613 0
108 -151 -430 2614 0
-350 320 407 2615 0
463 320 284 2616 0
-77 469 -236 2617 0
-65 -105 47 2618 0
-474 -347 446 2619 0
-320 -326 128 2620 0
313 492 261 2621 0
-279 -30 -491 2622 0
397 -14 407 2623 0
-393 338 188 2624 0
-46 82 401 2625 0
412 347 -152 2626 0
-430 -449 259 2627 0
-411 51 -85 2628 0
-112 33 -247 2629 0
437 -243 237 2630 0
-430 -499 99 2631 0
115 -196 -23 2632 0
55 109 339 2633 0
322 347 380 2634 0
-64 280 -111 2635 0
-450 201 -14 2636 0
-308 -421 -365 2637 0
196 -467 -23 2638 0
-500 -269 -164 2639 0
62 94 453 2640 0
13 -397 -8 2641 0
432 -167 -192 2642 0
74 134 396 2643 0
181 379 -456 2644 0
302 -245 70 2645 0
-130 -327 -340 2646 0
-149 91 121 2647 0
-332 75 11 2648 0
427 265 -95 2649 0
222 54 165 2650 0
