p cnf 2650 2150
453 -302 487 501 0
371 143 341 502 0
-36 473 -311 503 0
490 298 113 504 0
117 427 -283 505 0
34 163 -364 506 0
-248 -486 286 507 0
-193 327 231 508 0
192 -313 291 509 0
-314 386 96 510 0
217 141 -84 511 0
-171 214 -452 512 0
-271 426 -3 513 0
-337 128 162 514 0
347 392 -105 515 0
328 149 -119 516 0
-343 10 -357 517 0
-233 431 192 518 0
493 -444 337 519 0
217 278 -196 520 0
101 121 393 521 0
-379 448 8 522 0
208 -147 -249 523 0
62 143 -151 524 0
-294 143 -385 525 0
-212 -353 -412 526 0
-99 -406 -333 527 0
-141 276 -278 528 0
124 -212 -15 529 0
-209 345 446 530 0
-472 142 66 531 0
231 499 -396 532 0
419 -291 170 533 0
146 445 34 534 0
-154 142 443 535 0
445 454 -98 536 0
282 -39 370 537 0
223 328 231 538 0
254 -172 211 539 0
-167 -18 411 540 0
127 -103 -430 541 0
-345 384 460 542 0
313 181 481 543 0
-113 498 -144 544 0
-7 -234 -492 545 0
47 -427 279 546 0
81 132 157 547 0
62 192 -480 548 0
197 249 176 549 0
-38 101 52 550 0
-105 27 175 551 0
-431 -21 390 552 0
390 139 306 553 0
-219 -343 366 554 0
-101 323 -201 555 0
83 -180 -48 556 0
-365 496 -2 557 0
-430 96 -99 558 0
168 415 424 559 0
143 395 324 560 0
496 178 118 561 0
139 -271 283 562 0
141 347 -419 563 0
-93 167 -444 564 0
19 -180 47 565 0
84 287 -407 566 0
452 -136 -438 567 0
-24 -490 320 568 0
-172 -421 219 569 0
114 199 -301 570 0
419 -176 262 571 0
280 68 -171 572 0
-181 189 -373 573 0
229 18 -195 574 0
-151 119 410 575 0
386 202 220 576 0
361 -192 -181 577 0
-404 407 308 578 0
1 -225 -435 579 0
-158 436 156 580 0
385 -215 426 581 0
462 -114 269 582 0
-499 -420 125 583 0
-416 499 70 584 0
-376 -300 -287 585 0
315 304 226 586 0
-173 -493 210 587 0
437 251 -488 588 0
-129 -424 -404 589 0
-343 -394 -60 590 0
309 -241 152 591 0
169 77 -232 592 0
-327 -340 -295 593 0
372 157 -423 594 0
-215 186 124 595 0
320 -28 -257 596 0
57 -246 260 597 0
372 100 217 598 0
-128 30 -127 599 0
-87 76 396 600 0
382 -441 16 601 0
-372 -57 -408 602 0
358 -498 289 603 0
230 -317 107 604 0
2 -234 -71 605 0
-27 18 409 606 0
401 48 128 607 0
473 -294 -227 608 0
424 16 240 609 0
-472 374 96 610 0
291 96 -390 611 0
444 -144 233 612 0
409 -460 -336 613 0
-45 213 265 614 0
-280 344 205 615 0
454 120 -364 616 0
-471 -465 25 617 0
7 -60 -45 618 0
-168 348 332 619 0
332 -395 358 620 0
-404 49 -253 621 0
128 411 -97 622 0
-26 -82 -136 623 0
-113 437 58 624 0
-249 245 296 625 0
387 -239 425 626 0
-83 -39 163 627 0
-212 40 167 628 0
-43 -436 -61 629 0
474 123 -463 630 0
246 -164 145 631 0
-456 37 167 632 0
444 138 189 633 0
374 400 106 634 0
-142 -62 53 635 0
463 -135 -181 636 0
-492 -23 -117 637 0
69 -380 460 638 0
110 358 -319 639 0
168 362 -364 640 0
-22 302 399 641 0
22 -177 -59 642 0
-428 76 -72 643 0
-431 -104 157 644 0
102 367 476 645 0
-176 466 414 646 0
324 354 134 647 0
194 -226 385 648 0
-261 399 -388 649 0
456 180 444 650 0
-243 441 257 651 0
78 -243 345 652 0
217 -91 -371 653 0
-417 435 498 654 0
-500 259 -62 655 0
-292 -81 -206 656 0
-183 -5 199 657 0
138 356 465 658 0
355 200 -42 659 0
90 379 12 660 0
235 16 352 661 0
498 -370 -68 662 0
209 215 146 663 0
138 -387 422 664 0
454 -494 371 665 0
242 230 111 666 0
112 346 -488 667 0
-303 -180 -118 668 0
455 222 -350 669 0
412 143 -351 670 0
420 -139 329 671 0
-474 309 136 672 0
282 -227 -137 673 0
311 230 -62 674 0
117 -237 -142 675 0
-217 -316 421 676 0
479 -212 40 677 0
261 -328 297 678 0
101 -105 -489 679 0
-43 449 105 680 0
297 203 -53 681 0
218 262 -197 682 0
84 -358 100 683 0
-292 492 -73 684 0
444 -351 -5 685 0
150 -411 365 686 0
172 114 302 687 0
161 200 -476 688 0
317 -206 352 689 0
-453 -2 310 690 0
476 -215 34 691 0
-369 -342 -307 692 0
-220 -142 247 693 0
-376 -219 -289 694 0
488 -315 286 695 0
-310 -496 230 696 0
82 496 319 697 0
432 201 -276 698 0
-286 -191 -368 699 0
340 105 321 700 0
50 49 416 701 0
279 -399 -460 702 0
-90 433 -307 703 0
362 -484 -213 704 0
5 483 -127 705 0
-126 176 457 706 0
-218 351 87 707 0
-408 -259 -14 708 0
-183 -498 -135 709 0
-476 480 -420 710 0
499 -80 102 711 0
169 -1 -381 712 0
-247 -15 6 713 0
45 417 -212 714 0
457 93 473 715 0
-278 -257 -62 716 0
-170 -241 -3 717 0
-248 -279 -261 718 0
475 495 -69 719 0
113 -196 289 720 0
-6 -442 -198 721 0
-310 -338 324 722 0
410 -61 282 723 0
-75 -441 -424 724 0
151 -370 -429 725 0
31 -254 224 726 0
-409 367 -351 727 0
286 217 -343 728 0
-110 125 35 729 0
-373 -281 376 730 0
-204 29 -45 731 0
253 277 -48 732 0
-369 -298 -251 733 0
-178 476 -99 734 0
99 92 185 735 0
421 87 -409 736 0
144 322 55 737 0
40 42 -401 738 0
50 -243 -401 739 0
489 -79 -184 740 0
-322 -250 -222 741 0
-383 -2 96 742 0
-276 -20 216 743 0
401 200 234 744 0
164 -259 94 745 0
325 -312 -178 746 0
-301 -124 -394 747 0
-388 -481 -441 748 0
-108 298 -377 749 0
38 -226 319 750 0
460 -303 310 751 0
360 226 -209 752 0
-25 -82 -22 753 0
500 115 59 754 0
-106 -44 206 755 0
-113 -367 -65 756 0
397 69 335 757 0
113 -429 4 758 0
53 461 -115 759 0
-339 -284 61 760 0
-332 298 -404 761 0
22 328 254 762 0
439 495 -91 763 0
-97 -287 105 764 0
-213 89 -68 765 0
-446 -246 89 766 0
-336 -247 -213 767 0
-102 -295 325 768 0
-97 -269 223 769 0
-39 481 -253 770 0
-251 -322 228 771 0
-367 400 -222 772 0
-387 431 -305 773 0
-307 -356 57 774 0
-391 -35 -96 775 0
391 253 -249 776 0
-266 -407 275 777 0
-232 270 201 778 0
-83 372 5 779 0
146 243 -470 780 0
201 372 277 781 0
243 367 -246 782 0
-224 -31 -482 783 0
34 -78 138 784 0
492 -43 329 785 0
160 391 -229 786 0
283 -71 -272 787 0
440 -479 8 788 0
-246 441 -292 789 0
327 87 -5 790 0
-420 -441 482 791 0
193 226 200 792 0
-487 107 146 793 0
-42 -181 -311 794 0
266 -194 -278 795 0
155 -409 -111 796 0
237 144 -70 797 0
-411 416 -441 798 0
-418 3 -66 799 0
-148 -186 -5 800 0
-489 -169 -266 801 0
500 -247 408 802 0
-220 461 300 803 0
-481 57 385 804 0
-40 -105 -167 805 0
336 16 -332 806 0
329 -367 -417 807 0
400 -424 -446 808 0
-467 -106 -94 809 0
377 88 153 810 0
-251 272 -64 811 0
270 -428 -374 812 0
257 22 181 813 0
416 201 -409 814 0
305 -257 239 815 0
192 -408 348 816 0
411 366 -14 817 0
-437 454 376 818 0
-308 -51 -131 819 0
-19 162 476 820 0
260 -129 -224 821 0
-420 -4 12 822 0
-114 -440 197 823 0
-105 -432 429 824 0
195 -231 -244 825 0
-296 -316 -118 826 0
71 376 -359 827 0
-315 44 160 828 0
46 500 -489 829 0
-220 -64 -467 830 0
-268 -168 -47 831 0
-150 486 464 832 0
-207 -130 101 833 0
168 80 -361 834 0
74 -446 325 835 0
-222 -368 -252 836 0
-295 7 -207 837 0
-338 -142 238 838 0
-148 381 151 839 0
-351 48 -494 840 0
-343 38 362 841 0
-392 322 458 842 0
-17 453 135 843 0
472 -218 -338 844 0
-281 -158 189 845 0
327 198 289 846 0
-424 -155 -158 847 0
-284 -247 152 848 0
225 226 -71 849 0
-394 -21 -212 850 0
-2 -405 -222 851 0
422 19 87 852 0
-284 463 -477 853 0
-140 129 276 854 0
298 -341 328 855 0
37 488 -78 856 0
-466 -280 322 857 0
-410 364 -237 858 0
9 -412 -293 859 0
421 148 -279 860 0
192 -366 -68 861 0
-386 -198 -402 862 0
-85 346 171 863 0
-317 -39 -77 864 0
3 -131 443 865 0
-25 120 130 866 0
461 -350 -288 867 0
-432 364 24 868 0
-53 -269 -284 869 0
-218 -422 335 870 0
420 -361 392 871 0
-377 -463 186 872 0
-444 -466 410 873 0
342 366 492 874 0
154 -9 -184 875 0
96 -481 -424 876 0
-361 -20 -110 877 0
-358 -188 -305 878 0
204 -176 -28 879 0
417 37 424 880 0
-491 410 300 881 0
-231 450 -227 882 0
-138 213 -490 883 0
176 240 -473 884 0
376 -307 192 885 0
-305 132 374 886 0
243 -431 -213 887 0
-153 189 -462 888 0
266 228 101 889 0
-149 37 -90 890 0
170 -66 -479 891 0
-104 -499 43 892 0
134 323 127 893 0
-247 200 367 894 0
328 354 52 895 0
81 -341 -383 896 0
-494 -377 95 897 0
127 -163 -260 898 0
-432 -276 236 899 0
-3 492 67 900 0
-243 -262 326 901 0
-103 -357 -416 902 0
-427 -315 172 903 0
-142 -227 -373 904 0
-460 -454 42 905 0
-477 491 -321 906 0
488 224 499 907 0
451 206 -472 908 0
-486 -433 -3 909 0
-373 124 -313 910 0
197 424 22 911 0
175 79 -177 912 0
68 446 456 913 0
443 -325 411 914 0
401 215 -362 915 0
-92 467 -393 916 0
237 483 -332 917 0
-95 -422 -473 918 0
-117 -75 -226 919 0
390 -35 -300 920 0
387 287 -342 921 0
-164 203 -81 922 0
-260 237 -239 923 0
-374 409 330 924 0
-320 456 329 925 0
-401 315 -466 926 0
-92 228 -158 927 0
479 226 396 928 0
475 -28 -142 929 0
460 164 -219 930 0
-112 365 -448 931 0
-331 107 -20 932 0
-125 -243 -159 933 0
-335 182 384 934 0
-217 188 -367 935 0
-154 -96 -313 936 0
364 -73 422 937 0
-126 294 -46 938 0
208 425 -365 939 0
281 262 300 940 0
-66 352 -117 941 0
232 -77 -296 942 0
-140 28 227 943 0
237 426 242 944 0
296 464 347 945 0
-432 -405 235 946 0
-102 212 165 947 0
411 333 -380 948 0
452 278 266 949 0
-164 -245 -171 950 0
20 -78 390 951 0
438 -60 112 952 0
346 -367 -223 953 0
161 -409 -111 954 0
498 -39 -468 955 0
-394 -213 -235 956 0
319 -198 -118 957 0
434 148 308 958 0
-304 292 376 959 0
466 -146 -293 960 0
-106 221 327 961 0
169 2 -108 962 0
-37 -84 267 963 0
-459 396 -161 964 0
-15 -145 355 965 0
113 -463 326 966 0
349 -318 204 967 0
-261 337 -270 968 0
16 410 424 969 0
-390 37 -248 970 0
-112 -278 -82 971 0
-249 -422 -68 972 0
-349 9 137 973 0
49 153 -19 974 0
-352 -449 440 975 0
-182 -169 492 976 0
66 485 444 977 0
176 20 -34 978 0
-64 109 -150 979 0
397 339 -172 980 0
227 186 147 981 0
221 367 210 982 0
123 372 127 983 0
-124 181 47 984 0
193 87 -392 985 0
141 -299 290 986 0
164 30 158 987 0
453 130 306 988 0
-153 -53 206 989 0
254 382 116 990 0
237 358 -91 991 0
-387 -486 -38 992 0
199 71 274 993 0
255 272 217 994 0
-316 -317 -225 995 0
-91 -422 95 996 0
345 -399 -402 997 0
48 163 285 998 0
-112 387 -212 999 0
-195 406 436 1000 0
-467 371 -372 1001 0
-61 422 -183 1002 0
-164 140 131 1003 0
-105 269 -226 1004 0
33 66 180 1005 0
-500 -10 91 1006 0
143 -313 10 1007 0
-297 -65 243 1008 0
-424 -232 63 1009 0
-90 -412 -479 1010 0
-28 400 -298 1011 0
-244 283 303 1012 0
-199 104 295 1013 0
47 -371 353 1014 0
87 -454 -457 1015 0
-341 -465 252 1016 0
314 -367 -239 1017 0
234 449 -66 1018 0
-140 143 -438 1019 0
310 -323 -224 1020 0
-5 206 -280 1021 0
134 -133 -87 1022 0
448 -356 338 1023 0
-269 -435 -489 1024 0
88 289 269 1025 0
204 -383 279 1026 0
-441 -188 -271 1027 0
-236 -149 -161 1028 0
-312 -314 -58 1029 0
177 417 -59 1030 0
306 494 96 1031 0
-295 320 229 1032 0
-86 -393 211 1033 0
-118 -406 -331 1034 0
-190 -75 171 1035 0
14 -451 -168 1036 0
-249 -489 -153 1037 0
-203 184 447 1038 0
-371 -400 -276 1039 0
420 -191 -371 1040 0
-270 -237 -418 1041 0
-134 -21 -230 1042 0
284 232 -8 1043 0
137 35 -317 1044 0
-96 -400 -417 1045 0
461 428 -273 1046 0
-486 203 112 1047 0
11 -177 261 1048 0
-33 -180 67 1049 0
-405 46 308 1050 0
-241 77 -472 1051 0
-218 -179 -406 1052 0
-448 493 250 1053 0
293 -455 -325 1054 0
183 249 125 1055 0
-429 -213 384 1056 0
287 -198 466 1057 0
470 -449 -82 1058 0
-285 -466 -89 1059 0
135 -496 -109 1060 0
424 -88 290 1061 0
178 419 185 1062 0
241 -484 116 1063 0
-231 -19 451 1064 0
-226 -403 -166 1065 0
456 312 -485 1066 0
-266 295 388 1067 0
-28 298 451 1068 0
45 -313 -477 1069 0
-93 -461 -188 1070 0
-125 45 329 1071 0
-185 -173 455 1072 0
184 254 81 1073 0
-215 -364 -353 1074 0
398 287 -83 1075 0
198 -84 444 1076 0
-229 -219 9 1077 0
336 -79 -470 1078 0
117 474 -329 1079 0
-245 70 198 1080 0
479 309 -386 1081 0
-280 14 -316 1082 0
432 -474 -271 1083 0
-405 22 445 1084 0
223 -328 -6 1085 0
-207 115 -156 1086 0
-272 -20 13 1087 0
434 -171 -421 1088 0
485 -206 447 1089 0
-487 394 -145 1090 0
370 156 -169 1091 0
405 -264 115 1092 0
-159 69 -291 1093 0
-321 21 292 1094 0
-22 -53 -101 1095 0
-406 -231 36 1096 0
-52 -25 -180 1097 0
292 -200 179 1098 0
242 -285 71 1099 0
-64 -251 434 1100 0
-465 -476 -381 1101 0
269 -431 62 1102 0
-69 346 -149 1103 0
-138 333 -10 1104 0
401 -17 -101 1105 0
-365 49 370 1106 0
455 -177 109 1107 0
277 383 -395 1108 0
130 -172 78 1109 0
221 37 -426 1110 0
-251 32 219 1111 0
-346 -259 -392 1112 0
-397 -498 72 1113 0
-312 -53 32 1114 0
-36 -46 -223 1115 0
155 34 -144 1116 0
214 -211 473 1117 0
-130 265 44 1118 0
-456 203 417 1119 0
140 487 -491 1120 0
196 -269 312 1121 0
-152 403 -179 1122 0
377 -394 -158 1123 0
-406 484 -35 1124 0
18 -173 236 1125 0
-167 -83 -290 1126 0
365 -118 -300 1127 0
-71 -404 -66 1128 0
488 372 270 1129 0
421 -217 125 1130 0
-493 -157 341 1131 0
-380 377 4 1132 0
-389 75 -60 1133 0
92 248 -326 1134 0
-228 -379 127 1135 0
52 -456 340 1136 0
-382 -500 163 1137 0
-455 -349 -40 1138 0
-204 406 78 1139 0
-103 -14 365 1140 0
27 -133 -322 1141 0
195 223 448 1142 0
-144 454 489 1143 0
-147 278 183 1144 0
-391 385 41 1145 0
495 29 393 1146 0
-97 58 439 1147 0
-422 260 346 1148 0
386 -445 -128 1149 0
-204 223 36 1150 0
471 144 -425 1151 0
-306 351 -399 1152 0
110 -104 -244 1153 0
135 -409 250 1154 0
-217 210 295 1155 0
-106 21 298 1156 0
-71 -258 186 1157 0
119 -378 -488 1158 0
-263 -335 -189 1159 0
343 447 246 1160 0
314 331 -302 1161 0
305 -2 -136 1162 0
496 364 -126 1163 0
-316 174 -48 1164 0
243 -139 264 1165 0
192 86 94 1166 0
260 -72 106 1167 0
-268 -5 -460 1168 0
-494 -217 176 1169 0
263 326 -302 1170 0
-67 -9 65 1171 0
379 -199 -353 1172 0
-25 411 459 1173 0
331 25 396 1174 0
252 303 -356 1175 0
-330 -87 336 1176 0
279 -435 -252 1177 0
240 115 -275 1178 0
-114 -202 -435 1179 0
-452 -319 -263 1180 0
250 351 290 1181 0
456 -40 -146 1182 0
20 254 -441 1183 0
387 -351 -494 1184 0
309 -151 336 1185 0
456 -224 -85 1186 0
-238 325 -410 1187 0
-468 38 -433 1188 0
163 -85 -488 1189 0
179 437 227 1190 0
483 -157 -10 1191 0
208 55 483 1192 0
-303 -227 161 1193 0
173 465 498 1194 0
-113 205 -69 1195 0
356 397 367 1196 0
-85 -397 -444 1197 0
-333 -445 366 1198 0
391 -202 64 1199 0
-76 221 -27 1200 0
-446 -25 -22 1201 0
-321 -265 17 1202 0
234 33 468 1203 0
-242 -134 178 1204 0
397 168 -10 1205 0
62 -161 -99 1206 0
304 421 36 1207 0
-365 -399 -344 1208 0
-122 375 -477 1209 0
65 -303 -395 1210 0
-151 42 -420 1211 0
1 -303 10 1212 0
-148 251 468 1213 0
421 381 486 1214 0
-158 338 380 1215 0
477 -470 424 1216 0
-464 -461 -276 1217 0
-437 491 486 1218 0
-130 455 471 1219 0
-412 418 -389 1220 0
-307 -422 91 1221 0
158 -438 -59 1222 0
473 472 303 1223 0
-450 -382 -402 1224 0
260 66 -327 1225 0
-79 -71 248 1226 0
-230 -95 300 1227 0
-230 479 -122 1228 0
-261 167 303 1229 0
387 166 -153 1230 0
-453 425 -244 1231 0
-20 -399 -104 1232 0
-336 -386 -43 1233 0
-305 -392 -445 1234 0
151 114 39 1235 0
138 -103 -428 1236 0
-292 -495 -333 1237 0
355 178 -224 1238 0
-195 -38 14 1239 0
-48 239 -107 1240 0
-235 -3 -379 1241 0
252 -108 -272 1242 0
-78 423 -282 1243 0
415 -222 287 1244 0
-347 268 160 1245 0
115 116 392 1246 0
-314 -98 105 1247 0
163 -275 -64 1248 0
-226 132 244 1249 0
94 236 -289 1250 0
-82 -66 -306 1251 0
-334 104 -359 1252 0
-466 16 271 1253 0
98 481 -176 1254 0
-335 -281 185 1255 0
153 217 -355 1256 0
361 118 -287 1257 0
327 449 255 1258 0
-422 -168 360 1259 0
240 -50 -21 1260 0
-68 296 -65 1261 0
-416 327 53 1262 0
184 -271 470 1263 0
276 93 475 1264 0
82 301 249 1265 0
-261 -246 -301 1266 0
-396 333 186 1267 0
-116 138 467 1268 0
112 -276 -292 1269 0
493 -176 79 1270 0
283 175 -370 1271 0
-459 76 -142 1272 0
-249 -307 393 1273 0
53 181 261 1274 0
-439 341 -496 1275 0
182 -443 10 1276 0
-362 464 -18 1277 0
-149 -114 8 1278 0
-255 -80 -344 1279 0
-449 196 126 1280 0
-164 359 -391 1281 0
334 -398 -405 1282 0
-283 321 179 1283 0
-70 249 -137 1284 0
12 110 -250 1285 0
-36 314 120 1286 0
420 -357 43 1287 0
413 81 368 1288 0
309 354 9 1289 0
115 -160 277 1290 0
-488 -186 -9 1291 0
483 -177 -395 1292 0
181 110 -9 1293 0
-239 27 497 1294 0
309 -223 422 1295 0
-159 107 -318 1296 0
166 -370 -482 1297 0
474 401 169 1298 0
-5 -358 -28 1299 0
13 308 -481 1300 0
411 -56 288 1301 0
-389 -398 -350 1302 0
-66 474 169 1303 0
-295 193 261 1304 0
242 -397 -76 1305 0
-286 -171 -319 1306 0
-323 417 -151 1307 0
-49 122 -104 1308 0
105 410 -183 1309 0
11 -345 255 1310 0
451 -364 299 1311 0
42 -34 -215 1312 0
-341 183 -74 1313 0
-446 12 293 1314 0
-189 -276 -363 1315 0
106 -66 -238 1316 0
124 355 -32 1317 0
312 -454 -374 1318 0
355 -451 -49 1319 0
57 -400 -409 1320 0
-220 -71 -47 1321 0
267 -380 43 1322 0
336 448 -325 1323 0
61 322 296 1324 0
-6 125 89 1325 0
-88 -186 -266 1326 0
145 -76 -49 1327 0
-186 178 328 1328 0
243 -341 277 1329 0
-448 458 -173 1330 0
4 159 3 1331 0
353 -174 -358 1332 0
81 -163 -177 1333 0
-49 -179 6 1334 0
122 362 83 1335 0
-318 -108 359 1336 0
211 13 -329 1337 0
-105 451 139 1338 0
220 8 84 1339 0
398 29 175 1340 0
471 -408 120 1341 0
-53 -224 259 1342 0
370 381 139 1343 0
-192 -252 459 1344 0
165 -368 386 1345 0
72 498 -38 1346 0
-104 260 58 1347 0
403 -116 -76 1348 0
87 -11 -52 1349 0
-443 -254 326 1350 0
-359 -345 -367 1351 0
-33 365 -168 1352 0
-282 284 22 1353 0
-360 -472 -263 1354 0
-178 -440 -45 1355 0
-40 -61 -234 1356 0
401 -460 -99 1357 0
-161 -466 -452 1358 0
-386 -158 -303 1359 0
309 -182 -220 1360 0
217 223 -226 1361 0
71 95 -376 1362 0
138 -364 164 1363 0
-138 -280 -402 1364 0
-68 -159 465 1365 0
185 -212 293 1366 0
210 33 188 1367 0
-441 -327 -482 1368 0
213 -142 -18 1369 0
-420 -253 -460 1370 0
346 62 30 1371 0
358 -258 -323 1372 0
-16 472 -63 1373 0
-465 -480 144 1374 0
-223 259 407 1375 0
172 -500 204 1376 0
153 -51 -493 1377 0
141 487 370 1378 0
121 386 66 1379 0
-129 255 -470 1380 0
492 -383 218 1381 0
-255 -320 -58 1382 0
-489 -416 158 1383 0
-411 421 -225 1384 0
474 -63 -102 1385 0
309 377 -356 1386 0
266 234 378 1387 0
-128 -401 197 1388 0
-51 -406 390 1389 0
-130 171 -419 1390 0
-37 181 492 1391 0
345 162 -441 1392 0
-83 -313 -249 1393 0
-201 103 483 1394 0
-57 -320 -495 1395 0
79 -498 83 1396 0
-18 329 361 1397 0
374 347 -325 1398 0
-375 449 435 1399 0
-77 365 -18 1400 0
425 -253 -476 1401 0
5 263 175 1402 0
143 -373 488 1403 0
-365 -85 321 1404 0
13 -36 208 1405 0
-361 193 -250 1406 0
145 -197 458 1407 0
438 395 -296 1408 0
215 130 -115 1409 0
-78 491 121 1410 0
-357 242 -84 1411 0
-15 -367 399 1412 0
63 119 263 1413 0
17 352 -375 1414 0
-307 -59 -344 1415 0
-224 -454 -122 1416 0
97 -25 401 1417 0
11 218 -111 1418 0
-227 153 -218 1419 0
-175 -312 251 1420 0
-393 -13 -353 1421 0
36 -262 -115 1422 0
48 -432 101 1423 0
-30 433 144 1424 0
414 -371 378 1425 0
382 -77 -172 1426 0
403 -402 -126 1427 0
148 -485 -155 1428 0
336 53 -71 1429 0
-35 406 51 1430 0
346 -99 68 1431 0
-168 483 -99 1432 0
375 -106 -63 1433 0
51 -231 -86 1434 0
380 -1 472 1435 0
-195 -445 -143 1436 0
91 -220 -448 1437 0
-23 -29 448 1438 0
-482 -303 87 1439 0
-274 -455 324 1440 0
338 486 33 1441 0
109 327 114 1442 0
-233 155 383 1443 0
470 8 53 1444 0
-68 -184 -287 1445 0
29 -336 -292 1446 0
-253 147 15 1447 0
197 -337 303 1448 0
-413 122 366 1449 0
-228 204 -473 1450 0
-382 -154 -392 1451 0
-322 -473 -146 1452 0
314 424 -99 1453 0
329 -229 359 1454 0
-453 49 380 1455 0
287 -401 -4 1456 0
-486 -15 -439 1457 0
-138 31 29 1458 0
27 330 -242 1459 0
299 -22 -166 1460 0
334 -141 44 1461 0
265 371 -27 1462 0
26 -274 -487 1463 0
323 260 -247 1464 0
-450 66 -281 1465 0
-82 -427 223 1466 0
-278 -387 -348 1467 0
310 323 -216 1468 0
284 7 -299 1469 0
-110 -280 -358 1470 0
-36 -456 -122 1471 0
285 -50 67 1472 0
-208 57 -210 1473 0
-9 490 27 1474 0
6 384 427 1475 0
-58 -215 344 1476 0
427 249 176 1477 0
-474 -405 -400 1478 0
-114 -116 42 1479 0
-90 371 149 1480 0
-66 -221 360 1481 0
-177 200 103 1482 0
446 17 326 1483 0
65 -28 238 1484 0
-128 -363 -79 1485 0
-79 -36 315 1486 0
122 -282 292 1487 0
289 -347 244 1488 0
-32 364 -431 1489 0
477 125 -4 1490 0
-23 15 -362 1491 0
227 52 331 1492 0
-187 139 444 1493 0
-390 -140 -34 1494 0
-41 -98 73 1495 0
-272 403 -116 1496 0
279 -258 -105 1497 0
-482 334 -97 1498 0
373 21 410 1499 0
212 68 305 1500 0
-173 3 -220 1501 0
-109 -324 36 1502 0
360 357 481 1503 0
50 -285 -296 1504 0
290 -287 -68 1505 0
352 -128 492 1506 0
72 -476 -214 1507 0
-237 131 291 1508 0
-455 -26 55 1509 0
499 392 -51 1510 0
389 245 93 1511 0
-477 306 194 1512 0
485 -438 381 1513 0
-241 261 353 1514 0
84 -153 80 1515 0
469 401 48 1516 0
498 -371 -80 1517 0
-289 19 -377 1518 0
354 -132 -478 1519 0
414 -36 302 1520 0
-206 252 -478 1521 0
332 -358 2 1522 0
-271 77 92 1523 0
-481 484 -86 1524 0
-349 445 464 1525 0
-439 -273 169 1526 0
-23 77 151 1527 0
-109 348 238 1528 0
51 -355 209 1529 0
252 42 -448 1530 0
219 95 90 1531 0
449 -185 -441 1532 0
413 -237 332 1533 0
490 -398 275 1534 0
424 -283 -380 1535 0
-112 -167 324 1536 0
-113 -238 -286 1537 0
-403 442 458 1538 0
-49 -152 -361 1539 0
-47 37 -487 1540 0
-333 282 488 1541 0
401 285 392 1542 0
-306 364 220 1543 0
-492 3 314 1544 0
239 -117 -405 1545 0
-379 104 12 1546 0
417 242 -419 1547 0
250 366 89 1548 0
-286 231 486 1549 0
-20 -409 167 1550 0
114 84 -283 1551 0
159 52 469 1552 0
350 43 -118 1553 0
472 -293 -285 1554 0
51 265 433 1555 0
345 -433 10 1556 0
2 -386 302 1557 0
140 -190 -352 1558 0
317 -213 -401 1559 0
224 189 489 1560 0
-191 -246 -316 1561 0
-428 -10 442 1562 0
-372 -237 -411 1563 0
184 183 -168 1564 0
224 52 -21 1565 0
-209 489 -246 1566 0
-397 -85 272 1567 0
228 -25 -407 1568 0
219 -232 -329 1569 0
-454 76 161 1570 0
253 -52 386 1571 0
395 -356 285 1572 0
456 464 320 1573 0
-304 47 28 1574 0
104 236 -461 1575 0
-271 9 214 1576 0
-86 -67 352 1577 0
-327 -500 142 1578 0
324 169 187 1579 0
-426 1 -201 1580 0
117 224 328 1581 0
-17 249 -46 1582 0
434 34 1 1583 0
-185 -124 -293 1584 0
-447 122 -431 1585 0
-389 -455 -390 1586 0
179 21 -469 1587 0
-419 281 104 1588 0
-362 299 -40 1589 0
-80 -279 -424 1590 0
-480 -17 -344 1591 0
-32 -189 395 1592 0
-309 64 -173 1593 0
352 428 150 1594 0
136 -217 -73 1595 0
427 -74 -406 1596 0
143 -243 -418 1597 0
-487 -456 -132 1598 0
-367 -327 390 1599 0
-196 273 229 1600 0
-58 305 434 1601 0
33 216 -248 1602 0
377 168 -28 1603 0
-243 433 -265 1604 0
111 -83 -269 1605 0
-210 -251 -46 1606 0
-272 267 437 1607 0
59 -169 -194 1608 0
438 -446 -428 1609 0
-173 361 235 1610 0
-339 451 219 1611 0
164 5 32 1612 0
-124 -123 -11 1613 0
342 158 373 1614 0
308 -314 -38 1615 0
380 76 216 1616 0
350 388 -291 1617 0
476 97 104 1618 0
376 -40 -137 1619 0
494 149 332 1620 0
480 161 124 1621 0
489 -472 493 1622 0
-203 444 -275 1623 0
355 385 -378 1624 0
-199 237 -31 1625 0
112 205 330 1626 0
108 260 353 1627 0
294 301 214 1628 0
257 -394 375 1629 0
-459 -311 -115 1630 0
-477 -46 66 1631 0
-77 217 498 1632 0
182 210 263 1633 0
-19 43 397 1634 0
276 253 -185 1635 0
-169 -201 -240 1636 0
-24 -53 342 1637 0
68 -126 258 1638 0
292 402 -273 1639 0
357 -44 -265 1640 0
371 6 115 1641 0
-455 33 490 1642 0
248 -472 232 1643 0
-261 331 194 1644 0
-432 -197 -330 1645 0
-464 -69 442 1646 0
-44 390 377 1647 0
-417 -446 -115 1648 0
270 -190 -348 1649 0
-342 290 -77 1650 0
183 -408 202 1651 0
-79 -32 -393 1652 0
308 -404 47 1653 0
328 -23 -87 1654 0
104 -372 349 1655 0
209 202 485 1656 0
366 40 -131 1657 0
-119 -345 -426 1658 0
214 410 -265 1659 0
228 86 295 1660 0
1 -125 -172 1661 0
314 -45 -216 1662 0
-54 -51 -288 1663 0
-405 -421 -124 1664 0
-389 -44 323 1665 0
54 424 -427 1666 0
207 399 31 1667 0
417 -362 -73 1668 0
97 -232 424 1669 0
314 481 -294 1670 0
84 482 -134 1671 0
-183 -355 -85 1672 0
-488 -209 -224 1673 0
-436 15 98 1674 0
-490 -306 -129 1675 0
464 -125 -53 1676 0
-325 -461 359 1677 0
397 -59 -438 1678 0
147 -333 -24 1679 0
148 -152 261 1680 0
33 391 377 1681 0
-338 -356 147 1682 0
48 82 318 1683 0
494 -48 280 1684 0
-347 -47 349 1685 0
-211 -74 246 1686 0
-229 179 -217 1687 0
-105 -305 -37 1688 0
-160 -173 -67 1689 0
393 -306 -150 1690 0
-339 72 261 1691 0
78 -171 -189 1692 0
-86 382 42 1693 0
72 485 -351 1694 0
-309 -74 492 1695 0
-243 122 403 1696 0
206 -78 454 1697 0
-438 123 -271 1698 0
458 63 -152 1699 0
-487 353 416 1700 0
-295 -132 -2 1701 0
116 -376 147 1702 0
-249 386 428 1703 0
-325 340 -86 1704 0
-86 391 486 1705 0
152 -467 135 1706 0
-174 -394 -335 1707 0
478 161 445 1708 0
-222 140 351 1709 0
264 236 -65 1710 0
-461 472 -292 1711 0
274 13 343 1712 0
-303 484 -488 1713 0
409 -20 368 1714 0
-49 210 102 1715 0
444 -479 -107 1716 0
287 -388 122 1717 0
-477 292 -100 1718 0
257 -332 -208 1719 0
-68 362 264 1720 0
-236 -65 -114 1721 0
-204 -244 -436 1722 0
164 -344 189 1723 0
-149 415 287 1724 0
18 -316 480 1725 0
-459 -96 -496 1726 0
-129 99 298 1727 0
489 -61 -356 1728 0
359 -124 -423 1729 0
-81 287 422 1730 0
346 327 347 1731 0
-439 -384 282 1732 0
31 -342 -453 1733 0
-286 298 -285 1734 0
-208 -21 -116 1735 0
275 101 326 1736 0
27 417 -165 1737 0
-137 -362 194 1738 0
131 -341 289 1739 0
111 449 -490 1740 0
-214 -336 326 1741 0
-105 493 455 1742 0
-478 172 175 1743 0
9 48 -161 1744 0
421 203 125 1745 0
70 -33 451 1746 0
86 -484 -346 1747 0
308 215 -93 1748 0
-281 195 -157 1749 0
47 351 -274 1750 0
-192 -179 -151 1751 0
-125 -68 401 1752 0
-131 -21 76 1753 0
-289 -433 -197 1754 0
30 494 -498 1755 0
91 322 -450 1756 0
46 -240 283 1757 0
168 239 -115 1758 0
320 -66 215 1759 0
-112 -31 70 1760 0
-173 -157 -51 1761 0
204 -428 -312 1762 0
-337 308 -366 1763 0
-391 403 452 1764 0
21 188 -107 1765 0
420 -248 -210 1766 0
156 36 332 1767 0
-391 -33 286 1768 0
377 288 -147 1769 0
99 91 -115 1770 0
451 -402 -149 1771 0
10 -309 -172 1772 0
-485 321 205 1773 0
-481 448 -115 1774 0
-279 -490 -92 1775 0
99 -60 -139 1776 0
276 99 82 1777 0
270 177 261 1778 0
71 -6 -303 1779 0
209 22 -409 1780 0
343 285 -489 1781 0
-477 -488 -142 1782 0
269 -215 56 1783 0
99 97 -334 1784 0
-436 -112 199 1785 0
-468 -424 75 1786 0
-38 -322 350 1787 0
-196 267 -236 1788 0
-283 -245 -201 1789 0
86 409 395 1790 0
-292 -382 317 1791 0
-207 11 -345 1792 0
-229 -3 147 1793 0
-290 -479 266 1794 0
-63 395 386 1795 0
-149 29 -367 1796 0
-100 -255 105 1797 0
-261 -473 388 1798 0
-185 158 -291 1799 0
497 -26 -217 1800 0
-96 23 330 1801 0
75 317 -435 1802 0
100 -415 428 1803 0
66 -221 94 1804 0
-367 -194 136 1805 0
-243 -34 -272 1806 0
-160 314 170 1807 0
-255 -362 5 1808 0
-172 -408 -205 1809 0
-376 262 -14 1810 0
-48 -20 -310 1811 0
276 471 -449 1812 0
115 -194 -133 1813 0
37 -219 -2 1814 0
-458 -181 407 1815 0
278 237 -284 1816 0
-300 255 168 1817 0
474 154 428 1818 0
-353 -200 -211 1819 0
43 -212 477 1820 0
449 136 203 1821 0
371 473 405 1822 0
-35 439 274 1823 0
452 -181 -136 1824 0
-347 -117 -217 1825 0
255 258 49 1826 0
219 -436 23 1827 0
52 1 280 1828 0
-319 36 180 1829 0
-417 75 35 1830 0
-119 -62 -364 1831 0
63 301 -270 1832 0
183 -432 452 1833 0
-150 -420 380 1834 0
-149 2 479 1835 0
-126 -357 -358 1836 0
-208 245 108 1837 0
-288 182 489 1838 0
109 -388 96 1839 0
450 373 -205 1840 0
-242 149 492 1841 0
-93 -245 -118 1842 0
426 -493 120 1843 0
-6 55 -413 1844 0
-29 390 462 1845 0
331 -262 -329 1846 0
165 203 265 1847 0
304 22 218 1848 0
-170 331 350 1849 0
407 -266 -135 1850 0
-115 -32 10 1851 0
330 -26 363 1852 0
160 298 76 1853 0
179 278 289 1854 0
-69 -397 127 1855 0
-284 117 -277 1856 0
481 -3 406 1857 0
58 -15 -224 1858 0
219 -450 242 1859 0
197 358 -261 1860 0
9 -182 -314 1861 0
153 361 -448 1862 0
-187 249 -49 1863 0
459 -265 249 1864 0
-311 298 93 1865 0
-20 -205 -165 1866 0
-134 298 -327 1867 0
205 238 335 1868 0
-150 489 495 1869 0
-467 -75 -500 1870 0
-3 -287 399 1871 0
260 266 174 1872 0
-125 -302 50 1873 0
307 451 -182 1874 0
230 65 -263 1875 0
-232 332 -55 1876 0
-402 292 -383 1877 0
-305 -412 180 1878 0
-240 335 -117 1879 0
237 362 484 1880 0
-243 328 482 1881 0
-262 80 -104 1882 0
246 374 -458 1883 0
126 373 -153 1884 0
-227 -357 -243 1885 0
271 289 -357 1886 0
-142 260 353 1887 0
276 -319 -263 1888 0
-149 -259 -62 1889 0
-480 110 -108 1890 0
-37 -251 27 1891 0
-95 -150 87 1892 0
496 -284 7 1893 0
-22 238 -164 1894 0
41 -262 -439 1895 0
44 181 -98 1896 0
114 486 65 1897 0
-164 12 317 1898 0
315 -391 131 1899 0
464 12 156 1900 0
-333 43 397 1901 0
-343 217 -489 1902 0
281 -50 -401 1903 0
-100 318 -164 1904 0
308 -464 -24 1905 0
-244 -33 46 1906 0
-400 -469 -321 1907 0
-326 119 -164 1908 0
-370 -389 -431 1909 0
97 -102 396 1910 0
417 -80 391 1911 0
112 264 147 1912 0
-217 92 -13 1913 0
-26 -400 360 1914 0
-332 235 -305 1915 0
-123 -71 28 1916 0
16 -366 -360 1917 0
441 -175 344 1918 0
102 -405 -183 1919 0
335 -495 191 1920 0
-92 218 144 1921 0
400 388 -423 1922 0
-182 -208 -368 1923 0
-188 31 -498 1924 0
180 399 334 1925 0
-400 188 9 1926 0
389 -57 457 1927 0
95 127 245 1928 0
-259 60 396 1929 0
-88 -375 310 1930 0
440 158 -32 1931 0
-378 -196 -75 1932 0
374 380 195 1933 0
82 98 292 1934 0
-130 -357 331 1935 0
268 144 -77 1936 0
8 -172 -133 1937 0
-97 432 194 1938 0
-406 362 -476 1939 0
217 -266 -246 1940 0
-372 124 -85 1941 0
-418 -93 34 1942 0
5 -56 16 1943 0
-33 -369 -129 1944 0
-252 -46 -185 1945 0
355 -78 359 1946 0
-59 208 -299 1947 0
215 -379 -392 1948 0
-170 -342 238 1949 0
343 462 53 1950 0
285 -143 -258 1951 0
66 38 305 1952 0
-31 326 209 1953 0
-150 -101 -32 1954 0
442 139 -143 1955 0
206 -157 -307 1956 0
-64 -385 288 1957 0
-407 205 -460 1958 0
101 -403 -379 1959 0
103 283 -307 1960 0
7 203 -307 1961 0
-458 159 -35 1962 0
-308 -2 455 1963 0
-287 -162 -396 1964 0
211 -498 -420 1965 0
463 -306 -26 1966 0
92 -242 266 1967 0
-126 -138 410 1968 0
301 -374 151 1969 0
418 314 289 1970 0
454 -360 -191 1971 0
67 -156 368 1972 0
392 382 -459 1973 0
69 295 -32 1974 0
-479 294 204 1975 0
-102 79 391 1976 0
-107 303 222 1977 0
-472 -24 419 1978 0
7 6 228 1979 0
-136 308 -356 1980 0
35 -40 -459 1981 0
206 -284 -142 1982 0
-19 -91 408 1983 0
428 -418 -113 1984 0
-320 -276 123 1985 0
185 -132 315 1986 0
-1 90 326 1987 0
75 264 -427 1988 0
386 113 190 1989 0
153 383 -412 1990 0
63 -166 473 1991 0
-384 465 343 1992 0
19 168 -140 1993 0
-283 230 -339 1994 0
-237 -128 -254 1995 0
107 -206 -435 1996 0
75 24 433 1997 0
-79 463 221 1998 0
-187 -372 411 1999 0
316 54 -278 2000 0
-195 93 -355 2001 0
-151 -353 207 2002 0
-278 462 -429 2003 0
77 328 -118 2004 0
-468 -475 -274 2005 0
-423 322 -446 2006 0
-348 35 -341 2007 0
486 458 55 2008 0
-156 -71 374 2009 0
-221 -150 -247 2010 0
-209 -464 475 2011 0
-390 278 -148 2012 0
489 -416 -1 2013 0
-6 37 -414 2014 0
-371 -326 244 2015 0
-357 467 -479 2016 0
34 -352 -454 2017 0
129 2 457 2018 0
49 294 -289 2019 0
-438 476 -279 2020 0
-62 -395 -210 2021 0
439 -111 309 2022 0
-32 -387 -153 2023 0
264 -253 -11 2024 0
-459 -241 418 2025 0
-19 -206 -483 2026 0
68 32 72 2027 0
347 93 422 2028 0
378 131 52 2029 0
-319 -5 -343 2030 0
125 -255 -246 2031 0
103 -335 -271 2032 0
264 359 188 2033 0
-86 374 -462 2034 0
156 154 107 2035 0
181 215 204 2036 0
-194 -132 270 2037 0
279 274 491 2038 0
-68 331 -395 2039 0
435 394 -292 2040 0
-125 300 486 2041 0
-212 20 488 2042 0
300 -48 -475 2043 0
-407 475 476 2044 0
251 301 -264 2045 0
286 -373 -368 2046 0
212 -80 -128 2047 0
94 -373 -469 2048 0
-204 -182 -95 2049 0
-461 61 143 2050 0
276 -116 243 2051 0
-78 435 -123 2052 0
429 186 -364 2053 0
362 432 -482 2054 0
-238 -98 421 2055 0
-137 -10 -448 2056 0
-111 -243 298 2057 0
322 -301 134 2058 0
-185 -193 489 2059 0
-57 -195 282 2060 0
497 -443 108 2061 0
-467 426 102 2062 0
-351 217 -72 2063 0
-71 -493 -480 2064 0
-239 457 7 2065 0
-477 391 316 2066 0
376 -377 159 2067 0
-79 -257 24 2068 0
237 154 440 2069 0
215 -387 -480 2070 0
-131 54 -165 2071 0
-177 -255 219 2072 0
-23 135 -33 2073 0
-60 -433 135 2074 0
-259 320 384 2075 0
-334 271 110 2076 0
-402 -45 258 2077 0
94 -325 310 2078 0
476 53 -96 2079 0
489 -451 -280 2080 0
-106 275 270 2081 0
18 496 -197 2082 0
-411 271 180 2083 0
-134 87 -342 2084 0
39 224 254 2085 0
-347 -4 164 2086 0
-245 -36 276 2087 0
-8 330 337 2088 0
260 -222 156 2089 0
-174 6 390 2090 0
-404 -76 -96 2091 0
495 416 -116 2092 0
297 157 252 2093 0
-163 21 -164 2094 0
77 -69 481 2095 0
-10 337 35 2096 0
210 474 -296 2097 0
391 -406 165 2098 0
-361 -213 45 2099 0
208 75 -484 2100 0
-282 -447 -59 2101 0
-181 -263 -160 2102 0
166 362 -452 2103 0
-85 342 -178 2104 0
-43 -278 395 2105 0
148 203 -375 2106 0
21 377 375 2107 0
-109 -137 -237 2108 0
-63 -219 -83 2109 0
69 402 265 2110 0
30 72 -50 2111 0
68 -22 -3 2112 0
-199 348 409 2113 0
-36 -25 -230 2114 0
68 -352 -361 2115 0
-253 202 -376 2116 0
-451 -256 -89 2117 0
-84 -354 -83 2118 0
-349 30 447 2119 0
22 102 -2 2120 0
-396 -111 323 2121 0
-98 179 -196 2122 0
-302 73 128 2123 0
-276 1 -54 2124 0
-11 220 -166 2125 0
-485 -177 -74 2126 0
53 73 -99 2127 0
89 -31 226 2128 0
-172 -157 -130 2129 0
-311 -439 76 2130 0
-32 186 56 2131 0
-55 -167 -213 2132 0
345 -253 256 2133 0
41 -232 168 2134 0
-495 -49 70 2135 0
18 307 -427 2136 0
-369 121 -426 2137 0
451 190 386 2138 0
-226 -266 -283 2139 0
-85 -375 -57 2140 0
-417 -53 -286 2141 0
-448 168 314 2142 0
-230 -381 -247 2143 0
96 221 304 2144 0
285 324 -307 2145 0
131 -372 -264 2146 0
99 221 -34 2147 0
140 -271 352 2148 0
4 -140 19 2149 0
320 -139 -192 2150 0
-122 242 -218 2151 0
353 268 -213 2152 0
-454 283 -401 2153 0
130 427 -8 2154 0
-111 69 17 2155 0
87 -181 -58 2156 0
-35 449 -446 2157 0
-216 -13 172 2158 0
239 255 131 2159 0
-457 -281 -169 2160 0
-147 -482 -494 2161 0
410 34 18 2162 0
-454 341 -118 2163 0
-177 -59 -380 2164 0
-185 -428 -249 2165 0
400 -318 -176 2166 0
285 448 -106 2167 0
379 -9 -155 2168 0
-458 -377 -94 2169 0
-410 34 -235 2170 0
45 470 98 2171 0
-143 -260 481 2172 0
-322 -224 -55 2173 0
-271 -120 237 2174 0
283 323 -237 2175 0
-323 313 181 2176 0
464 -371 105 2177 0
-484 -143 -197 2178 0
182 -472 -57 2179 0
120 -7 91 2180 0
80 -138 -486 2181 0
80 -81 -303 2182 0
-223 392 -26 2183 0
-271 336 285 2184 0
358 10 198 2185 0
107 44 46 2186 0
-375 303 322 2187 0
328 274 372 2188 0
120 387 -83 2189 0
496 -159 -358 2190 0
475 -240 484 2191 0
92 -298 -49 2192 0
29 -423 128 2193 0
410 35 -306 2194 0
-210 83 -411 2195 0
284 -151 -299 2196 0
331 478 -53 2197 0
203 139 -462 2198 0
-313 86 -383 2199 0
-74 -485 383 2200 0
-415 -262 -365 2201 0
-440 -453 -251 2202 0
-291 31 407 2203 0
211 -443 -283 2204 0
-444 289 77 2205 0
-229 -386 -12 2206 0
-437 -395 -94 2207 0
-181 434 322 2208 0
-176 123 197 2209 0
294 413 -206 2210 0
-45 187 -447 2211 0
-120 -283 270 2212 0
-483 -182 186 2213 0
154 -39 423 2214 0
-272 -269 307 2215 0
399 137 180 2216 0
337 364 339 2217 0
46 -249 -208 2218 0
-485 462 410 2219 0
-2 -126 264 2220 0
60 235 -40 2221 0
-277 65 24 2222 0
-64 -162 -333 2223 0
292 204 320 2224 0
232 189 115 2225 0
115 -91 436 2226 0
-29 188 366 2227 0
-382 -334 166 2228 0
-252 473 -389 2229 0
-210 -395 -343 2230 0
428 441 64 2231 0
12 -416 -180 2232 0
123 -378 -498 2233 0
-191 -258 197 2234 0
426 349 -194 2235 0
-408 -159 146 2236 0
3 -460 179 2237 0
-452 -421 -9 2238 0
-408 -233 465 2239 0
-133 -65 287 2240 0
150 204 -215 2241 0
310 73 45 2242 0
407 433 -126 2243 0
2 -151 492 2244 0
-348 14 -346 2245 0
-325 -117 387 2246 0
443 -388 331 2247 0
170 -320 219 2248 0
-498 -423 -457 2249 0
-441 -262 -370 2250 0
-20 92 -184 2251 0
-43 -447 265 2252 0
-22 172 141 2253 0
328 111 -113 2254 0
-401 -278 -99 2255 0
301 -463 313 2256 0
256 -479 -424 2257 0
14 106 -252 2258 0
-488 100 -277 2259 0
73 -446 87 2260 0
45 235 124 2261 0
-154 90 319 2262 0
124 -224 332 2263 0
185 88 -24 2264 0
-207 380 368 2265 0
-116 -463 -31 2266 0
295 -177 376 2267 0
202 -404 -388 2268 0
-495 -198 120 2269 0
53 234 158 2270 0
374 -220 384 2271 0
371 327 232 2272 0
416 -367 135 2273 0
50 -115 299 2274 0
151 157 -148 2275 0
-480 494 -60 2276 0
169 65 -498 2277 0
418 -283 -381 2278 0
164 -420 163 2279 0
-227 250 107 2280 0
-353 161 -414 2281 0
-179 -462 -249 2282 0
418 -375 -389 2283 0
-464 -150 -117 2284 0
-73 329 440 2285 0
-26 -465 -347 2286 0
-312 -30 -288 2287 0
33 -298 -341 2288 0
-51 247 -360 2289 0
498 480 -146 2290 0
-313 -253 276 2291 0
-88 -137 454 2292 0
-292 -421 304 2293 0
-405 -279 -487 2294 0
121 -158 -287 2295 0
149 61 102 2296 0
207 -40 269 2297 0
24 192 59 2298 0
98 387 -326 2299 0
210 -343 -407 2300 0
264 -256 238 2301 0
-481 -64 -239 2302 0
291 -386 427 2303 0
300 368 451 2304 0
370 477 -324 2305 0
87 -251 326 2306 0
-10 67 -214 2307 0
371 -279 -171 2308 0
-363 -490 196 2309 0
209 281 95 2310 0
319 83 330 2311 0
227 -142 247 2312 0
-67 -138 65 2313 0
-240 -172 -345 2314 0
179 -491 301 2315 0
244 261 -46 2316 0
-162 131 -110 2317 0
-206 318 199 2318 0
-483 256 -38 2319 0
-209 437 233 2320 0
252 -468 -462 2321 0
-339 334 -451 2322 0
57 -209 -432 2323 0
-260 -159 345 2324 0
-233 53 -375 2325 0
-498 57 243 2326 0
343 -281 346 2327 0
427 415 402 2328 0
477 -190 471 2329 0
-23 319 138 2330 0
-141 -409 -360 2331 0
57 205 431 2332 0
-205 467 -257 2333 0
-93 133 -477 2334 0
-145 136 -113 2335 0
27 473 90 2336 0
262 428 494 2337 0
-355 -467 -357 2338 0
381 283 360 2339 0
99 -479 75 2340 0
-56 -490 -345 2341 0
-63 166 103 2342 0
127 -215 291 2343 0
-158 185 -285 2344 0
401 -206 107 2345 0
299 -179 377 2346 0
323 315 -356 2347 0
-491 -294 -17 2348 0
-199 303 -77 2349 0
-439 173 92 2350 0
-324 -190 -450 2351 0
-195 -40 281 2352 0
292 -400 418 2353 0
-384 -417 -352 2354 0
442 497 -435 2355 0
-157 -457 370 2356 0
10 -12 -216 2357 0
51 206 235 2358 0
342 -320 -89 2359 0
222 -415 278 2360 0
283 256 57 2361 0
-481 324 -48 2362 0
342 -441 -280 2363 0
-71 -52 124 2364 0
-105 204 -290 2365 0
-464 -342 -133 2366 0
202 4 71 2367 0
-8 384 356 2368 0
-448 340 -182 2369 0
252 -425 462 2370 0
-497 176 -5 2371 0
-146 377 40 2372 0
125 -431 -257 2373 0
-446 -299 -230 2374 0
-320 484 -96 2375 0
-292 329 345 2376 0
-376 7 111 2377 0
344 -220 -51 2378 0
-222 136 -418 2379 0
-289 -181 250 2380 0
-251 109 171 2381 0
-169 -289 63 2382 0
-480 335 -124 2383 0
230 156 290 2384 0
282 232 -276 2385 0
-462 288 294 2386 0
-209 -45 205 2387 0
-353 -159 258 2388 0
360 275 4 2389 0
470 -85 -299 2390 0
222 13 -369 2391 0
344 430 -69 2392 0
-86 -422 -238 2393 0
-474 -186 68 2394 0
103 -74 83 2395 0
-80 -282 322 2396 0
-399 270 -363 2397 0
120 58 -394 2398 0
62 157 -96 2399 0
-393 477 -100 2400 0
-89 262 392 2401 0
-51 211 490 2402 0
-472 405 382 2403 0
310 240 -158 2404 0
76 269 -154 2405 0
-290 148 262 2406 0
-400 -97 -426 2407 0
-461 23 441 2408 0
249 -27 59 2409 0
-1 -96 -236 2410 0
220 215 193 2411 0
290 401 395 2412 0
298 261 64 2413 0
-357 -397 -366 2414 0
174 465 216 2415 0
-19 -74 310 2416 0
487 434 90 2417 0
289 -397 452 2418 0
3 -241 453 2419 0
-240 62 -230 2420 0
-280 67 68 2421 0
418 -164 178 2422 0
-312 -68 398 2423 0
-477 -108 -385 2424 0
-258 -326 48 2425 0
169 -78 -222 2426 0
-447 212 360 2427 0
-38 -496 177 2428 0
114 156 90 2429 0
-154 149 291 2430 0
-333 443 88 2431 0
196 424 -180 2432 0
74 269 -237 2433 0
32 177 -207 2434 0
149 -385 165 2435 0
30 -164 -402 2436 0
-229 -131 254 2437 0
-95 332 -31 2438 0
-413 11 -462 2439 0
68 -207 467 2440 0
-452 -115 -307 2441 0
473 -39 352 2442 0
-466 93 10 2443 0
174 -179 -323 2444 0
486 475 482 2445 0
-419 -110 -487 2446 0
53 305 -128 2447 0
493 472 286 2448 0
188 -290 361 2449 0
-375 -300 223 2450 0
155 368 191 2451 0
-160 -303 268 2452 0
171 -208 -362 2453 0
387 317 -170 2454 0
-190 35 43 2455 0
236 437 -444 2456 0
-391 226 403 2457 0
471 443 16 2458 0
462 184 -236 2459 0
-409 240 301 2460 0
-196 284 -23 2461 0
250 -386 88 2462 0
164 -314 93 2463 0
161 31 242 2464 0
438 89 -255 2465 0
-411 218 49 2466 0
-83 -268 497 2467 0
-179 371 237 2468 0
361 -330 35 2469 0
14 31 156 2470 0
45 -146 470 2471 0
-327 -449 -58 2472 0
-159 -372 222 2473 0
-408 477 163 2474 0
77 -93 15 2475 0
-411 222 -401 2476 0
208 -13 -276 2477 0
-38 -403 -19 2478 0
-152 39 327 2479 0
-178 241 -44 2480 0
360 245 39 2481 0
139 222 -196 2482 0
219 -117 102 2483 0
-345 398 242 2484 0
324 214 -166 2485 0
-227 218 -217 2486 0
-10 473 113 2487 0
-229 455 -499 2488 0
383 335 26 2489 0
-157 -348 -71 2490 0
155 256 147 2491 0
486 475 -299 2492 0
232 -384 -247 2493 0
-445 -177 -472 2494 0
-375 251 -352 2495 0
-184 -53 -339 2496 0
139 120 -356 2497 0
-239 217 237 2498 0
332 -126 127 2499 0
82 104 -267 2500 0
-16 11 307 2501 0
463 479 -212 2502 0
249 44 275 2503 0
492 184 -341 2504 0
485 85 -439 2505 0
-116 -169 -277 2506 0
477 -336 134 2507 0
91 396 444 2508 0
-495 282 315 2509 0
-404 -346 137 2510 0
181 -273 404 2511 0
93 -108 -335 2512 0
208 114 -359 2513 0
-310 294 354 2514 0
-187 229 -87 2515 0
-155 148 497 2516 0
-263 307 399 2517 0
-431 -355 -471 2518 0
458 302 -16 2519 0
34 82 -291 2520 0
-6 -463 -273 2521 0
-465 -40 232 2522 0
241 490 289 2523 0
-45 -366 -343 2524 0
310 -455 106 2525 0
110 -472 222 2526 0
309 33 280 2527 0
-56 -163 21 2528 0
-349 -167 138 2529 0
382 -13 -6 2530 0
477 267 319 2531 0
462 -271 19 2532 0
-202 280 207 2533 0
-67 -244 -154 2534 0
-440 -376 -243 2535 0
-271 -274 -210 2536 0
-387 218 -276 2537 0
358 290 220 2538 0
-200 216 351 2539 0
-84 -232 226 2540 0
-58 -431 104 2541 0
372 370 -465 2542 0
-344 44 -365 2543 0
82 -80 355 2544 0
294 -83 -222 2545 0
41 493 428 2546 0
-483 204 326 2547 0
-138 -446 -442 2548 0
277 461 -151 2549 0
407 -442 -347 2550 0
-223 -215 -141 2551 0
-294 45 -226 2552 0
198 24 33 2553 0
193 -286 36 2554 0
-47 436 260 2555 0
-110 247 442 2556 0
451 277 102 2557 0
-491 434 -32 2558 0
-327 -272 162 2559 0
272 -379 420 2560 0
125 142 134 2561 0
-218 -440 -227 2562 0
125 -273 -171 2563 0
351 -63 412 2564 0
-83 -35 37 2565 0
282 341 149 2566 0
396 14 -494 2567 0
-45 371 -105 2568 0
-425 373 -363 2569 0
-72 113 386 2570 0
-344 -392 500 2571 0
104 -213 451 2572 0
50 -489 -198 2573 0
221 -389 -298 2574 0
412 -484 -33 2575 0
-83 313 -309 2576 0
464 3 -395 2577 0
77 -75 470 2578 0
159 85 103 2579 0
-218 -387 -263 2580 0
-34 298 -52 2581 0
458 -442 -163 2582 0
443 190 459 2583 0
107 31 128 2584 0
-154 156 226 2585 0
173 -299 -464 2586 0
-237 -307 33 2587 0
-71 -446 233 2588 0
-17 -322 -264 2589 0
-100 464 -250 2590 0
113 -405 8 2591 0
-45 108 283 2592 0
174 99 -377 2593 0
-10 -229 -157 2594 0
95 -482 460 2595 0
165 -32 5 2596 0
4 270 -461 2597 0
-306 -417 -192 2598 0
-401 -428 -418 2599 0
180 -235 361 2600 0
179 -5 -173 2601 0
67 389 174 2602 0
3 80 206 2603 0
-195 66 119 2604 0
-273 -225 -115 2605 0
197 -89 -493 2606 0
360 -124 -133 2607 0
87 237 390 2608 0
115 -112 -208 2609 0
-457 -28 -168 2610 0
-440 -175 385 2611 0
428 146 218 2612 0
303 -396 -216 2613 0
-486 -319 -248 2614 0
472 -484 459 2615 0
247 181 261 2616 0
41 368 -33 2617 0
-438 -240 482 2618 0
172 202 113 2619 0
165 136 -310 2620 0
137 -167 -53 2621 0
-219 -462 422 2622 0
-392 369 -194 2623 0
-65 -193 166 2624 0
256 -198 406 2625 0
-4 242 452 2626 0
-479 213 -29 2627 0
-107 426 80 2628 0
-150 460 153 2629 0
151 -74 463 2630 0
-461 -254 51 2631 0
-147 -323 -253 2632 0
37 -342 91 2633 0
-151 -468 -149 2634 0
382 318 410 2635 0
-386 -82 99 2636 0
-433 -91 119 2637 0
-86 -304 237 2638 0
239 -229 368 2639 0
291 77 107 2640 0
497 219 473 2641 0
366 -208 404 2642 0
-124 -357 -199 2643 0
133 -483 270 2644 0
405 -249 286 2645 0
-4 -321 -267 2646 0
222 -54 166 2647 0
375 354 -82 2648 0
-65 108 -240 2649 0
399 -280 -130 2650 0
