p cnf 2650 2150
309 415 191 501 0
-179 312 231 502 0
-158 185 -194 503 0
181 -84 94 504 0
75 196 419 505 0
378 362 -380 506 0
387 96 188 507 0
191 228 -116 508 0
135 179 213 509 0
-307 -447 -408 510 0
-188 -71 -275 511 0
-172 291 -464 512 0
257 307 268 513 0
-300 138 -365 514 0
227 -177 415 515 0
44 -372 45 516 0
-68 445 401 517 0
-225 226 372 518 0
-416 38 255 519 0
258 -245 -126 520 0
-483 -272 -241 521 0
334 324 192 522 0
444 -185 -192 523 0
-348 89 57 524 0
-220 -56 -336 525 0
-284 -326 68 526 0
102 -71 23 527 0
348 197 -457 528 0
450 -302 317 529 0
291 -391 142 530 0
-225 -118 -421 531 0
379 301 -74 532 0
-405 -420 -137 533 0
-418 17 54 534 0
-268 58 -494 535 0
-313 441 15 536 0
368 -360 256 537 0
-437 -463 -286 538 0
-470 399 -431 539 0
218 135 -173 540 0
307 -64 445 541 0
-152 -59 -135 542 0
212 490 136 543 0
-32 468 466 544 0
-160 212 187 545 0
115 -441 -110 546 0
-478 463 420 547 0
-82 -449 -55 548 0
54 473 269 549 0
-17 98 -352 550 0
234 61 48 551 0
472 -453 200 552 0
355 -366 90 553 0
-409 453 257 554 0
-228 84 138 555 0
363 -436 63 556 0
-435 -108 461 557 0
-324 267 -57 558 0
456 253 325 559 0
457 -54 144 560 0
-385 -405 376 561 0
-478 311 -119 562 0
-482 -427 413 563 0
-25 -38 -105 564 0
-407 -114 -478 565 0
285 -434 132 566 0
316 171 74 567 0
131 55 -321 568 0
-388 308 -40 569 0
-360 399 -320 570 0
-160 66 -102 571 0
-157 196 406 572 0
-169 4 29 573 0
215 314 211 574 0
-209 -72 317 575 0
169 -151 431 576 0
-172 184 410 577 0
-259 278 468 578 0
83 -417 -99 579 0
-419 139 -40 580 0
-106 -453 417 581 0
262 131 452 582 0
-220 -356 62 583 0
-130 387 4 584 0
402 238 429 585 0
-53 -225 100 586 0
89 214 232 587 0
-113 356 -422 588 0
-400 261 195 589 0
303 -107 109 590 0
-307 383 -44 591 0
192 -183 195 592 0
-175 -202 242 593 0
-364 -242 -436 594 0
2 -260 152 595 0
455 347 -277 596 0
-136 -185 -363 597 0
-454 -124 441 598 0
-182 -304 118 599 0
-248 442 435 600 0
-43 -271 -359 601 0
282 218 -492 602 0
-301 500 -141 603 0
282 471 -476 604 0
-490 452 -26 605 0
-396 -36 307 606 0
-123 -204 -169 607 0
88 353 105 608 0
209 139 -149 609 0
234 120 78 610 0
388 -74 10 611 0
415 -365 -163 612 0
-208 -362 -136 613 0
329 -313 71 614 0
328 -499 -461 615 0
134 -370 -314 616 0
-103 249 -170 617 0
-142 36 -38 618 0
-36 -59 -415 619 0
183 282 356 620 0
-185 -295 488 621 0
63 349 474 622 0
54 -106 213 623 0
-266 54 -147 624 0
96 405 -321 625 0
182 -386 209 626 0
311 247 397 627 0
-432 -471 209 628 0
-44 -416 171 629 0
-450 227 -325 630 0
-22 265 -319 631 0
-310 -478 103 632 0
111 109 -255 633 0
400 -97 -438 634 0
24 -477 -327 635 0
-394 412 151 636 0
199 386 468 637 0
82 -101 -426 638 0
363 376 359 639 0
-54 87 359 640 0
-402 -147 441 641 0
217 351 -469 642 0
-205 137 371 643 0
475 -284 -438 644 0
197 110 -143 645 0
-232 192 14 646 0
-16 261 -124 647 0
309 169 223 648 0
471 369 170 649 0
456 430 -459 650 0
287 470 -282 651 0
-401 -311 328 652 0
425 -100 -126 653 0
77 373 55 654 0
411 -33 -42 655 0
-256 -77 -294 656 0
-149 -390 42 657 0
274 165 -482 658 0
-252 99 280 659 0
-88 -416 24 660 0
288 276 -291 661 0
-8 -496 483 662 0
-416 -129 23 663 0
-473 -250 -263 664 0
421 39 -497 665 0
17 -119 -83 666 0
-337 -442 -2 667 0
-132 -39 116 668 0
-245 81 34 669 0
76 64 -309 670 0
145 199 368 671 0
-229 -239 -90 672 0
79 -55 -247 673 0
336 205 -12 674 0
-319 -385 -90 675 0
-110 323 -147 676 0
-191 -44 216 677 0
-103 32 98 678 0
-74 478 -441 679 0
-320 -274 -258 680 0
-285 215 244 681 0
-51 -112 380 682 0
-173 268 -42 683 0
-45 -77 144 684 0
390 330 287 685 0
246 311 431 686 0
-487 266 143 687 0
198 438 -113 688 0
251 -375 -431 689 0
-184 429 340 690 0
-112 472 -334 691 0
-74 -231 134 692 0
268 -255 481 693 0
-257 252 -68 694 0
375 294 -223 695 0
-439 228 -187 696 0
78 260 189 697 0
437 15 403 698 0
-430 111 270 699 0
-144 -212 -330 700 0
-243 114 -279 701 0
-35 109 447 702 0
-384 396 -432 703 0
-482 362 -113 704 0
-311 -300 -441 705 0
-205 -448 494 706 0
432 -450 -173 707 0
-190 317 -367 708 0
-271 -426 -223 709 0
58 442 -494 710 0
-488 -327 29 711 0
-378 138 -458 712 0
249 299 136 713 0
119 487 223 714 0
220 -417 118 715 0
165 -231 -73 716 0
98 345 307 717 0
-406 46 -170 718 0
-68 86 -436 719 0
-131 252 -327 720 0
-300 117 443 721 0
373 288 487 722 0
-73 -163 -31 723 0
369 381 227 724 0
221 83 164 725 0
-449 -216 -99 726 0
-58 -399 -98 727 0
-335 -485 138 728 0
-201 473 129 729 0
-485 -139 -244 730 0
101 216 -18 731 0
255 -384 172 732 0
317 -66 75 733 0
-291 -107 166 734 0
100 37 -485 735 0
397 364 -50 736 0
-83 470 -115 737 0
95 238 -39 738 0
-273 107 430 739 0
-469 348 -32 740 0
-459 258 -252 741 0
434 262 445 742 0
-141 307 66 743 0
383 87 368 744 0
131 325 -380 745 0
415 445 224 746 0
-365 403 328 747 0
-318 -179 -278 748 0
64 -149 -49 749 0
-82 -117 327 750 0
-368 -294 -330 751 0
-181 -314 16 752 0
35 359 329 753 0
-31 387 104 754 0
72 -470 30 755 0
-34 -308 -200 756 0
-355 155 390 757 0
21 -483 70 758 0
-488 -373 65 759 0
-242 137 436 760 0
-451 35 -219 761 0
-337 -409 330 762 0
266 -185 415 763 0
-118 -55 -291 764 0
-149 182 317 765 0
313 328 -473 766 0
392 293 -73 767 0
77 419 -326 768 0
-345 -147 453 769 0
-106 222 -77 770 0
-383 117 -195 771 0
-65 377 -407 772 0
411 425 75 773 0
166 182 162 774 0
-395 -135 -154 775 0
-403 225 143 776 0
-420 -42 -195 777 0
132 216 -500 778 0
214 -404 69 779 0
-315 316 -74 780 0
108 -309 -457 781 0
208 -16 -321 782 0
-158 -255 143 783 0
303 -359 207 784 0
-495 480 -58 785 0
-409 -438 -323 786 0
404 -451 -299 787 0
-73 458 114 788 0
-35 467 191 789 0
305 137 471 790 0
38 399 268 791 0
-494 -9 -478 792 0
103 49 -176 793 0
306 -322 -199 794 0
102 44 244 795 0
17 -79 -413 796 0
-54 -300 299 797 0
174 -42 325 798 0
-407 22 -13 799 0
-117 -238 -381 800 0
-103 78 271 801 0
-437 -499 69 802 0
-481 -260 74 803 0
380 -391 -9 804 0
441 170 -256 805 0
-420 -296 216 806 0
-49 447 -449 807 0
399 180 -378 808 0
30 229 376 809 0
-387 -362 -451 810 0
-218 -429 -194 811 0
-308 -351 -134 812 0
294 -376 -367 813 0
250 -368 -496 814 0
261 -7 209 815 0
-476 -130 -277 816 0
-265 329 407 817 0
-66 -150 426 818 0
-366 -248 373 819 0
-109 -171 149 820 0
352 -23 -354 821 0
-9 474 132 822 0
4 -404 -55 823 0
229 294 337 824 0
-18 485 327 825 0
125 -152 277 826 0
351 -434 -368 827 0
-384 -356 29 828 0
-484 81 -124 829 0
-387 321 -212 830 0
434 133 -444 831 0
500 386 -62 832 0
-500 -64 -249 833 0
-446 29 77 834 0
-289 283 379 835 0
-67 -445 -411 836 0
336 223 -73 837 0
388 -310 229 838 0
464 38 204 839 0
-382 465 -483 840 0
329 477 29 841 0
-313 -329 161 842 0
-211 156 334 843 0
-17 -237 -185 844 0
-118 133 7 845 0
-462 418 427 846 0
-207 -349 136 847 0
122 -80 -110 848 0
-467 13 157 849 0
283 -80 -419 850 0
-270 -237 -259 851 0
245 -339 -149 852 0
-95 330 285 853 0
-400 398 -383 854 0
110 -306 -98 855 0
257 -306 -121 856 0
106 243 -16 857 0
171 -107 -418 858 0
363 80 -6 859 0
-418 205 -490 860 0
92 -46 457 861 0
340 -327 124 862 0
43 -391 -53 863 0
152 331 239 864 0
-91 350 -189 865 0
180 471 -165 866 0
376 -467 163 867 0
-270 16 -462 868 0
196 -342 -240 869 0
-237 -439 300 870 0
-422 -218 115 871 0
-380 -245 477 872 0
145 -68 166 873 0
-220 281 -222 874 0
-408 294 380 875 0
83 259 497 876 0
378 -324 320 877 0
-203 148 -428 878 0
-186 366 -4 879 0
-408 -191 -63 880 0
-95 153 -410 881 0
238 -384 400 882 0
-156 397 -482 883 0
500 -66 178 884 0
72 -104 -13 885 0
344 93 489 886 0
79 423 126 887 0
118 483 -473 888 0
123 115 40 889 0
-61 -418 -158 890 0
417 167 -350 891 0
148 454 250 892 0
-98 253 -89 893 0
335 179 -202 894 0
419 -119 158 895 0
497 345 191 896 0
92 187 -115 897 0
398 433 -26 898 0
-426 193 482 899 0
279 261 -343 900 0
421 398 -77 901 0
398 -409 -434 902 0
-342 -150 198 903 0
31 248 -140 904 0
-150 -70 -357 905 0
260 352 108 906 0
323 -395 -116 907 0
371 -355 280 908 0
-193 152 293 909 0
165 -20 -293 910 0
38 -50 327 911 0
-337 -378 -285 912 0
217 492 -311 913 0
142 -469 281 914 0
3 -148 322 915 0
-34 48 -273 916 0
237 425 -171 917 0
-139 -112 280 918 0
451 -66 -260 919 0
-325 170 -375 920 0
195 491 364 921 0
293 -371 -11 922 0
-401 -465 -197 923 0
-22 332 311 924 0
-124 -195 208 925 0
-276 -67 -484 926 0
277 83 289 927 0
283 451 497 928 0
471 -196 363 929 0
168 18 -292 930 0
148 34 -173 931 0
364 -405 4 932 0
-74 -150 416 933 0
-249 406 -99 934 0
-105 -479 -222 935 0
361 403 -500 936 0
73 347 144 937 0
-88 278 -68 938 0
311 183 238 939 0
74 193 -225 940 0
45 112 398 941 0
-310 275 -383 942 0
-287 -16 -408 943 0
154 -251 159 944 0
431 -475 432 945 0
308 -259 203 946 0
-74 87 209 947 0
205 -81 305 948 0
449 253 386 949 0
142 479 125 950 0
-444 273 136 951 0
-418 -479 397 952 0
-424 377 75 953 0
242 338 175 954 0
-405 331 146 955 0
-295 394 -306 956 0
-285 -368 329 957 0
495 36 -399 958 0
373 472 -88 959 0
-178 -87 274 960 0
360 -436 52 961 0
82 -200 248 962 0
-304 200 -140 963 0
377 55 -364 964 0
459 105 -43 965 0
-69 449 180 966 0
-373 -236 -180 967 0
-487 390 -348 968 0
302 327 -51 969 0
207 42 45 970 0
265 316 -300 971 0
406 499 118 972 0
-393 266 -464 973 0
-209 36 -245 974 0
207 151 -375 975 0
-415 -365 5 976 0
178 -304 -103 977 0
-337 -39 -261 978 0
420 67 284 979 0
5 210 321 980 0
-425 161 -284 981 0
-19 150 306 982 0
22 -224 -426 983 0
-373 186 195 984 0
321 397 -238 985 0
-238 -111 -298 986 0
-334 433 -180 987 0
-184 6 -245 988 0
-75 57 -426 989 0
-161 -488 120 990 0
-476 -232 317 991 0
-76 -177 358 992 0
457 -347 -339 993 0
232 -315 225 994 0
477 450 478 995 0
295 344 -160 996 0
-31 216 264 997 0
-458 149 448 998 0
182 474 -156 999 0
3 -428 499 1000 0
153 444 108 1001 0
-178 -340 -460 1002 0
-259 -47 126 1003 0
-317 -143 -357 1004 0
-218 -302 -126 1005 0
109 -43 329 1006 0
345 -4 -328 1007 0
-121 -108 476 1008 0
-439 -183 112 1009 0
383 -463 293 1010 0
392 190 -491 1011 0
384 147 157 1012 0
141 -266 32 1013 0
337 251 -257 1014 0
59 286 469 1015 0
445 383 296 1016 0
128 222 46 1017 0
-171 192 225 1018 0
-451 349 -438 1019 0
-185 -216 189 1020 0
266 -67 118 1021 0
-442 56 -486 1022 0
303 211 -199 1023 0
-293 -329 -102 1024 0
-257 -205 -496 1025 0
-324 -498 -368 1026 0
-28 149 -382 1027 0
245 104 -401 1028 0
-212 494 195 1029 0
151 -51 -28 1030 0
403 433 391 1031 0
80 -370 156 1032 0
53 10 65 1033 0
-309 278 -50 1034 0
-175 -152 -449 1035 0
93 -400 -71 1036 0
134 427 201 1037 0
60 67 -89 1038 0
390 184 -175 1039 0
441 -482 119 1040 0
42 332 -231 1041 0
404 81 -421 1042 0
-499 -171 419 1043 0
208 -336 370 1044 0
-195 -362 -456 1045 0
185 -259 378 1046 0
-189 -378 462 1047 0
-274 -187 -165 1048 0
-128 -55 354 1049 0
-262 -137 -49 1050 0
438 -427 428 1051 0
200 363 -436 1052 0
-469 -149 318 1053 0
21 -132 341 1054 0
-383 -211 -431 1055 0
247 476 -150 1056 0
88 -68 -172 1057 0
32 -202 386 1058 0
449 251 -497 1059 0
411 -95 339 1060 0
474 331 -314 1061 0
264 -240 189 1062 0
269 -500 -274 1063 0
-446 -26 -216 1064 0
-100 87 -8 1065 0
382 351 158 1066 0
-362 -400 22 1067 0
281 302 223 1068 0
171 -76 -119 1069 0
-57 -363 -192 1070 0
476 -314 -459 1071 0
-232 -65 2 1072 0
-343 480 401 1073 0
58 191 -70 1074 0
-169 358 -89 1075 0
-233 -245 -352 1076 0
-341 -449 -445 1077 0
-378 -32 186 1078 0
462 -306 -195 1079 0
280 396 -405 1080 0
282 -222 -87 1081 0
-301 490 -214 1082 0
393 -260 113 1083 0
179 -469 370 1084 0
216 194 -281 1085 0
219 429 -267 1086 0
-411 -5 -304 1087 0
28 -492 112 1088 0
424 406 256 1089 0
-4 -41 -235 1090 0
-233 22 142 1091 0
313 -183 78 1092 0
-269 412 -408 1093 0
340 423 453 1094 0
-291 179 -411 1095 0
-163 63 -174 1096 0
-46 -18 133 1097 0
-90 -82 349 1098 0
-155 239 262 1099 0
45 -32 42 1100 0
-382 356 326 1101 0
154 480 179 1102 0
419 38 62 1103 0
-73 -153 -299 1104 0
122 -347 416 1105 0
197 172 290 1106 0
-270 -51 251 1107 0
-490 40 -66 1108 0
355 -42 -497 1109 0
26 -178 -429 1110 0
122 -31 133 1111 0
290 355 -462 1112 0
355 165 500 1113 0
-352 -67 -329 1114 0
-31 341 387 1115 0
248 -147 135 1116 0
252 452 463 1117 0
-250 -284 470 1118 0
293 438 -481 1119 0
114 -241 396 1120 0
179 246 -213 1121 0
388 238 -147 1122 0
-189 23 -372 1123 0
-349 -251 18 1124 0
-217 -232 -112 1125 0
-283 467 -225 1126 0
145 -437 339 1127 0
107 -285 487 1128 0
97 -93 40 1129 0
91 79 118 1130 0
-156 119 228 1131 0
-100 171 156 1132 0
-269 205 -407 1133 0
-130 -65 147 1134 0
-43 119 51 1135 0
-459 -316 -128 1136 0
-228 -498 -75 1137 0
-384 308 -337 1138 0
60 190 -106 1139 0
-181 240 195 1140 0
-346 149 -219 1141 0
-159 -427 388 1142 0
-401 209 192 1143 0
-346 -30 -453 1144 0
-370 -222 -397 1145 0
442 90 -374 1146 0
122 280 -115 1147 0
-58 498 118 1148 0
439 25 67 1149 0
-305 -244 336 1150 0
190 -140 -105 1151 0
343 161 -283 1152 0
-330 102 372 1153 0
-62 410 38 1154 0
-307 -195 56 1155 0
471 238 243 1156 0
-161 426 225 1157 0
-73 -494 -259 1158 0
-268 -411 397 1159 0
-308 21 -201 1160 0
215 -181 428 1161 0
-305 55 356 1162 0
269 121 428 1163 0
165 319 349 1164 0
402 113 291 1165 0
-110 204 -323 1166 0
448 -397 -180 1167 0
-72 -45 53 1168 0
9 -476 -274 1169 0
-222 -153 -169 1170 0
-211 -129 -264 1171 0
382 -313 -75 1172 0
96 183 318 1173 0
-229 330 -253 1174 0
-186 -497 -394 1175 0
286 174 -95 1176 0
449 218 -427 1177 0
216 -396 462 1178 0
301 -469 -276 1179 0
473 -314 -147 1180 0
-221 -126 -118 1181 0
448 383 -449 1182 0
32 323 150 1183 0
-97 94 -310 1184 0
319 -148 -390 1185 0
475 209 -426 1186 0
-232 156 -55 1187 0
-21 333 -53 1188 0
-181 -220 -434 1189 0
-412 419 -371 1190 0
172 -294 53 1191 0
-280 362 320 1192 0
290 -440 329 1193 0
75 206 -46 1194 0
-16 263 -334 1195 0
-362 361 -61 1196 0
135 -50 -231 1197 0
-107 409 -181 1198 0
-393 -496 -384 1199 0
-181 99 225 1200 0
-369 410 135 1201 0
269 -354 415 1202 0
-261 -98 -330 1203 0
-359 312 469 1204 0
-101 293 -43 1205 0
418 -437 155 1206 0
-198 -474 -279 1207 0
317 282 -324 1208 0
-87 -289 -19 1209 0
-339 -326 335 1210 0
163 68 126 1211 0
94 -74 -159 1212 0
412 305 -465 1213 0
-196 68 128 1214 0
-10 -205 473 1215 0
-458 -469 197 1216 0
410 -428 -20 1217 0
276 147 473 1218 0
-67 -389 286 1219 0
-273 308 236 1220 0
254 339 326 1221 0
411 -99 -395 1222 0
-259 -83 222 1223 0
-415 -222 16 1224 0
-336 -352 14 1225 0
116 377 218 1226 0
-464 119 -406 1227 0
227 -198 -317 1228 0
-29 20 224 1229 0
-484 -228 -348 1230 0
-169 -478 -164 1231 0
-207 -31 -490 1232 0
-83 422 -368 1233 0
122 -140 163 1234 0
-78 311 52 1235 0
320 355 -97 1236 0
-309 330 411 1237 0
-416 248 -399 1238 0
-197 -363 -239 1239 0
165 19 -471 1240 0
-495 -127 -393 1241 0
-49 309 -234 1242 0
-317 454 428 1243 0
326 -464 -216 1244 0
-243 -46 213 1245 0
399 61 -381 1246 0
10 350 -464 1247 0
-26 125 -450 1248 0
469 21 -394 1249 0
-294 217 312 1250 0
-394 40 -309 1251 0
-85 218 156 1252 0
249 366 -361 1253 0
239 401 486 1254 0
405 110 -374 1255 0
-157 -76 350 1256 0
-118 -276 317 1257 0
429 -425 110 1258 0
177 125 -464 1259 0
-114 -409 -127 1260 0
26 230 138 1261 0
-201 -499 -227 1262 0
-435 23 -34 1263 0
297 51 -497 1264 0
-345 284 -11 1265 0
-125 -80 282 1266 0
397 334 260 1267 0
449 -435 397 1268 0
-183 460 -53 1269 0
-260 339 211 1270 0
-466 -491 102 1271 0
136 400 -108 1272 0
-337 8 -454 1273 0
-274 17 97 1274 0
206 259 -159 1275 0
255 -137 -81 1276 0
140 -155 21 1277 0
288 321 -76 1278 0
194 301 236 1279 0
-203 5 176 1280 0
207 498 269 1281 0
-259 -145 138 1282 0
-273 -381 492 1283 0
-385 247 -441 1284 0
201 -203 -148 1285 0
402 -337 -363 1286 0
-188 -5 -163 1287 0
325 147 360 1288 0
352 -270 293 1289 0
361 151 291 1290 0
93 -414 -436 1291 0
-166 263 -219 1292 0
316 60 -387 1293 0
36 471 -441 1294 0
-325 248 162 1295 0
-348 102 440 1296 0
496 142 -49 1297 0
65 -425 494 1298 0
20 -236 -37 1299 0
-375 82 111 1300 0
257 69 418 1301 0
75 237 -219 1302 0
-260 -369 -90 1303 0
337 -462 342 1304 0
480 -141 432 1305 0
58 -446 342 1306 0
-43 -76 -294 1307 0
71 216 437 1308 0
-134 360 -390 1309 0
51 91 -296 1310 0
200 423 47 1311 0
-469 -445 237 1312 0
161 17 117 1313 0
-497 141 350 1314 0
-185 392 -480 1315 0
-485 381 66 1316 0
281 58 152 1317 0
390 -87 401 1318 0
145 -468 461 1319 0
-490 -291 -230 1320 0
-277 489 401 1321 0
3 -207 -396 1322 0
264 -157 48 1323 0
-133 364 23 1324 0
-276 413 183 1325 0
-189 -125 -243 1326 0
-203 462 425 1327 0
306 116 37 1328 0
-270 286 136 1329 0
-281 429 -461 1330 0
126 151 -426 1331 0
-404 87 -120 1332 0
-146 -283 159 1333 0
-468 -484 -310 1334 0
17 349 -445 1335 0
50 242 -438 1336 0
126 364 29 1337 0
-99 446 241 1338 0
-390 -209 384 1339 0
-448 -498 -354 1340 0
307 -310 -224 1341 0
-52 -409 -24 1342 0
-170 492 476 1343 0
54 -57 -429 1344 0
-50 -312 -176 1345 0
283 450 -235 1346 0
420 -348 -479 1347 0
-333 380 25 1348 0
-6 126 -308 1349 0
329 -474 -131 1350 0
-196 485 288 1351 0
-469 -31 -218 1352 0
-263 -187 414 1353 0
-268 -210 -180 1354 0
-341 -259 -479 1355 0
374 458 47 1356 0
-448 -263 -236 1357 0
117 382 -188 1358 0
26 436 -281 1359 0
-276 477 259 1360 0
-76 -186 -169 1361 0
-368 -198 500 1362 0
-130 -106 71 1363 0
-380 428 108 1364 0
-101 -235 407 1365 0
-127 67 -54 1366 0
465 290 340 1367 0
483 -438 100 1368 0
321 -261 -456 1369 0
162 491 -448 1370 0
258 342 -168 1371 0
-207 -466 475 1372 0
-299 115 -69 1373 0
-384 -83 202 1374 0
-447 -109 135 1375 0
269 -11 334 1376 0
-237 216 -211 1377 0
-394 62 -468 1378 0
-148 178 170 1379 0
-473 -176 202 1380 0
118 -336 -86 1381 0
160 -44 148 1382 0
-111 -384 185 1383 0
433 -71 383 1384 0
-415 370 332 1385 0
-180 174 -408 1386 0
489 -339 196 1387 0
54 202 -10 1388 0
-115 -287 -349 1389 0
443 -217 -444 1390 0
477 337 -216 1391 0
-33 -353 -11 1392 0
-116 -185 -315 1393 0
232 325 404 1394 0
121 369 -363 1395 0
491 -160 126 1396 0
483 -281 -246 1397 0
-220 180 299 1398 0
335 210 439 1399 0
318 -362 148 1400 0
168 179 372 1401 0
-418 48 351 1402 0
-216 476 -146 1403 0
-249 254 197 1404 0
199 -253 370 1405 0
374 -405 -349 1406 0
-261 440 -281 1407 0
-301 496 -43 1408 0
282 250 494 1409 0
351 418 -297 1410 0
-182 236 262 1411 0
-323 -376 52 1412 0
383 306 391 1413 0
394 47 -144 1414 0
226 346 -462 1415 0
284 -461 120 1416 0
-250 350 141 1417 0
-374 -49 104 1418 0
196 -56 -155 1419 0
205 66 -120 1420 0
-495 257 -403 1421 0
280 -89 482 1422 0
-80 -97 -265 1423 0
-380 -31 326 1424 0
-216 446 43 1425 0
274 -368 -39 1426 0
-497 89 -422 1427 0
381 -318 -23 1428 0
213 44 -475 1429 0
210 476 -121 1430 0
359 224 421 1431 0
223 -429 -441 1432 0
391 -151 -19 1433 0
103 -252 -403 1434 0
277 334 346 1435 0
-36 -87 363 1436 0
-31 -477 422 1437 0
252 -323 492 1438 0
394 -207 -126 1439 0
-62 500 -139 1440 0
447 203 -373 1441 0
357 422 -447 1442 0
-145 -194 -248 1443 0
102 54 -399 1444 0
-361 -256 -32 1445 0
392 269 254 1446 0
114 243 198 1447 0
380 -278 -114 1448 0
-19 430 -235 1449 0
286 180 196 1450 0
-243 283 495 1451 0
1 460 220 1452 0
-462 -205 -306 1453 0
-226 104 79 1454 0
-490 125 -287 1455 0
282 -25 -183 1456 0
71 166 -176 1457 0
497 319 -26 1458 0
-254 -159 171 1459 0
-24 -166 -294 1460 0
263 -369 98 1461 0
358 -456 291 1462 0
94 -68 -132 1463 0
499 -468 -322 1464 0
-442 -481 294 1465 0
-292 143 106 1466 0
-255 -456 488 1467 0
-377 407 176 1468 0
-394 441 -157 1469 0
-436 -122 -435 1470 0
-117 228 -1 1471 0
-223 186 -138 1472 0
353 126 -342 1473 0
-116 -498 -351 1474 0
254 337 475 1475 0
292 440 34 1476 0
-409 264 -121 1477 0
147 -408 15 1478 0
149 13 -115 1479 0
393 437 27 1480 0
-354 307 291 1481 0
-178 -84 -83 1482 0
186 96 196 1483 0
-42 -348 -451 1484 0
-6 350 -139 1485 0
475 -488 25 1486 0
388 193 50 1487 0
404 85 -21 1488 0
138 405 -47 1489 0
-316 317 213 1490 0
-407 243 461 1491 0
-264 156 258 1492 0
454 29 -34 1493 0
-210 -438 -216 1494 0
-422 457 248 1495 0
296 -326 315 1496 0
106 329 -264 1497 0
390 -88 -7 1498 0
-469 -120 202 1499 0
-409 -289 76 1500 0
191 -87 -347 1501 0
329 -365 -342 1502 0
-358 496 131 1503 0
-398 483 -22 1504 0
-147 -286 -33 1505 0
102 -462 483 1506 0
306 -395 -173 1507 0
36 -471 -191 1508 0
467 261 183 1509 0
-461 359 -472 1510 0
-26 115 -71 1511 0
-449 299 384 1512 0
279 -167 -205 1513 0
-64 38 120 1514 0
-315 -260 421 1515 0
277 -262 -21 1516 0
-159 -174 183 1517 0
389 177 -263 1518 0
357 480 -112 1519 0
141 152 275 1520 0
-289 -313 212 1521 0
18 211 374 1522 0
-358 -60 -87 1523 0
-436 -271 -471 1524 0
-192 -167 -185 1525 0
381 353 -126 1526 0
480 244 -29 1527 0
470 -190 221 1528 0
366 -22 348 1529 0
-269 -223 -116 1530 0
253 -368 -45 1531 0
-148 -90 -209 1532 0
-479 -111 338 1533 0
-419 69 215 1534 0
-349 -143 234 1535 0
-236 -287 459 1536 0
463 390 -112 1537 0
354 276 106 1538 0
-367 180 -178 1539 0
207 -491 243 1540 0
-94 203 323 1541 0
111 433 59 1542 0
220 76 241 1543 0
244 -182 -423 1544 0
-281 -374 -249 1545 0
-152 83 413 1546 0
-259 -243 33 1547 0
447 244 85 1548 0
-252 -453 121 1549 0
-467 478 -253 1550 0
249 -429 116 1551 0
461 -253 454 1552 0
-62 -34 279 1553 0
-123 213 -449 1554 0
-19 458 117 1555 0
189 -170 325 1556 0
471 -125 -386 1557 0
-375 -464 114 1558 0
-317 282 -301 1559 0
37 172 273 1560 0
357 388 104 1561 0
318 268 -65 1562 0
235 -58 -329 1563 0
-14 169 268 1564 0
196 -160 259 1565 0
470 182 -185 1566 0
314 -387 480 1567 0
63 -443 -331 1568 0
456 140 -371 1569 0
235 443 -36 1570 0
262 77 195 1571 0
-463 -206 26 1572 0
-79 -456 114 1573 0
378 463 193 1574 0
366 370 -210 1575 0
113 -451 -246 1576 0
61 -371 -281 1577 0
381 -16 115 1578 0
-30 -10 -360 1579 0
-364 -39 283 1580 0
475 248 310 1581 0
172 -460 108 1582 0
-210 158 37 1583 0
312 -102 319 1584 0
-109 52 339 1585 0
-301 187 185 1586 0
-74 -258 189 1587 0
-81 393 -198 1588 0
195 -298 -353 1589 0
132 -465 -44 1590 0
127 475 467 1591 0
-336 175 -340 1592 0
356 433 -6 1593 0
-284 194 84 1594 0
102 -55 445 1595 0
417 431 153 1596 0
479 140 492 1597 0
12 -209 106 1598 0
-396 -118 -340 1599 0
482 -497 81 1600 0
329 -422 -415 1601 0
385 419 291 1602 0
-313 -240 449 1603 0
247 -10 108 1604 0
312 -243 13 1605 0
291 -491 427 1606 0
-284 297 77 1607 0
439 -6 303 1608 0
-147 -208 -96 1609 0
-102 -23 -177 1610 0
372 160 -49 1611 0
404 17 -70 1612 0
405 -485 308 1613 0
280 22 359 1614 0
-484 -376 -186 1615 0
279 354 57 1616 0
-254 -393 -282 1617 0
-202 419 182 1618 0
-112 474 48 1619 0
-418 -444 61 1620 0
-75 109 490 1621 0
409 363 102 1622 0
225 134 274 1623 0
414 442 217 1624 0
-213 76 -7 1625 0
206 492 108 1626 0
287 209 -168 1627 0
336 -225 495 1628 0
351 -155 267 1629 0
-276 446 -104 1630 0
263 295 -273 1631 0
-385 63 -391 1632 0
-51 -451 345 1633 0
-389 379 -116 1634 0
437 413 210 1635 0
-148 192 351 1636 0
471 126 456 1637 0
141 11 322 1638 0
-195 249 -273 1639 0
-11 -455 73 1640 0
384 194 165 1641 0
-1 -22 -314 1642 0
349 402 -260 1643 0
427 -416 66 1644 0
-149 -145 490 1645 0
268 91 -84 1646 0
-52 278 -451 1647 0
-178 -418 -78 1648 0
-21 -75 -200 1649 0
337 -262 150 1650 0
214 274 -218 1651 0
263 -383 -13 1652 0
317 427 316 1653 0
389 -406 -68 1654 0
410 -318 1 1655 0
-189 407 371 1656 0
-3 -151 120 1657 0
467 -498 -137 1658 0
-300 -229 -212 1659 0
130 -485 364 1660 0
-163 378 -346 1661 0
-152 -109 -390 1662 0
-21 -408 -54 1663 0
-333 24 25 1664 0
-272 389 197 1665 0
234 -97 -179 1666 0
-191 408 -230 1667 0
-181 266 -73 1668 0
170 -167 8 1669 0
382 350 366 1670 0
133 245 -430 1671 0
-255 431 66 1672 0
-409 -177 -383 1673 0
165 -497 -79 1674 0
291 189 -312 1675 0
-440 -151 -341 1676 0
-170 -248 -119 1677 0
4 463 62 1678 0
-210 23 66 1679 0
-157 485 -450 1680 0
-50 -94 451 1681 0
383 33 239 1682 0
-170 252 273 1683 0
56 -374 128 1684 0
-350 -131 496 1685 0
-354 437 -19 1686 0
-45 466 -298 1687 0
-192 202 152 1688 0
15 -433 -252 1689 0
-445 -125 106 1690 0
466 318 -439 1691 0
-52 -46 278 1692 0
-210 54 336 1693 0
475 -27 -288 1694 0
15 157 -46 1695 0
446 20 379 1696 0
-468 466 -54 1697 0
-349 227 -1 1698 0
58 10 -73 1699 0
-67 -193 401 1700 0
295 -284 380 1701 0
-457 464 114 1702 0
-170 463 97 1703 0
-364 319 59 1704 0
328 311 224 1705 0
216 -461 397 1706 0
-329 500 -434 1707 0
319 -277 -74 1708 0
450 7 65 1709 0
-350 -78 -198 1710 0
438 -55 -251 1711 0
-187 310 -476 1712 0
210 259 494 1713 0
381 210 -199 1714 0
118 86 229 1715 0
-468 380 77 1716 0
356 -457 -482 1717 0
-220 -271 -17 1718 0
428 -67 404 1719 0
490 139 280 1720 0
-185 -112 431 1721 0
81 204 -320 1722 0
110 -285 364 1723 0
-161 -305 77 1724 0
283 -319 256 1725 0
442 420 353 1726 0
278 341 -119 1727 0
73 -410 38 1728 0
281 -154 -396 1729 0
-297 -60 427 1730 0
426 365 -142 1731 0
246 -327 62 1732 0
-288 -116 192 1733 0
-444 -384 -400 1734 0
478 259 164 1735 0
-499 58 12 1736 0
-40 -4 464 1737 0
212 308 379 1738 0
455 289 -89 1739 0
-305 100 106 1740 0
64 -86 317 1741 0
444 454 -79 1742 0
-192 3 282 1743 0
-445 438 -241 1744 0
-363 -142 269 1745 0
-383 316 -339 1746 0
-161 -354 -305 1747 0
133 -132 199 1748 0
-398 -216 261 1749 0
57 123 136 1750 0
-362 404 2 1751 0
-218 -90 -322 1752 0
273 -488 435 1753 0
400 2 141 1754 0
-88 82 -251 1755 0
166 362 108 1756 0
98 232 -168 1757 0
-147 -141 459 1758 0
214 -489 -64 1759 0
483 352 -34 1760 0
435 390 -308 1761 0
-276 -488 -251 1762 0
-365 174 482 1763 0
-400 -241 17 1764 0
258 -26 -210 1765 0
-160 -127 -390 1766 0
53 -331 18 1767 0
13 354 -81 1768 0
-45 71 -402 1769 0
33 313 200 1770 0
-145 -109 356 1771 0
-309 230 347 1772 0
-290 364 460 1773 0
493 233 -386 1774 0
179 -6 -84 1775 0
81 51 161 1776 0
318 -113 -103 1777 0
-469 -395 -311 1778 0
410 -329 -243 1779 0
90 -367 85 1780 0
-249 -110 447 1781 0
-481 364 162 1782 0
-129 327 248 1783 0
-369 -434 -79 1784 0
-162 -287 -467 1785 0
100 -122 273 1786 0
295 -384 -146 1787 0
-235 -305 -143 1788 0
-160 -14 389 1789 0
-329 16 271 1790 0
-50 115 -188 1791 0
394 -272 472 1792 0
242 -470 256 1793 0
-268 279 251 1794 0
350 170 -390 1795 0
335 368 150 1796 0
-394 344 -219 1797 0
-184 -255 319 1798 0
116 184 300 1799 0
69 -267 367 1800 0
451 -422 -171 1801 0
-38 -491 452 1802 0
32 -130 -70 1803 0
33 -270 -402 1804 0
473 469 -371 1805 0
23 5 307 1806 0
-171 118 -263 1807 0
322 -287 -329 1808 0
282 321 -39 1809 0
36 -336 284 1810 0
477 123 164 1811 0
-182 -172 -388 1812 0
-360 -384 123 1813 0
32 10 420 1814 0
487 -258 -200 1815 0
65 338 264 1816 0
-98 279 -463 1817 0
226 -108 491 1818 0
-183 -205 170 1819 0
458 -138 -99 1820 0
231 -499 383 1821 0
142 -251 243 1822 0
331 -120 -367 1823 0
279 -384 243 1824 0
4 498 74 1825 0
-349 260 -372 1826 0
-322 83 -43 1827 0
451 45 -319 1828 0
309 425 -162 1829 0
29 161 -305 1830 0
-46 -471 -57 1831 0
492 82 478 1832 0
-85 377 284 1833 0
368 117 134 1834 0
384 73 -484 1835 0
226 81 365 1836 0
154 223 -101 1837 0
15 148 -472 1838 0
331 -289 -133 1839 0
-216 -304 -28 1840 0
-40 442 -69 1841 0
281 192 -150 1842 0
210 473 245 1843 0
-433 -372 163 1844 0
-344 365 361 1845 0
-272 -215 452 1846 0
-196 97 -342 1847 0
450 175 -83 1848 0
330 -484 36 1849 0
184 -125 -422 1850 0
-202 244 -243 1851 0
-266 -164 -402 1852 0
147 75 454 1853 0
140 233 -312 1854 0
419 -18 -82 1855 0
451 -141 -6 1856 0
-460 170 302 1857 0
-16 23 469 1858 0
-165 304 -214 1859 0
-205 -442 409 1860 0
357 -485 -478 1861 0
411 387 -108 1862 0
271 497 -332 1863 0
418 -97 -105 1864 0
67 -261 -233 1865 0
-358 -83 227 1866 0
97 -311 395 1867 0
302 -178 368 1868 0
306 6 -191 1869 0
-261 -211 306 1870 0
-345 438 217 1871 0
-123 -224 -133 1872 0
-36 139 331 1873 0
-78 -8 32 1874 0
-32 355 -230 1875 0
321 258 352 1876 0
-341 375 465 1877 0
-169 -272 -158 1878 0
-356 -481 311 1879 0
306 208 -466 1880 0
88 -226 -163 1881 0
-480 460 56 1882 0
-21 -44 58 1883 0
430 180 -237 1884 0
-234 446 458 1885 0
208 -314 472 1886 0
-422 -43 -434 1887 0
-480 -416 -114 1888 0
-141 321 430 1889 0
234 -235 366 1890 0
51 -118 -496 1891 0
-293 -433 -96 1892 0
389 341 253 1893 0
100 -116 236 1894 0
-214 -164 -358 1895 0
120 52 -111 1896 0
327 -350 -213 1897 0
-33 159 420 1898 0
84 -322 252 1899 0
288 108 271 1900 0
-6 304 87 1901 0
-150 496 164 1902 0
2 -490 474 1903 0
128 -165 485 1904 0
105 417 -130 1905 0
421 -272 342 1906 0
446 340 81 1907 0
-390 -324 2 1908 0
464 86 -108 1909 0
-120 -394 -88 1910 0
-125 -141 -394 1911 0
-367 427 -351 1912 0
195 -252 -100 1913 0
-240 -431 -263 1914 0
-368 100 -442 1915 0
224 498 36 1916 0
37 448 -154 1917 0
-112 490 -263 1918 0
-473 -440 -114 1919 0
-374 141 160 1920 0
59 500 -302 1921 0
64 -315 -158 1922 0
121 471 -279 1923 0
-169 -249 -198 1924 0
-414 -231 412 1925 0
422 -299 -354 1926 0
233 232 443 1927 0
-183 -340 -271 1928 0
386 25 408 1929 0
-382 -204 -387 1930 0
59 -19 -247 1931 0
301 426 436 1932 0
-95 -7 -288 1933 0
171 141 -219 1934 0
-472 249 -251 1935 0
452 244 -81 1936 0
-461 92 -266 1937 0
-327 -144 -232 1938 0
-73 -162 331 1939 0
-371 -284 -337 1940 0
60 -261 -340 1941 0
232 464 11 1942 0
-34 -428 439 1943 0
-380 422 -102 1944 0
419 458 -259 1945 0
442 487 13 1946 0
201 123 311 1947 0
5 456 -14 1948 0
-276 382 -397 1949 0
254 122 500 1950 0
388 74 -142 1951 0
-179 -186 249 1952 0
17 185 213 1953 0
132 29 79 1954 0
337 -357 -102 1955 0
449 -174 45 1956 0
-25 203 460 1957 0
-412 399 382 1958 0
351 -467 329 1959 0
240 154 -395 1960 0
137 -108 113 1961 0
-91 258 -494 1962 0
340 -433 -47 1963 0
269 -411 -306 1964 0
-309 124 49 1965 0
-46 -34 -487 1966 0
148 -334 470 1967 0
409 105 -396 1968 0
239 47 -481 1969 0
135 166 240 1970 0
-299 -29 446 1971 0
-119 243 -213 1972 0
302 -273 268 1973 0
104 466 -377 1974 0
367 248 -152 1975 0
486 -414 294 1976 0
391 46 -84 1977 0
-461 304 331 1978 0
332 -457 201 1979 0
-379 263 -431 1980 0
287 -320 -215 1981 0
-212 -116 -449 1982 0
460 -35 365 1983 0
495 237 -379 1984 0
356 205 -391 1985 0
369 112 360 1986 0
-223 -385 -428 1987 0
114 -102 12 1988 0
74 -470 -228 1989 0
476 340 319 1990 0
209 306 110 1991 0
-271 33 -450 1992 0
-186 415 -205 1993 0
-493 -33 211 1994 0
306 11 -199 1995 0
-35 20 196 1996 0
-326 306 -300 1997 0
-123 -207 15 1998 0
-155 -82 -192 1999 0
186 307 -426 2000 0
-231 18 -139 2001 0
-104 194 -167 2002 0
-448 -378 1 2003 0
-474 -328 -351 2004 0
-339 189 446 2005 0
-50 78 -59 2006 0
444 -136 -381 2007 0
16 -493 455 2008 0
326 -391 90 2009 0
173 151 -221 2010 0
-212 303 175 2011 0
-78 -355 23 2012 0
-75 342 -279 2013 0
254 -264 198 2014 0
-254 262 354 2015 0
-158 149 58 2016 0
-230 -479 -24 2017 0
219 425 -437 2018 0
-204 131 -412 2019 0
-283 229 -391 2020 0
46 103 -109 2021 0
-498 -415 295 2022 0
236 110 -276 2023 0
-156 162 269 2024 0
2 25 -402 2025 0
402 87 -150 2026 0
182 -60 478 2027 0
-147 -127 -120 2028 0
435 481 301 2029 0
135 -381 170 2030 0
196 355 244 2031 0
-47 327 -208 2032 0
370 -75 259 2033 0
-126 190 -241 2034 0
-158 368 -383 2035 0
49 341 -476 2036 0
46 474 301 2037 0
396 -320 497 2038 0
397 -323 -252 2039 0
68 151 -248 2040 0
325 -497 -472 2041 0
-417 366 -352 2042 0
-130 -409 25 2043 0
243 -92 226 2044 0
100 362 -139 2045 0
35 382 -243 2046 0
403 266 171 2047 0
-55 -39 193 2048 0
385 30 334 2049 0
138 -225 50 2050 0
52 309 -452 2051 0
365 -176 481 2052 0
286 -205 117 2053 0
205 -437 -401 2054 0
-183 242 -47 2055 0
-439 -101 -477 2056 0
-487 -194 -151 2057 0
-79 -34 -127 2058 0
299 -492 -432 2059 0
-395 304 87 2060 0
339 -76 -332 2061 0
-312 -365 492 2062 0
380 -296 137 2063 0
400 -18 98 2064 0
57 -386 243 2065 0
95 498 141 2066 0
-123 97 235 2067 0
415 -367 327 2068 0
-326 397 462 2069 0
-44 -128 259 2070 0
-290 298 -385 2071 0
15 212 244 2072 0
-377 -36 -179 2073 0
-431 111 -368 2074 0
143 303 -130 2075 0
89 145 93 2076 0
451 442 -428 2077 0
-64 -376 54 2078 0
-244 384 499 2079 0
87 386 128 2080 0
-218 -368 -1 2081 0
-203 217 256 2082 0
-239 -493 -51 2083 0
-421 315 -335 2084 0
-359 430 -123 2085 0
67 -251 94 2086 0
-133 227 -159 2087 0
-369 -149 -8 2088 0
-12 -190 -484 2089 0
-430 117 -28 2090 0
-392 -462 268 2091 0
-128 -245 13 2092 0
409 -399 442 2093 0
104 -278 -446 2094 0
-62 498 245 2095 0
-318 15 -131 2096 0
-421 318 -144 2097 0
-139 -206 82 2098 0
-310 345 391 2099 0
30 427 276 2100 0
-394 498 -113 2101 0
-1 455 -45 2102 0
-118 74 -126 2103 0
-277 -351 7 2104 0
249 421 454 2105 0
384 349 223 2106 0
-399 -73 156 2107 0
-373 467 55 2108 0
-16 -199 -25 2109 0
381 82 -7 2110 0
-115 6 -269 2111 0
454 93 10 2112 0
-323 101 429 2113 0
116 93 349 2114 0
-355 182 315 2115 0
350 -45 371 2116 0
357 -253 -68 2117 0
249 142 -483 2118 0
-102 -478 92 2119 0
93 435 -291 2120 0
434 -484 -384 2121 0
312 145 311 2122 0
-476 -421 223 2123 0
465 -366 -167 2124 0
259 -137 -260 2125 0
110 468 -181 2126 0
367 380 119 2127 0
-228 -43 -318 2128 0
339 162 175 2129 0
-121 -500 -449 2130 0
-74 -225 -85 2131 0
-184 -251 -197 2132 0
-489 170 -237 2133 0
193 -276 191 2134 0
-33 -314 334 2135 0
155 -158 380 2136 0
-223 -446 -428 2137 0
-143 -281 271 2138 0
423 -336 381 2139 0
-334 124 -94 2140 0
-203 -140 -319 2141 0
-197 -314 -256 2142 0
117 -121 -21 2143 0
125 -36 389 2144 0
-483 -83 -265 2145 0
81 -363 313 2146 0
-287 -359 209 2147 0
158 3 -54 2148 0
37 -59 65 2149 0
438 185 -307 2150 0
-480 -434 -49 2151 0
-73 -273 -11 2152 0
-50 368 -277 2153 0
-284 383 -364 2154 0
-402 -29 -430 2155 0
-393 419 -187 2156 0
-112 -406 -207 2157 0
45 62 435 2158 0
427 -371 496 2159 0
-96 31 -73 2160 0
112 379 53 2161 0
324 -374 -180 2162 0
387 -284 152 2163 0
-273 -374 -108 2164 0
-238 48 462 2165 0
140 -185 109 2166 0
454 478 214 2167 0
361 -330 438 2168 0
93 111 282 2169 0
490 -156 180 2170 0
192 278 -324 2171 0
373 -9 143 2172 0
-318 -9 426 2173 0
-494 -418 -52 2174 0
-181 258 238 2175 0
-182 -164 -270 2176 0
183 -268 -248 2177 0
-286 155 -449 2178 0
-152 101 409 2179 0
58 -247 186 2180 0
406 -402 -103 2181 0
367 -238 381 2182 0
-13 7 -110 2183 0
322 -203 -374 2184 0
-14 -22 -383 2185 0
-415 -475 -379 2186 0
171 -253 -158 2187 0
-432 -381 215 2188 0
-406 -103 107 2189 0
-100 333 167 2190 0
-260 379 -386 2191 0
-240 168 -280 2192 0
289 -147 -221 2193 0
291 90 129 2194 0
171 -266 -500 2195 0
270 429 273 2196 0
278 18 -228 2197 0
361 -194 71 2198 0
-232 55 135 2199 0
-74 18 436 2200 0
-320 462 94 2201 0
477 140 -21 2202 0
-477 147 -130 2203 0
-387 -23 -108 2204 0
333 412 45 2205 0
-377 -472 -164 2206 0
-316 -322 147 2207 0
237 -283 83 2208 0
-497 -202 13 2209 0
-380 237 -350 2210 0
219 259 -482 2211 0
-426 14 -428 2212 0
-141 -40 272 2213 0
-445 91 -234 2214 0
151 -317 -458 2215 0
-135 -273 193 2216 0
465 487 218 2217 0
-226 35 -255 2218 0
-408 452 54 2219 0
379 378 254 2220 0
165 -441 412 2221 0
102 -205 -429 2222 0
-7 61 -343 2223 0
242 163 402 2224 0
19 -326 179 2225 0
-51 -201 -361 2226 0
69 449 145 2227 0
-37 43 -305 2228 0
-228 114 199 2229 0
-443 -475 13 2230 0
-129 83 -85 2231 0
-190 93 -234 2232 0
-222 428 -220 2233 0
333 194 371 2234 0
52 -463 192 2235 0
-299 23 33 2236 0
153 -232 284 2237 0
-145 -287 -429 2238 0
146 -349 -273 2239 0
-2 458 364 2240 0
-348 -279 -131 2241 0
442 381 394 2242 0
-285 224 219 2243 0
-325 -121 459 2244 0
264 192 183 2245 0
-40 201 -227 2246 0
-374 408 -353 2247 0
243 402 -357 2248 0
314 -12 -128 2249 0
157 -360 -263 2250 0
309 -357 132 2251 0
-447 -16 -219 2252 0
-183 485 -68 2253 0
-315 179 -64 2254 0
-105 433 -17 2255 0
-338 404 436 2256 0
-460 321 454 2257 0
29 142 322 2258 0
-265 150 169 2259 0
-235 419 -473 2260 0
-317 -315 -174 2261 0
124 411 -24 2262 0
-91 66 303 2263 0
-369 205 48 2264 0
-280 355 -48 2265 0
483 -198 -55 2266 0
210 -59 -471 2267 0
226 362 -246 2268 0
88 -6 395 2269 0
356 437 -479 2270 0
-360 -60 144 2271 0
-211 -407 -10 2272 0
148 68 46 2273 0
-10 89 -153 2274 0
-200 56 -239 2275 0
-268 286 198 2276 0
156 -154 420 2277 0
-292 -237 -43 2278 0
-363 -248 -36 2279 0
-193 432 -283 2280 0
313 -79 -427 2281 0
-351 -231 181 2282 0
-223 285 -69 2283 0
-131 -157 332 2284 0
47 159 261 2285 0
219 461 -449 2286 0
67 363 435 2287 0
-88 309 -276 2288 0
-267 -418 -380 2289 0
-309 -213 226 2290 0
65 192 72 2291 0
-380 179 -67 2292 0
45 -88 -413 2293 0
-282 219 413 2294 0
78 221 -295 2295 0
320 -341 58 2296 0
410 -259 331 2297 0
49 357 -251 2298 0
500 337 190 2299 0
-485 -56 403 2300 0
-443 104 232 2301 0
9 -294 -59 2302 0
-144 36 358 2303 0
422 278 -41 2304 0
-410 -4 -190 2305 0
-426 363 -96 2306 0
-181 455 334 2307 0
19 255 137 2308 0
383 174 -275 2309 0
27 451 177 2310 0
92 326 406 2311 0
-346 49 319 2312 0
-285 243 -59 2313 0
370 -134 26 2314 0
-193 -177 178 2315 0
-420 202 259 2316 0
-96 252 33 2317 0
430 -365 -294 2318 0
-236 -99 -265 2319 0
272 -494 -158 2320 0
-156 482 -404 2321 0
361 -321 462 2322 0
-7 -31 409 2323 0
-313 30 -213 2324 0
-347 256 308 2325 0
217 -424 -84 2326 0
146 -415 426 2327 0
-174 -497 -77 2328 0
-255 -262 68 2329 0
-426 -167 17 2330 0
355 21 -322 2331 0
133 -269 -98 2332 0
204 450 -407 2333 0
287 311 265 2334 0
-299 86 -445 2335 0
27 -244 232 2336 0
226 -224 -483 2337 0
-300 -26 81 2338 0
-200 395 107 2339 0
81 268 -278 2340 0
16 237 -101 2341 0
474 374 440 2342 0
242 -338 -51 2343 0
47 -342 227 2344 0
166 301 247 2345 0
-217 467 -24 2346 0
-221 106 -484 2347 0
-407 -409 -25 2348 0
-149 -109 -103 2349 0
423 -168 186 2350 0
-160 364 177 2351 0
-351 433 -338 2352 0
239 432 185 2353 0
99 453 138 2354 0
-439 -146 -211 2355 0
264 -42 -171 2356 0
441 437 419 2357 0
-137 -92 149 2358 0
-29 126 -181 2359 0
-262 -325 390 2360 0
-259 -455 -340 2361 0
-364 -382 -339 2362 0
468 -119 179 2363 0
78 469 -444 2364 0
436 -298 -243 2365 0
117 -337 463 2366 0
-287 291 292 2367 0
146 -75 -135 2368 0
78 -473 -420 2369 0
316 191 -371 2370 0
-117 424 406 2371 0
-390 -274 280 2372 0
-179 411 -201 2373 0
-170 -448 461 2374 0
-286 -334 178 2375 0
308 -155 234 2376 0
452 -386 326 2377 0
-488 420 69 2378 0
279 -427 -17 2379 0
232 27 202 2380 0
-271 -13 -120 2381 0
-477 366 -92 2382 0
-157 -126 148 2383 0
364 369 164 2384 0
-103 340 -242 2385 0
440 221 -160 2386 0
-365 -287 -240 2387 0
286 -98 82 2388 0
-391 -484 -363 2389 0
-90 -77 426 2390 0
259 18 -454 2391 0
177 -391 -73 2392 0
-22 -46 61 2393 0
139 -240 -45 2394 0
261 -21 154 2395 0
162 -296 351 2396 0
340 -469 -159 2397 0
-96 -474 29 2398 0
362 485 -162 2399 0
-193 -100 -493 2400 0
-9 -433 -427 2401 0
124 32 -52 2402 0
-366 76 360 2403 0
-337 -179 -15 2404 0
-25 497 92 2405 0
-82 -24 -326 2406 0
169 -94 395 2407 0
276 -476 296 2408 0
-465 -160 -311 2409 0
18 -229 309 2410 0
355 -372 351 2411 0
387 454 175 2412 0
98 -442 204 2413 0
33 -189 284 2414 0
-199 -175 454 2415 0
245 185 -35 2416 0
-41 -294 -258 2417 0
372 -5 457 2418 0
-165 46 -480 2419 0
-246 333 -179 2420 0
167 -118 5 2421 0
-283 -367 202 2422 0
-471 84 -27 2423 0
280 112 -207 2424 0
236 -141 138 2425 0
-14 -327 -292 2426 0
-471 -280 -286 2427 0
-242 -21 261 2428 0
-350 100 179 2429 0
-412 -16 -181 2430 0
157 -6 318 2431 0
-142 199 -425 2432 0
-242 -227 -433 2433 0
346 434 -137 2434 0
229 46 373 2435 0
21 -283 253 2436 0
221 -415 -204 2437 0
-492 448 18 2438 0
-30 -357 -292 2439 0
-419 55 427 2440 0
291 -447 -60 2441 0
-216 -206 -249 2442 0
-320 186 216 2443 0
-160 345 243 2444 0
-7 -154 -309 2445 0
119 -248 -244 2446 0
-19 -426 -161 2447 0
-325 -209 73 2448 0
377 -44 485 2449 0
96 203 -39 2450 0
-483 -58 115 2451 0
-247 -340 43 2452 0
-478 -53 -231 2453 0
-288 352 414 2454 0
-46 268 184 2455 0
350 28 -13 2456 0
-186 -85 -170 2457 0
-29 42 -123 2458 0
-163 -289 322 2459 0
-300 -464 -465 2460 0
66 361 -137 2461 0
368 -10 -101 2462 0
93 -232 -139 2463 0
359 -479 72 2464 0
205 419 -350 2465 0
263 277 -63 2466 0
380 262 -413 2467 0
4 405 211 2468 0
440 -188 17 2469 0
-356 298 -361 2470 0
145 -284 -144 2471 0
40 -379 359 2472 0
188 60 -204 2473 0
485 201 184 2474 0
176 260 317 2475 0
217 -63 151 2476 0
-97 -21 126 2477 0
179 404 -402 2478 0
152 346 -49 2479 0
353 204 -332 2480 0
-33 61 74 2481 0
-1 194 -180 2482 0
191 68 170 2483 0
-475 -366 73 2484 0
-422 -495 -428 2485 0
-70 -88 -333 2486 0
146 296 -61 2487 0
-315 10 456 2488 0
3 -225 -331 2489 0
60 -4 202 2490 0
486 136 -151 2491 0
-472 -121 -416 2492 0
189 375 448 2493 0
59 -143 252 2494 0
243 -25 -342 2495 0
-19 -421 -206 2496 0
-348 27 -357 2497 0
33 155 -160 2498 0
-302 425 -282 2499 0
426 103 69 2500 0
328 -396 -335 2501 0
-56 129 -30 2502 0
-367 489 176 2503 0
97 382 -59 2504 0
-199 -183 -443 2505 0
-60 -124 225 2506 0
-185 220 -18 2507 0
-455 238 58 2508 0
-373 -35 -301 2509 0
441 -456 178 2510 0
403 -408 217 2511 0
460 -271 -367 2512 0
-272 66 -329 2513 0
254 344 -86 2514 0
336 34 33 2515 0
-302 -288 -235 2516 0
471 -446 381 2517 0
-292 -13 409 2518 0
-261 -239 -410 2519 0
-104 347 -358 2520 0
-366 -370 -102 2521 0
-488 87 -131 2522 0
169 -421 125 2523 0
218 -19 -49 2524 0
-316 93 -295 2525 0
-169 429 -430 2526 0
-271 123 -153 2527 0
-343 353 -62 2528 0
-467 -397 346 2529 0
57 -133 -186 2530 0
-59 -46 172 2531 0
-141 127 177 2532 0
364 -320 494 2533 0
49 -36 415 2534 0
478 -121 166 2535 0
-263 -428 -384 2536 0
278 170 267 2537 0
-200 468 -67 2538 0
-249 484 -81 2539 0
-299 457 -97 2540 0
-348 166 -90 2541 0
-481 97 -298 2542 0
444 185 -399 2543 0
-296 -291 209 2544 0
310 130 -250 2545 0
-360 -446 -356 2546 0
69 -223 -327 2547 0
309 185 498 2548 0
-404 -468 -44 2549 0
41 204 -370 2550 0
-46 182 -447 2551 0
-134 -286 -230 2552 0
-456 66 -135 2553 0
-250 -39 -195 2554 0
123 168 -3 2555 0
-133 261 -215 2556 0
-3 332 -334 2557 0
20 22 270 2558 0
270 452 -184 2559 0
-347 251 456 2560 0
-486 -391 176 2561 0
-231 -445 370 2562 0
-12 -59 -32 2563 0
306 339 -167 2564 0
6 -9 -427 2565 0
-302 -13 30 2566 0
50 493 442 2567 0
-216 455 -470 2568 0
-155 75 -467 2569 0
-139 -336 245 2570 0
-214 -413 159 2571 0
198 -209 489 2572 0
351 -384 429 2573 0
265 -23 398 2574 0
-180 25 85 2575 0
-272 -287 -94 2576 0
88 315 -441 2577 0
180 304 62 2578 0
153 -155 331 2579 0
169 486 -57 2580 0
473 -226 -89 2581 0
199 455 376 2582 0
-433 316 408 2583 0
-332 -191 276 2584 0
-146 56 -263 2585 0
-74 -468 293 2586 0
425 210 -453 2587 0
459 444 311 2588 0
-168 217 -81 2589 0
-160 -466 122 2590 0
-242 -317 -70 2591 0
187 466 -23 2592 0
170 -151 404 2593 0
217 -143 -57 2594 0
47 448 -54 2595 0
263 331 -82 2596 0
-263 -376 112 2597 0
-151 -198 -319 2598 0
-353 -254 11 2599 0
279 471 -339 2600 0
60 -275 424 2601 0
316 210 -225 2602 0
498 -1 402 2603 0
235 -372 366 2604 0
-17 280 -233 2605 0
195 294 381 2606 0
-408 130 -36 2607 0
455 -352 288 2608 0
-138 391 -87 2609 0
82 -116 463 2610 0
419 285 252 2611 0
-477 209 273 2612 0
253 470 -200 2613 0
-121 -8 -262 2614 0
-126 50 -115 2615 0
-382 452 -120 2616 0
-75 -245 273 2617 0
382 469 -438 2618 0
-286 474 -462 2619 0
7 -145 -412 2620 0
-244 -335 62 2621 0
-436 211 295 2622 0
483 425 -141 2623 0
-308 171 -82 2624 0
111 453 -337 2625 0
-492 -168 -217 2626 0
148 -77 -393 2627 0
170 -299 -52 2628 0
183 -154 265 2629 0
-40 -188 -452 2630 0
412 -139 451 2631 0
-230 -239 14 2632 0
107 345 221 2633 0
-476 -94 -401 2634 0
88 -9 -446 2635 0
-45 47 -268 2636 0
415 -40 222 2637 0
-330 300 248 2638 0
-312 153 166 2639 0
249 335 -455 2640 0
-323 326 314 2641 0
-450 -425 438 2642 0
-1 336 -86 2643 0
490 -75 -59 2644 0
-17 143 361 2645 0
-390 14 267 2646 0
106 -63 479 2647 0
226 316 -328 2648 0
-284 139 230 2649 0
473 42 -373 2650 0
