p cnf 2650 2150
52 -236 -102 501 0
482 354 492 502 0
-358 55 -105 503 0
453 -469 136 504 0
-379 -27 340 505 0
223 203 365 506 0
-471 460 245 507 0
-385 271 68 508 0
-349 210 -294 509 0
-180 453 -1 510 0
-119 354 -321 511 0
32 -85 132 512 0
-70 -342 -467 513 0
-483 -473 -427 514 0
-322 -90 308 515 0
12 -152 71 516 0
400 -465 -167 517 0
-31 -467 410 518 0
-350 -413 -433 519 0
343 -121 70 520 0
-210 -445 -336 521 0
238 285 -153 522 0
-50 153 -276 523 0
23 248 -206 524 0
-468 -349 360 525 0
-131 -192 -138 526 0
182 286 -296 527 0
500 -362 299 528 0
-135 382 -231 529 0
93 -454 55 530 0
-150 402 221 531 0
-122 -386 -182 532 0
121 -331 497 533 0
-245 5 -308 534 0
-116 118 45 535 0
250 -316 397 536 0
136 92 -82 537 0
-481 -422 -38 538 0
-78 -417 77 539 0
-36 -461 402 540 0
405 48 422 541 0
-398 -42 -431 542 0
-499 53 -431 543 0
-310 -309 -343 544 0
256 407 500 545 0
385 131 410 546 0
-193 319 44 547 0
382 -160 302 548 0
-438 -48 419 549 0
-123 -118 -366 550 0
170 -317 243 551 0
135 -149 -421 552 0
55 27 195 553 0
59 222 -162 554 0
247 3 -94 555 0
233 111 138 556 0
117 489 449 557 0
-433 62 330 558 0
-394 -425 372 559 0
153 104 336 560 0
-420 357 260 561 0
-17 467 -128 562 0
-115 -365 -333 563 0
495 -129 432 564 0
-498 -449 97 565 0
105 -339 443 566 0
-111 -273 -33 567 0
-186 135 383 568 0
-460 428 -337 569 0
-281 -36 -402 570 0
-260 -393 404 571 0
500 70 -17 572 0
-257 -171 496 573 0
-168 327 131 574 0
-327 144 -393 575 0
111 478 183 576 0
-269 -75 -468 577 0
380 -351 453 578 0
-456 263 350 579 0
413 -358 4 580 0
159 -248 441 581 0
-433 408 -177 582 0
-185 -243 409 583 0
-333 257 -174 584 0
-360 -308 187 585 0
455 -42 130 586 0
350 -269 230 587 0
328 411 -409 588 0
-482 127 -255 589 0
-388 11 -367 590 0
-219 312 -372 591 0
459 -341 -225 592 0
-347 -14 -22 593 0
-194 -259 -12 594 0
-130 13 -482 595 0
469 67 -451 596 0
-141 420 -497 597 0
-398 -362 277 598 0
-423 -311 -375 599 0
-410 77 -9 600 0
-230 98 -282 601 0
-412 483 -219 602 0
-464 462 -349 603 0
467 385 -68 604 0
-301 -330 403 605 0
-182 448 -237 606 0
401 359 -340 607 0
-202 -364 77 608 0
-491 -38 -244 609 0
-119 130 -145 610 0
-302 -59 497 611 0
-466 -203 -58 612 0
-407 32 -435 613 0
-62 110 -441 614 0
-361 331 -456 615 0
100 293 461 616 0
-19 -410 -396 617 0
486 142 1 618 0
-187 -402 -348 619 0
463 202 141 620 0
-235 -444 469 621 0
419 -400 273 622 0
434 257 198 623 0
-118 392 -405 624 0
-386 -274 357 625 0
-250 162 20 626 0
-269 463 -278 627 0
-267 -363 -370 628 0
466 126 201 629 0
332 400 -12 630 0
185 -230 -246 631 0
-81 65 -478 632 0
244 -226 230 633 0
-178 79 -467 634 0
-342 -111 -341 635 0
401 -142 -194 636 0
188 -428 -273 637 0
-220 60 -409 638 0
167 -300 -143 639 0
-18 -171 -54 640 0
159 302 322 641 0
92 206 -139 642 0
399 16 53 643 0
378 -312 -63 644 0
-395 -136 -131 645 0
97 221 304 646 0
225 -258 -449 647 0
190 93 468 648 0
-77 -482 212 649 0
-29 438 462 650 0
-292 -377 -35 651 0
293 356 -450 652 0
421 -269 386 653 0
-419 -56 -108 654 0
55 127 196 655 0
325 -200 -80 656 0
109 -31 186 657 0
-287 20 74 658 0
-294 44 -436 659 0
131 -230 183 660 0
55 -432 -151 661 0
467 29 316 662 0
-497 -157 447 663 0
-172 68 473 664 0
-226 497 -376 665 0
213 -114 -169 666 0
-487 319 18 667 0
458 -467 -98 668 0
-103 -188 -233 669 0
-83 -476 146 670 0
-400 250 -95 671 0
-351 -41 -432 672 0
-463 -25 -449 673 0
246 -128 486 674 0
104 -285 -370 675 0
346 443 1 676 0
-246 377 260 677 0
132 305 -18 678 0
442 -116 -21 679 0
190 -387 -432 680 0
172 -62 -439 681 0
-259 -152 252 682 0
-128 -142 350 683 0
100 103 -113 684 0
106 -341 -177 685 0
-88 410 -148 686 0
-249 -145 -29 687 0
294 42 100 688 0
447 84 -415 689 0
-364 496 220 690 0
168 -431 175 691 0
462 474 311 692 0
130 -450 -17 693 0
106 116 345 694 0
-407 -341 287 695 0
352 -126 -449 696 0
171 -104 -174 697 0
98 -437 -195 698 0
-34 -391 108 699 0
-23 462 401 700 0
-34 131 282 701 0
-29 -31 440 702 0
-481 -369 -82 703 0
218 429 426 704 0
87 -481 163 705 0
-23 336 127 706 0
-354 -423 271 707 0
327 -358 148 708 0
-295 88 134 709 0
-499 -288 -307 710 0
-151 102 -131 711 0
-398 368 -353 712 0
351 361 266 713 0
-408 -131 339 714 0
-302 103 258 715 0
268 -384 -8 716 0
298 34 246 717 0
94 466 -348 718 0
-208 -30 -141 719 0
321 -488 -68 720 0
-241 57 -196 721 0
385 -83 -464 722 0
114 248 -266 723 0
-35 -44 -71 724 0
-203 -449 307 725 0
-86 -228 -339 726 0
-211 -174 -480 727 0
386 -149 135 728 0
447 -95 -225 729 0
48 249 134 730 0
342 -22 -190 731 0
251 -343 206 732 0
292 -102 -376 733 0
-383 498 -275 734 0
436 142 282 735 0
-243 340 -342 736 0
-91 203 -113 737 0
-396 300 392 738 0
447 -24 -254 739 0
104 156 244 740 0
-220 388 -5 741 0
77 -235 -194 742 0
41 -151 -216 743 0
-391 -131 -361 744 0
172 -438 -188 745 0
-77 146 -171 746 0
-322 450 -195 747 0
-492 448 -107 748 0
-129 -213 108 749 0
102 377 -69 750 0
37 -470 -98 751 0
-296 -468 337 752 0
420 416 -475 753 0
277 -262 -45 754 0
-113 400 -10 755 0
302 458 -455 756 0
282 99 -335 757 0
467 234 -266 758 0
266 64 315 759 0
-238 -387 -494 760 0
-284 378 361 761 0
-369 -323 -210 762 0
-271 -128 -299 763 0
252 1 -147 764 0
-62 -457 -350 765 0
202 446 428 766 0
-161 139 95 767 0
-164 115 304 768 0
-464 -291 412 769 0
142 319 365 770 0
460 -151 -296 771 0
-355 -149 -7 772 0
404 403 -86 773 0
-341 -40 -273 774 0
286 43 300 775 0
-268 335 -329 776 0
331 379 62 777 0
33 431 69 778 0
130 238 445 779 0
181 -85 -147 780 0
-288 290 393 781 0
-155 -488 210 782 0
103 146 -79 783 0
-456 66 198 784 0
-299 -95 115 785 0
19 403 157 786 0
-156 -429 -385 787 0
-275 -34 -287 788 0
115 313 -320 789 0
-194 -308 480 790 0
-458 378 480 791 0
105 92 -385 792 0
-328 28 86 793 0
325 -352 -473 794 0
-214 -482 -41 795 0
281 -210 -76 796 0
-99 94 342 797 0
-325 -14 477 798 0
-11 39 -346 799 0
-391 -161 -182 800 0
48 -243 438 801 0
480 171 276 802 0
229 312 -357 803 0
-473 244 -131 804 0
487 179 -383 805 0
-151 147 251 806 0
-228 -13 -207 807 0
326 -419 149 808 0
389 -377 -399 809 0
44 473 -152 810 0
-423 194 -425 811 0
469 373 -405 812 0
-457 20 -158 813 0
-239 -318 -354 814 0
49 466 471 815 0
262 296 256 816 0
62 58 13 817 0
-323 375 381 818 0
380 497 223 819 0
-412 -285 -334 820 0
334 -491 240 821 0
-407 478 469 822 0
453 145 -457 823 0
-221 210 461 824 0
297 -322 368 825 0
-21 300 463 826 0
475 -448 69 827 0
-321 111 351 828 0
201 -488 104 829 0
-432 78 -25 830 0
341 -277 32 831 0
-4 139 92 832 0
171 348 -191 833 0
185 -332 65 834 0
119 -314 423 835 0
-171 331 2 836 0
215 -240 290 837 0
-469 -299 241 838 0
266 -423 -21 839 0
457 120 -386 840 0
-473 -79 -87 841 0
117 480 333 842 0
-444 -214 -362 843 0
-250 354 177 844 0
-476 -494 197 845 0
12 -320 336 846 0
280 292 171 847 0
455 -130 -254 848 0
52 -37 306 849 0
211 40 -253 850 0
136 418 393 851 0
17 211 -116 852 0
83 451 -410 853 0
-126 -187 433 854 0
327 -86 162 855 0
242 192 167 856 0
194 182 -305 857 0
385 -27 158 858 0
-218 229 -108 859 0
29 -173 -319 860 0
-312 112 448 861 0
-154 102 -301 862 0
123 -453 -278 863 0
22 112 219 864 0
-25 280 191 865 0
425 -231 24 866 0
-409 305 431 867 0
-71 221 -301 868 0
31 197 216 869 0
149 35 91 870 0
-491 -292 93 871 0
273 -431 -44 872 0
-280 -48 89 873 0
-219 -378 -422 874 0
387 13 -486 875 0
182 -208 -387 876 0
-228 -487 143 877 0
182 32 -210 878 0
153 -290 -246 879 0
-246 -284 -367 880 0
-203 -150 417 881 0
80 -163 111 882 0
-424 182 335 883 0
-188 322 -251 884 0
15 370 14 885 0
-267 -461 -138 886 0
123 -257 391 887 0
-232 472 -55 888 0
480 381 469 889 0
-326 -275 466 890 0
-491 -131 40 891 0
213 74 -323 892 0
323 234 -31 893 0
-428 -303 -251 894 0
442 71 -67 895 0
-423 -411 -159 896 0
178 453 -466 897 0
422 328 -13 898 0
465 -102 -271 899 0
-328 312 288 900 0
169 -13 76 901 0
-412 -46 316 902 0
-58 216 -29 903 0
-106 -66 -330 904 0
-363 74 450 905 0
76 -12 -126 906 0
-376 -372 419 907 0
480 -399 -175 908 0
8 276 -360 909 0
-439 324 -195 910 0
-192 116 -105 911 0
257 424 224 912 0
278 2 -168 913 0
312 99 -105 914 0
393 230 -72 915 0
-84 493 86 916 0
366 109 423 917 0
-245 -233 225 918 0
402 438 57 919 0
-316 -223 -169 920 0
92 -213 -238 921 0
371 484 205 922 0
53 159 -94 923 0
205 330 362 924 0
-172 123 247 925 0
-343 -109 189 926 0
-428 -60 -13 927 0
268 223 218 928 0
-305 -443 410 929 0
-303 -208 -85 930 0
-316 -122 48 931 0
-323 158 -361 932 0
370 37 123 933 0
-73 119 -15 934 0
-224 -220 -471 935 0
-168 -101 176 936 0
-129 -477 294 937 0
-368 365 -411 938 0
-241 97 -72 939 0
281 -182 103 940 0
-133 -19 -304 941 0
188 162 -5 942 0
-194 422 375 943 0
191 -312 -185 944 0
-437 -79 -426 945 0
385 -226 138 946 0
222 169 78 947 0
-365 232 314 948 0
235 -182 419 949 0
408 313 -460 950 0
458 -220 -352 951 0
304 92 -208 952 0
-14 210 -103 953 0
-234 309 -446 954 0
281 -79 475 955 0
282 -328 373 956 0
263 -444 -371 957 0
-21 -402 -260 958 0
190 87 60 959 0
184 172 -3 960 0
-36 145 -183 961 0
-191 65 -261 962 0
-497 -407 11 963 0
434 346 -157 964 0
396 -448 -500 965 0
352 -370 72 966 0
218 101 -319 967 0
160 -202 431 968 0
-283 -169 200 969 0
-312 106 160 970 0
-39 -483 -309 971 0
357 481 255 972 0
165 148 302 973 0
178 -305 224 974 0
-157 -187 469 975 0
-211 431 -231 976 0
394 -50 -126 977 0
-250 -187 -376 978 0
-229 391 474 979 0
-390 -306 15 980 0
192 451 -442 981 0
56 458 -468 982 0
-292 184 -486 983 0
129 -213 -48 984 0
-172 200 365 985 0
-252 496 405 986 0
473 170 -145 987 0
-76 135 369 988 0
-123 -378 -438 989 0
166 -209 474 990 0
242 85 53 991 0
371 251 -197 992 0
-262 100 180 993 0
331 320 356 994 0
427 486 -216 995 0
39 -26 -288 996 0
90 387 -159 997 0
217 380 276 998 0
75 -357 -337 999 0
-352 -244 364 1000 0
-146 368 111 1001 0
392 -132 -350 1002 0
146 374 51 1003 0
-86 124 -125 1004 0
-480 132 456 1005 0
257 -328 -193 1006 0
-158 -229 457 1007 0
-439 -411 -327 1008 0
-426 87 437 1009 0
-358 104 198 1010 0
-377 -212 480 1011 0
324 169 -380 1012 0
-450 -243 286 1013 0
-245 -66 -369 1014 0
-275 98 -103 1015 0
411 130 -330 1016 0
-342 59 404 1017 0
70 -139 -150 1018 0
-205 249 226 1019 0
278 338 -171 1020 0
-250 -233 142 1021 0
104 -457 256 1022 0
326 -131 200 1023 0
267 -453 -25 1024 0
383 46 177 1025 0
316 25 -426 1026 0
-277 -135 129 1027 0
110 481 -188 1028 0
49 16 111 1029 0
372 481 -355 1030 0
320 -16 48 1031 0
401 -231 454 1032 0
35 -266 -148 1033 0
-253 325 500 1034 0
-252 -341 -207 1035 0
129 70 80 1036 0
-37 -319 -343 1037 0
176 206 327 1038 0
329 -110 235 1039 0
212 -411 -223 1040 0
105 -148 272 1041 0
-324 -283 198 1042 0
168 -245 -317 1043 0
-347 -30 220 1044 0
-188 134 461 1045 0
336 -401 23 1046 0
-263 -58 -243 1047 0
260 67 -28 1048 0
-421 467 342 1049 0
-328 33 404 1050 0
-237 109 -147 1051 0
-98 -205 -458 1052 0
-36 -288 238 1053 0
195 -483 107 1054 0
-304 -366 194 1055 0
-93 -456 -3 1056 0
-346 331 264 1057 0
464 -12 -403 1058 0
-80 -320 53 1059 0
452 -457 -365 1060 0
-337 145 392 1061 0
248 -78 90 1062 0
447 -388 -38 1063 0
201 453 -439 1064 0
-94 -114 -20 1065 0
468 -255 -176 1066 0
-367 328 -126 1067 0
-484 80 -27 1068 0
167 191 272 1069 0
257 159 -154 1070 0
-280 444 -229 1071 0
303 -227 376 1072 0
247 -4 -281 1073 0
-340 141 -426 1074 0
350 448 124 1075 0
333 149 86 1076 0
354 325 375 1077 0
-421 276 153 1078 0
301 397 -474 1079 0
194 -450 -157 1080 0
-253 -62 228 1081 0
383 -223 283 1082 0
-265 297 -197 1083 0
131 -390 327 1084 0
62 -187 183 1085 0
-375 -334 41 1086 0
146 239 -154 1087 0
-424 -332 473 1088 0
-98 -235 288 1089 0
-498 470 -90 1090 0
-230 370 2 1091 0
480 144 -300 1092 0
272 148 -31 1093 0
-104 167 319 1094 0
294 -135 -38 1095 0
-233 494 -91 1096 0
498 174 -315 1097 0
-275 293 -404 1098 0
-442 362 -360 1099 0
-91 -31 36 1100 0
436 88 -425 1101 0
406 119 -256 1102 0
112 -12 -105 1103 0
-432 -226 -155 1104 0
-486 -416 453 1105 0
246 -173 40 1106 0
247 283 263 1107 0
-101 -450 464 1108 0
121 499 -81 1109 0
133 420 -280 1110 0
-378 -56 408 1111 0
-13 -467 349 1112 0
-69 -492 498 1113 0
-438 301 249 1114 0
-343 -426 -37 1115 0
172 -382 -196 1116 0
51 132 246 1117 0
375 286 -68 1118 0
36 -140 -411 1119 0
301 41 303 1120 0
-189 -119 350 1121 0
463 435 -333 1122 0
-239 53 288 1123 0
-361 -45 137 1124 0
312 -397 204 1125 0
15 101 -367 1126 0
-211 30 251 1127 0
-47 -5 -52 1128 0
-157 -13 350 1129 0
197 -286 -4 1130 0
29 -393 379 1131 0
-223 313 59 1132 0
-456 -419 482 1133 0
371 -398 -182 1134 0
394 88 -138 1135 0
-383 -323 -497 1136 0
421 383 263 1137 0
364 -93 -69 1138 0
-352 319 329 1139 0
-27 328 -142 1140 0
-303 71 -202 1141 0
-419 -170 255 1142 0
395 -82 209 1143 0
-99 -8 -38 1144 0
92 -142 138 1145 0
133 -398 250 1146 0
-105 120 204 1147 0
328 368 -326 1148 0
366 -314 -43 1149 0
120 141 494 1150 0
63 276 389 1151 0
-483 -158 181 1152 0
241 -158 126 1153 0
376 -116 414 1154 0
191 152 466 1155 0
-82 39 -149 1156 0
-381 -28 -460 1157 0
182 -22 -81 1158 0
-244 426 -425 1159 0
-266 -215 -310 1160 0
-209 491 -325 1161 0
246 492 35 1162 0
-33 438 148 1163 0
11 185 329 1164 0
-102 -61 62 1165 0
198 -62 -292 1166 0
114 59 -337 1167 0
-270 426 149 1168 0
-470 183 419 1169 0
327 209 306 1170 0
-183 -389 222 1171 0
-429 445 -324 1172 0
490 469 -180 1173 0
-488 -439 166 1174 0
-90 238 -289 1175 0
232 142 460 1176 0
4 -492 -399 1177 0
-479 270 153 1178 0
-455 349 -471 1179 0
-434 162 488 1180 0
250 165 259 1181 0
409 201 431 1182 0
-163 431 140 1183 0
-241 -454 489 1184 0
-101 -187 29 1185 0
384 168 -129 1186 0
-370 -245 316 1187 0
381 -294 -90 1188 0
384 280 -307 1189 0
393 103 491 1190 0
-96 193 383 1191 0
206 4 346 1192 0
-247 123 -201 1193 0
475 -339 -199 1194 0
203 -174 -496 1195 0
-470 173 273 1196 0
496 -131 -370 1197 0
-45 -264 -221 1198 0
-378 -417 -239 1199 0
309 -5 -330 1200 0
24 -372 -148 1201 0
-362 -284 -13 1202 0
34 -66 489 1203 0
-124 390 -112 1204 0
22 89 -203 1205 0
123 269 59 1206 0
-291 -442 -305 1207 0
-272 -306 136 1208 0
-274 -451 390 1209 0
-112 459 -310 1210 0
447 207 -70 1211 0
496 357 -377 1212 0
-220 151 4 1213 0
-456 182 -431 1214 0
385 58 -483 1215 0
-44 -362 381 1216 0
325 113 139 1217 0
67 381 192 1218 0
-453 -42 -388 1219 0
215 261 -49 1220 0
58 142 343 1221 0
-195 218 481 1222 0
54 381 141 1223 0
-452 -249 -369 1224 0
304 78 48 1225 0
-228 -3 -205 1226 0
342 451 -49 1227 0
-458 -257 -244 1228 0
270 -332 -22 1229 0
186 101 -19 1230 0
467 34 -468 1231 0
-148 -448 -412 1232 0
-315 109 331 1233 0
108 -358 -46 1234 0
41 483 -420 1235 0
221 490 182 1236 0
-29 -235 -338 1237 0
-265 -366 488 1238 0
118 161 237 1239 0
-141 -311 -454 1240 0
-412 326 282 1241 0
-126 52 61 1242 0
-325 280 234 1243 0
-81 -327 -100 1244 0
136 -306 -98 1245 0
-138 240 462 1246 0
379 -351 -174 1247 0
-48 -26 -141 1248 0
470 -219 -164 1249 0
-73 365 -347 1250 0
417 72 -350 1251 0
-9 352 36 1252 0
-67 -364 208 1253 0
-335 373 -70 1254 0
-138 -52 394 1255 0
454 344 183 1256 0
-375 428 -91 1257 0
500 394 460 1258 0
114 -131 -147 1259 0
359 364 -140 1260 0
-149 232 -139 1261 0
-208 -389 -150 1262 0
-459 200 56 1263 0
-139 -151 -438 1264 0
396 487 353 1265 0
207 -391 183 1266 0
-140 -169 -369 1267 0
-162 -372 260 1268 0
163 -50 66 1269 0
-451 -333 194 1270 0
350 171 88 1271 0
-277 -416 -45 1272 0
-57 -172 -104 1273 0
-254 -337 91 1274 0
-210 -70 -487 1275 0
-68 -147 -295 1276 0
27 270 -291 1277 0
307 -244 -292 1278 0
200 122 495 1279 0
191 409 -159 1280 0
-222 -213 389 1281 0
329 -499 -428 1282 0
77 -306 364 1283 0
-316 -104 2 1284 0
-452 -410 -211 1285 0
-151 -297 -108 1286 0
-382 -350 81 1287 0
-19 374 -465 1288 0
-299 392 496 1289 0
392 217 367 1290 0
-20 -325 193 1291 0
487 164 186 1292 0
-268 344 452 1293 0
240 -64 -447 1294 0
1 -133 -331 1295 0
-107 -89 255 1296 0
-401 425 488 1297 0
-238 284 -144 1298 0
-318 296 258 1299 0
493 -117 -32 1300 0
-76 -285 -208 1301 0
-19 303 466 1302 0
-24 -264 -418 1303 0
382 -437 376 1304 0
238 332 308 1305 0
150 -32 167 1306 0
-490 139 -307 1307 0
-268 -35 -104 1308 0
354 -186 -39 1309 0
-475 -398 184 1310 0
46 299 233 1311 0
408 120 -240 1312 0
-69 38 483 1313 0
-15 203 112 1314 0
-445 65 -478 1315 0
430 -313 -285 1316 0
439 314 -305 1317 0
-494 -13 142 1318 0
286 -330 -451 1319 0
-498 294 -187 1320 0
103 336 -198 1321 0
159 -275 -127 1322 0
-439 -101 138 1323 0
220 -460 -437 1324 0
-484 -239 3 1325 0
-75 -65 91 1326 0
120 185 217 1327 0
-48 379 -291 1328 0
-483 41 -177 1329 0
159 473 -46 1330 0
260 -102 -79 1331 0
330 200 -193 1332 0
89 379 -325 1333 0
349 -287 462 1334 0
39 -228 -18 1335 0
-148 -41 -261 1336 0
272 -457 352 1337 0
-352 459 -49 1338 0
176 -276 -381 1339 0
-237 -378 -351 1340 0
-17 -120 -388 1341 0
248 385 -337 1342 0
173 15 -58 1343 0
229 181 -368 1344 0
279 311 -404 1345 0
327 463 -156 1346 0
-293 451 -296 1347 0
-86 -499 120 1348 0
-451 -303 273 1349 0
-435 326 431 1350 0
141 415 -473 1351 0
343 37 3 1352 0
94 497 -323 1353 0
451 4 -405 1354 0
52 156 -83 1355 0
-236 19 38 1356 0
-229 -221 -489 1357 0
93 -307 188 1358 0
469 -316 -213 1359 0
339 -70 448 1360 0
480 -392 207 1361 0
-156 433 -208 1362 0
-464 106 -448 1363 0
318 71 158 1364 0
479 -78 -489 1365 0
-7 23 -450 1366 0
-203 312 359 1367 0
487 4 320 1368 0
220 141 -358 1369 0
-381 -453 -387 1370 0
159 116 -324 1371 0
-63 -262 325 1372 0
497 23 -430 1373 0
86 -151 10 1374 0
-265 167 -483 1375 0
-267 -139 82 1376 0
-153 -424 -126 1377 0
-320 466 -423 1378 0
-415 94 -115 1379 0
-151 -239 -350 1380 0
379 403 -11 1381 0
-426 51 -63 1382 0
297 14 157 1383 0
388 -335 475 1384 0
332 43 126 1385 0
444 117 362 1386 0
-24 -326 -438 1387 0
-20 -73 491 1388 0
396 -224 395 1389 0
369 34 -476 1390 0
310 -15 316 1391 0
-204 455 -35 1392 0
-264 -313 -364 1393 0
261 -311 75 1394 0
-5 -156 371 1395 0
-101 55 402 1396 0
-167 -412 444 1397 0
-189 449 31 1398 0
215 144 402 1399 0
289 -65 139 1400 0
-285 -37 -64 1401 0
324 -119 -178 1402 0
-43 320 214 1403 0
-381 -184 260 1404 0
438 -334 -111 1405 0
-385 -171 150 1406 0
-230 373 368 1407 0
-415 494 251 1408 0
-248 -496 11 1409 0
-498 347 294 1410 0
430 314 -108 1411 0
-259 132 153 1412 0
-25 -161 328 1413 0
-68 -433 -391 1414 0
-16 -8 -268 1415 0
-35 -478 455 1416 0
-197 -452 -58 1417 0
-62 -464 169 1418 0
-239 -27 37 1419 0
-285 171 41 1420 0
-36 -221 -370 1421 0
468 221 -24 1422 0
122 271 -14 1423 0
489 31 -76 1424 0
-49 -38 369 1425 0
111 -91 -398 1426 0
276 496 212 1427 0
-431 -317 -342 1428 0
63 -208 14 1429 0
-378 -286 -346 1430 0
74 -402 201 1431 0
-492 194 -139 1432 0
330 66 -401 1433 0
96 270 419 1434 0
34 -115 -439 1435 0
134 111 -180 1436 0
406 311 87 1437 0
-120 199 -177 1438 0
130 -309 -303 1439 0
348 -366 -307 1440 0
-190 -431 386 1441 0
-149 156 -400 1442 0
110 356 277 1443 0
166 269 244 1444 0
45 -329 -105 1445 0
-204 391 -405 1446 0
103 -129 59 1447 0
-490 -408 302 1448 0
-67 199 -353 1449 0
308 -332 335 1450 0
-214 212 59 1451 0
-479 413 54 1452 0
147 80 -378 1453 0
118 216 -471 1454 0
-287 -292 -364 1455 0
207 -414 -76 1456 0
-142 -213 309 1457 0
-118 -411 -69 1458 0
-202 -191 140 1459 0
-160 18 -44 1460 0
105 258 -64 1461 0
335 279 436 1462 0
-138 33 -481 1463 0
78 351 394 1464 0
250 180 361 1465 0
-233 -21 -63 1466 0
33 50 286 1467 0
90 -141 -371 1468 0
-142 -374 -187 1469 0
-274 296 -321 1470 0
167 108 -500 1471 0
-465 -235 297 1472 0
-242 -454 -353 1473 0
-155 189 -312 1474 0
-311 -456 483 1475 0
464 -250 409 1476 0
295 -268 -85 1477 0
-347 -337 358 1478 0
62 -117 318 1479 0
187 -323 276 1480 0
-343 -91 -46 1481 0
374 -463 -352 1482 0
484 113 320 1483 0
-39 -99 -284 1484 0
440 -381 -420 1485 0
445 234 6 1486 0
115 420 308 1487 0
-390 268 495 1488 0
-165 -73 -210 1489 0
-210 54 360 1490 0
211 474 413 1491 0
-220 154 290 1492 0
59 206 -253 1493 0
54 -389 -160 1494 0
-358 67 -484 1495 0
-334 -245 -108 1496 0
-428 399 70 1497 0
155 212 240 1498 0
-20 -244 -488 1499 0
280 223 -359 1500 0
-436 124 234 1501 0
-89 -316 -425 1502 0
-281 -466 -495 1503 0
-467 222 208 1504 0
-240 498 279 1505 0
-163 342 261 1506 0
-164 -386 76 1507 0
-228 -137 372 1508 0
276 106 284 1509 0
250 -163 -436 1510 0
391 381 -404 1511 0
-381 147 -323 1512 0
69 -288 -213 1513 0
-283 9 -356 1514 0
-345 294 -81 1515 0
365 -179 280 1516 0
-120 -367 -427 1517 0
121 -169 -463 1518 0
-90 -351 127 1519 0
253 77 -409 1520 0
99 471 134 1521 0
283 -175 371 1522 0
268 365 287 1523 0
-28 418 158 1524 0
226 -255 370 1525 0
-407 413 45 1526 0
-476 116 124 1527 0
359 112 -227 1528 0
-394 -332 392 1529 0
-156 76 -427 1530 0
490 -191 457 1531 0
313 -442 -114 1532 0
-341 317 209 1533 0
-408 251 -123 1534 0
-480 -315 464 1535 0
-465 307 -435 1536 0
-340 73 419 1537 0
418 -301 339 1538 0
-462 -226 -338 1539 0
339 -73 -479 1540 0
-152 52 -238 1541 0
-112 252 -421 1542 0
-431 -165 372 1543 0
412 -299 -202 1544 0
3 259 18 1545 0
300 421 140 1546 0
289 -390 255 1547 0
-259 -173 -184 1548 0
-243 -448 471 1549 0
394 149 298 1550 0
-312 -243 -208 1551 0
420 -69 345 1552 0
451 -404 -205 1553 0
221 -48 74 1554 0
-130 -276 -408 1555 0
-363 -378 67 1556 0
488 -322 5 1557 0
481 -363 -313 1558 0
-278 -208 140 1559 0
-341 -303 -366 1560 0
190 -312 -271 1561 0
248 217 188 1562 0
219 425 -101 1563 0
-149 -8 134 1564 0
25 90 344 1565 0
-181 -104 212 1566 0
15 305 -180 1567 0
201 -383 277 1568 0
145 364 -446 1569 0
-38 -440 -21 1570 0
-158 -192 182 1571 0
72 -497 -390 1572 0
-48 131 -34 1573 0
3 270 344 1574 0
384 92 93 1575 0
-145 -148 -380 1576 0
-428 23 -495 1577 0
159 483 -277 1578 0
-251 -164 436 1579 0
171 296 291 1580 0
251 382 -82 1581 0
-358 -419 295 1582 0
-53 -95 -110 1583 0
498 -107 -347 1584 0
-406 -240 440 1585 0
-429 229 248 1586 0
-379 -395 59 1587 0
351 14 85 1588 0
-93 -485 -148 1589 0
175 31 -432 1590 0
-192 -348 -208 1591 0
328 -39 67 1592 0
-62 -346 -360 1593 0
269 491 296 1594 0
313 95 -404 1595 0
23 138 -47 1596 0
381 233 114 1597 0
52 -496 398 1598 0
-481 172 -13 1599 0
-319 -219 194 1600 0
-336 305 385 1601 0
-176 188 158 1602 0
15 -215 355 1603 0
57 -404 190 1604 0
464 88 -71 1605 0
60 496 423 1606 0
404 151 120 1607 0
287 -256 -447 1608 0
-430 8 190 1609 0
464 230 -16 1610 0
-84 -176 499 1611 0
-225 24 -438 1612 0
114 -385 132 1613 0
-137 52 -415 1614 0
346 149 -191 1615 0
-315 168 405 1616 0
-424 -457 20 1617 0
285 -377 155 1618 0
-496 52 -84 1619 0
-397 245 -124 1620 0
287 -138 -10 1621 0
359 -333 -202 1622 0
397 -302 -285 1623 0
-278 -459 -178 1624 0
302 234 329 1625 0
37 333 96 1626 0
491 298 104 1627 0
-346 -354 115 1628 0
-24 428 207 1629 0
283 -7 -147 1630 0
-153 392 -28 1631 0
-20 -190 322 1632 0
487 -500 -39 1633 0
-30 228 300 1634 0
458 283 428 1635 0
293 342 32 1636 0
413 272 205 1637 0
-19 -410 254 1638 0
-455 -403 -60 1639 0
432 -286 437 1640 0
-107 240 -147 1641 0
158 29 -328 1642 0
-88 -256 76 1643 0
80 371 -302 1644 0
-126 191 -211 1645 0
-486 -466 -446 1646 0
248 -80 269 1647 0
230 359 141 1648 0
-399 189 -346 1649 0
187 374 155 1650 0
-399 -210 -454 1651 0
390 490 -365 1652 0
-412 433 479 1653 0
-232 112 -324 1654 0
-180 216 -203 1655 0
419 395 405 1656 0
-58 285 -428 1657 0
-274 -106 -426 1658 0
164 -471 156 1659 0
348 370 -427 1660 0
224 332 -242 1661 0
-225 36 286 1662 0
446 -82 51 1663 0
77 134 -120 1664 0
335 278 276 1665 0
-212 -247 -387 1666 0
-388 -441 -452 1667 0
296 482 -262 1668 0
38 -55 14 1669 0
242 -292 -397 1670 0
-246 -212 -300 1671 0
322 -278 417 1672 0
8 -460 31 1673 0
418 -92 348 1674 0
70 -410 323 1675 0
356 225 92 1676 0
-161 466 201 1677 0
327 -372 -73 1678 0
462 436 170 1679 0
349 -353 -42 1680 0
23 -286 -215 1681 0
310 134 225 1682 0
-38 -176 -146 1683 0
116 216 -418 1684 0
-196 -490 291 1685 0
-449 439 433 1686 0
85 -12 219 1687 0
-151 228 -210 1688 0
-82 -294 122 1689 0
345 -134 -146 1690 0
330 258 290 1691 0
172 -314 284 1692 0
422 -395 288 1693 0
29 332 412 1694 0
-447 -144 438 1695 0
208 5 -92 1696 0
-19 241 -180 1697 0
390 104 466 1698 0
-239 326 -259 1699 0
453 -249 470 1700 0
213 409 -468 1701 0
6 346 428 1702 0
-367 404 448 1703 0
-74 340 -19 1704 0
466 225 332 1705 0
-262 308 -270 1706 0
-147 81 -237 1707 0
-62 -208 -260 1708 0
-388 -5 -182 1709 0
107 -207 102 1710 0
200 123 295 1711 0
-214 277 -485 1712 0
-359 -265 -40 1713 0
-52 -386 134 1714 0
-435 352 -133 1715 0
104 242 -59 1716 0
37 -142 20 1717 0
-124 -231 36 1718 0
-32 -325 -87 1719 0
398 57 94 1720 0
-42 64 436 1721 0
-343 44 -436 1722 0
-108 287 -249 1723 0
340 470 62 1724 0
332 232 469 1725 0
404 -372 323 1726 0
-207 -16 -219 1727 0
-265 308 -372 1728 0
60 314 -349 1729 0
-74 -345 199 1730 0
-25 -115 -430 1731 0
216 -64 390 1732 0
-456 328 258 1733 0
81 407 -460 1734 0
316 -289 -14 1735 0
-263 -437 160 1736 0
41 -89 -352 1737 0
-326 50 297 1738 0
-177 180 -496 1739 0
-158 381 -490 1740 0
-243 462 68 1741 0
394 -172 -150 1742 0
-385 -129 -142 1743 0
291 202 368 1744 0
-326 429 -265 1745 0
490 -37 -347 1746 0
444 385 232 1747 0
-305 374 160 1748 0
-171 300 427 1749 0
-471 410 -441 1750 0
-391 152 -349 1751 0
-366 -177 181 1752 0
-443 260 384 1753 0
-242 -64 -221 1754 0
37 -435 113 1755 0
-496 -260 -306 1756 0
244 382 -83 1757 0
260 -219 -205 1758 0
279 -322 -440 1759 0
203 204 -363 1760 0
-277 86 449 1761 0
-459 -1 427 1762 0
488 436 -480 1763 0
-462 -159 -294 1764 0
-466 275 -449 1765 0
384 206 48 1766 0
214 -104 -281 1767 0
8 15 201 1768 0
-167 426 186 1769 0
81 -113 221 1770 0
25 326 -290 1771 0
-55 173 296 1772 0
-435 268 311 1773 0
-255 -364 -367 1774 0
-13 -310 -278 1775 0
134 -204 -167 1776 0
167 -446 303 1777 0
-481 -99 -319 1778 0
-364 -318 -309 1779 0
-334 157 408 1780 0
351 -74 -121 1781 0
416 -190 -265 1782 0
-185 -143 -12 1783 0
-163 -385 397 1784 0
-387 478 481 1785 0
-207 -256 -7 1786 0
208 285 -383 1787 0
86 -204 210 1788 0
210 -52 -181 1789 0
-472 -423 -94 1790 0
-391 -266 -283 1791 0
-233 360 12 1792 0
286 -364 140 1793 0
89 418 438 1794 0
151 434 -265 1795 0
108 -373 412 1796 0
-460 -360 -18 1797 0
-22 -418 119 1798 0
-164 -457 163 1799 0
41 170 -439 1800 0
-492 -112 374 1801 0
403 -42 406 1802 0
106 17 64 1803 0
182 223 276 1804 0
-206 433 376 1805 0
127 473 114 1806 0
-294 -2 204 1807 0
-223 -419 -292 1808 0
39 -160 -337 1809 0
127 -64 239 1810 0
-130 -200 -188 1811 0
97 332 108 1812 0
-467 -46 -459 1813 0
178 91 296 1814 0
44 -380 -141 1815 0
-78 -218 -198 1816 0
-378 64 274 1817 0
176 451 -93 1818 0
259 336 -371 1819 0
169 463 191 1820 0
388 459 -130 1821 0
-315 362 286 1822 0
-473 -290 -110 1823 0
-361 467 -33 1824 0
-434 -469 336 1825 0
294 -145 17 1826 0
-135 -339 -22 1827 0
-318 326 165 1828 0
-391 69 202 1829 0
172 329 81 1830 0
305 263 -117 1831 0
-263 -329 -63 1832 0
-224 39 -348 1833 0
-313 386 -175 1834 0
-403 119 90 1835 0
335 122 71 1836 0
-44 491 165 1837 0
237 83 18 1838 0
-114 287 -301 1839 0
183 64 434 1840 0
305 32 -328 1841 0
-428 185 -144 1842 0
-33 425 -420 1843 0
-447 417 -340 1844 0
-327 317 -400 1845 0
255 152 -234 1846 0
-160 240 -79 1847 0
337 -298 454 1848 0
-326 -33 -411 1849 0
-387 -50 -146 1850 0
243 494 -318 1851 0
-300 -411 312 1852 0
-237 414 -55 1853 0
12 402 482 1854 0
402 471 230 1855 0
117 -70 403 1856 0
-448 -412 -322 1857 0
118 -492 358 1858 0
-220 191 376 1859 0
-430 -480 58 1860 0
474 345 -457 1861 0
403 -426 388 1862 0
95 318 264 1863 0
199 -302 -63 1864 0
-372 -159 -128 1865 0
-175 -250 493 1866 0
43 -497 -463 1867 0
-474 -378 468 1868 0
-335 -135 235 1869 0
-488 -48 -273 1870 0
-260 -382 53 1871 0
250 310 -444 1872 0
-21 110 122 1873 0
-66 135 18 1874 0
-73 478 -12 1875 0
8 -485 -189 1876 0
335 -222 52 1877 0
-76 28 -237 1878 0
-314 -446 115 1879 0
129 -78 -8 1880 0
-72 33 -478 1881 0
-52 306 304 1882 0
-350 442 66 1883 0
-64 272 -124 1884 0
-161 399 1 1885 0
-239 270 -228 1886 0
-65 -37 -150 1887 0
-467 201 -137 1888 0
-359 -458 -167 1889 0
-111 -359 -327 1890 0
102 107 252 1891 0
212 -424 382 1892 0
33 224 430 1893 0
-120 -304 -47 1894 0
458 -400 426 1895 0
420 -350 362 1896 0
304 81 -206 1897 0
487 -465 -273 1898 0
13 168 29 1899 0
-451 50 307 1900 0
164 -479 -218 1901 0
444 54 366 1902 0
-186 -144 -499 1903 0
-486 35 91 1904 0
-236 -491 16 1905 0
-466 277 78 1906 0
358 443 -369 1907 0
-355 408 373 1908 0
460 -497 417 1909 0
115 -213 -5 1910 0
254 -354 -248 1911 0
267 -347 61 1912 0
-226 -209 -114 1913 0
-472 121 -357 1914 0
123 433 361 1915 0
151 406 434 1916 0
336 475 -2 1917 0
220 -331 155 1918 0
-311 295 30 1919 0
-470 243 48 1920 0
-234 406 -108 1921 0
424 -157 -293 1922 0
-61 109 -412 1923 0
335 -465 -282 1924 0
44 -132 159 1925 0
381 486 81 1926 0
300 257 -22 1927 0
-377 -382 -158 1928 0
-382 -67 359 1929 0
23 130 -284 1930 0
66 412 116 1931 0
263 200 -389 1932 0
-217 61 -339 1933 0
-214 359 226 1934 0
-232 350 186 1935 0
234 -407 -486 1936 0
-93 -152 198 1937 0
-6 -499 205 1938 0
471 152 51 1939 0
441 362 -1 1940 0
-325 -348 -59 1941 0
269 383 217 1942 0
327 -166 -341 1943 0
345 307 -47 1944 0
-242 430 -391 1945 0
159 -344 -203 1946 0
437 340 -291 1947 0
172 -69 -66 1948 0
23 159 31 1949 0
329 -318 -339 1950 0
444 -403 -357 1951 0
-133 -167 358 1952 0
303 487 499 1953 0
398 154 -397 1954 0
185 153 -423 1955 0
-31 62 -172 1956 0
-150 99 208 1957 0
-323 190 477 1958 0
-164 195 -324 1959 0
291 -129 -57 1960 0
487 -407 -445 1961 0
230 336 403 1962 0
347 -335 353 1963 0
422 -184 -472 1964 0
495 -98 289 1965 0
-223 -373 38 1966 0
21 -325 -71 1967 0
52 139 -408 1968 0
463 437 -198 1969 0
-264 -98 171 1970 0
222 -347 -116 1971 0
118 -443 162 1972 0
-406 -480 165 1973 0
51 -498 247 1974 0
59 -380 52 1975 0
470 132 -326 1976 0
450 46 -14 1977 0
105 142 -262 1978 0
-474 -9 -386 1979 0
-314 358 -11 1980 0
316 -445 114 1981 0
-339 310 467 1982 0
371 -217 -36 1983 0
222 -327 -228 1984 0
-102 -147 9 1985 0
324 -151 -207 1986 0
-231 -474 28 1987 0
132 -332 -212 1988 0
-9 47 225 1989 0
116 61 143 1990 0
-141 -270 -274 1991 0
-161 -471 424 1992 0
-31 132 -229 1993 0
-399 106 -96 1994 0
354 -381 -464 1995 0
-90 472 -71 1996 0
309 -483 -23 1997 0
293 1 152 1998 0
458 204 -315 1999 0
-337 -360 -108 2000 0
-341 -239 194 2001 0
389 -264 -417 2002 0
-12 268 -359 2003 0
-356 -121 -9 2004 0
-113 410 -426 2005 0
-29 400 -256 2006 0
156 -25 135 2007 0
35 280 -286 2008 0
259 315 -2 2009 0
-310 -344 417 2010 0
-56 -61 222 2011 0
-75 -458 -278 2012 0
-468 17 -489 2013 0
93 258 -459 2014 0
-243 361 433 2015 0
22 -469 494 2016 0
76 411 -239 2017 0
420 412 96 2018 0
46 80 44 2019 0
-42 36 29 2020 0
-107 -11 -47 2021 0
-412 294 -259 2022 0
162 -6 -348 2023 0
-397 -22 90 2024 0
88 401 -24 2025 0
419 -69 -223 2026 0
186 256 -354 2027 0
-239 394 -208 2028 0
-491 -353 150 2029 0
466 -130 -399 2030 0
436 -9 -292 2031 0
-488 320 311 2032 0
-40 -47 335 2033 0
272 52 -279 2034 0
312 -257 67 2035 0
-271 372 -326 2036 0
-326 276 -131 2037 0
-389 -495 430 2038 0
254 371 451 2039 0
374 -411 192 2040 0
-260 388 204 2041 0
-381 347 190 2042 0
-65 -323 -445 2043 0
314 440 -71 2044 0
-287 267 -437 2045 0
493 -58 380 2046 0
141 357 62 2047 0
165 223 278 2048 0
-484 -240 208 2049 0
74 -19 -485 2050 0
-113 -406 -213 2051 0
-196 -329 -354 2052 0
442 -245 -80 2053 0
1 390 -122 2054 0
-480 -207 -423 2055 0
-121 243 328 2056 0
-44 68 272 2057 0
-58 -425 -79 2058 0
-99 -333 -300 2059 0
-253 317 -440 2060 0
59 -495 -407 2061 0
182 193 -33 2062 0
416 -268 -390 2063 0
-277 -49 -1 2064 0
-286 -191 385 2065 0
-191 469 -496 2066 0
-456 241 403 2067 0
-245 -113 -324 2068 0
323 1 248 2069 0
325 390 68 2070 0
144 321 299 2071 0
-399 -111 227 2072 0
-398 -460 -204 2073 0
-333 -365 39 2074 0
-16 125 228 2075 0
421 38 85 2076 0
293 397 242 2077 0
381 -327 -137 2078 0
417 -230 35 2079 0
-468 -103 423 2080 0
-13 141 269 2081 0
38 -309 -172 2082 0
-218 487 28 2083 0
-179 -442 331 2084 0
-13 388 412 2085 0
-465 126 -214 2086 0
-121 42 -363 2087 0
367 -392 386 2088 0
-60 -483 -41 2089 0
431 -106 72 2090 0
262 161 385 2091 0
-398 71 -226 2092 0
-403 23 -180 2093 0
24 5 -20 2094 0
340 -82 312 2095 0
50 252 196 2096 0
-148 165 -405 2097 0
97 232 31 2098 0
-238 -261 432 2099 0
426 289 -477 2100 0
415 408 93 2101 0
183 189 -239 2102 0
-248 424 -129 2103 0
339 -153 91 2104 0
176 -157 -12 2105 0
-64 -104 7 2106 0
373 194 316 2107 0
-359 400 113 2108 0
379 -247 -321 2109 0
419 34 500 2110 0
-323 -266 -357 2111 0
-67 -476 272 2112 0
-472 -286 48 2113 0
-497 -237 -44 2114 0
-56 149 -408 2115 0
-365 -235 215 2116 0
-310 262 40 2117 0
180 76 -443 2118 0
-444 -94 457 2119 0
346 405 -28 2120 0
-367 -394 -13 2121 0
110 -403 -429 2122 0
429 -355 321 2123 0
-498 187 -430 2124 0
-386 -69 -142 2125 0
53 -184 326 2126 0
420 413 -155 2127 0
475 464 -385 2128 0
338 -159 -356 2129 0
488 -43 61 2130 0
37 371 114 2131 0
242 141 371 2132 0
60 -247 226 2133 0
303 -38 308 2134 0
-121 -483 22 2135 0
-292 -54 272 2136 0
409 287 361 2137 0
-415 -401 -439 2138 0
133 346 -455 2139 0
-214 -178 -175 2140 0
125 -421 392 2141 0
-251 41 267 2142 0
-286 -474 154 2143 0
-98 -96 175 2144 0
-104 -392 -483 2145 0
178 -7 -176 2146 0
399 -343 -30 2147 0
-209 343 150 2148 0
-37 -400 365 2149 0
2 -227 -470 2150 0
-172 25 40 2151 0
-231 -354 -276 2152 0
-246 164 13 2153 0
-92 358 285 2154 0
-236 -470 111 2155 0
35 -352 118 2156 0
176 -194 157 2157 0
62 -341 -85 2158 0
-391 -89 -248 2159 0
307 -218 -164 2160 0
75 489 420 2161 0
-344 -165 427 2162 0
-213 -7 214 2163 0
-461 -273 448 2164 0
-94 69 -33 2165 0
-391 385 290 2166 0
-36 -280 328 2167 0
329 -7 -207 2168 0
-125 -241 -152 2169 0
-290 61 445 2170 0
366 232 338 2171 0
-194 -380 -483 2172 0
-206 -76 393 2173 0
-420 -11 339 2174 0
-386 382 -175 2175 0
253 30 462 2176 0
-139 282 88 2177 0
15 289 362 2178 0
-145 212 451 2179 0
-340 64 -401 2180 0
-104 152 423 2181 0
32 444 -319 2182 0
-305 450 226 2183 0
382 464 -429 2184 0
-133 383 403 2185 0
-272 7 421 2186 0
-293 199 -375 2187 0
-80 137 -15 2188 0
-461 -96 156 2189 0
-9 267 306 2190 0
-425 -236 365 2191 0
473 -149 -410 2192 0
200 -162 474 2193 0
-110 -362 245 2194 0
-36 -385 168 2195 0
442 492 -396 2196 0
268 -194 -91 2197 0
211 300 254 2198 0
182 -390 -17 2199 0
446 381 48 2200 0
-421 -296 341 2201 0
293 -482 -6 2202 0
-138 -363 -200 2203 0
237 304 270 2204 0
368 167 80 2205 0
-398 338 105 2206 0
-101 -424 259 2207 0
-424 393 71 2208 0
389 377 -289 2209 0
297 -377 -71 2210 0
-79 -285 458 2211 0
-423 421 -294 2212 0
322 -40 -23 2213 0
303 -368 477 2214 0
495 342 67 2215 0
477 -240 136 2216 0
409 13 17 2217 0
-238 -409 302 2218 0
-478 -191 248 2219 0
-388 -466 -296 2220 0
161 -101 -417 2221 0
87 -216 -360 2222 0
-352 237 353 2223 0
-240 131 -480 2224 0
-477 456 240 2225 0
58 -373 488 2226 0
-48 319 -21 2227 0
79 -207 448 2228 0
448 256 -1 2229 0
334 -250 -446 2230 0
-167 -302 462 2231 0
24 13 290 2232 0
-37 -250 438 2233 0
66 358 220 2234 0
169 293 295 2235 0
17 163 -307 2236 0
258 -46 -172 2237 0
470 -327 217 2238 0
-167 -412 83 2239 0
165 -215 -358 2240 0
-87 -204 382 2241 0
202 364 -381 2242 0
-28 -340 106 2243 0
112 221 492 2244 0
-406 233 -303 2245 0
244 -210 -265 2246 0
-71 -1 -250 2247 0
-283 -347 340 2248 0
303 98 413 2249 0
140 -83 91 2250 0
-464 262 -87 2251 0
223 -175 142 2252 0
-442 176 -11 2253 0
-303 381 346 2254 0
59 -203 304 2255 0
-335 -189 -337 2256 0
-316 -348 261 2257 0
-67 -292 -238 2258 0
-100 -262 -306 2259 0
-116 -374 252 2260 0
-401 214 459 2261 0
-351 482 -20 2262 0
414 -50 307 2263 0
182 -207 407 2264 0
-407 256 252 2265 0
9 -111 -157 2266 0
-401 -331 -465 2267 0
145 245 -345 2268 0
-212 -153 210 2269 0
399 253 166 2270 0
-112 57 470 2271 0
-393 -203 444 2272 0
457 401 -262 2273 0
-71 -221 363 2274 0
92 -341 379 2275 0
286 -437 468 2276 0
-393 -72 -189 2277 0
185 71 -15 2278 0
-368 287 446 2279 0
79 202 142 2280 0
-78 231 356 2281 0
-136 -352 224 2282 0
-383 -393 -93 2283 0
398 -480 415 2284 0
-445 383 490 2285 0
-11 -252 288 2286 0
201 221 61 2287 0
-471 92 -67 2288 0
-322 -292 -20 2289 0
105 -132 -101 2290 0
389 -334 -77 2291 0
-108 313 201 2292 0
-487 441 -87 2293 0
-208 -310 -295 2294 0
-40 73 187 2295 0
118 438 -121 2296 0
-141 -375 -67 2297 0
464 331 6 2298 0
414 231 -43 2299 0
-295 -95 47 2300 0
80 -205 178 2301 0
487 -409 370 2302 0
301 308 53 2303 0
-113 -171 174 2304 0
27 -288 400 2305 0
81 -444 -243 2306 0
376 412 38 2307 0
-399 482 -74 2308 0
-76 404 125 2309 0
-63 -464 130 2310 0
251 459 429 2311 0
143 -339 -338 2312 0
147 239 -56 2313 0
405 151 -495 2314 0
429 -292 -471 2315 0
52 -245 -482 2316 0
139 -125 -39 2317 0
-225 -183 440 2318 0
-97 126 388 2319 0
-485 -427 -152 2320 0
67 -331 445 2321 0
-47 -46 -464 2322 0
-360 376 -413 2323 0
-437 362 -477 2324 0
-20 -455 225 2325 0
-182 -361 -1 2326 0
53 484 -124 2327 0
180 -342 -327 2328 0
-400 276 152 2329 0
401 265 -500 2330 0
104 359 -439 2331 0
-255 -243 -385 2332 0
300 -268 -104 2333 0
-50 481 7 2334 0
-130 334 449 2335 0
392 376 -278 2336 0
350 231 -485 2337 0
490 41 256 2338 0
379 282 -86 2339 0
-113 -21 187 2340 0
450 -162 379 2341 0
50 -64 170 2342 0
366 27 -148 2343 0
100 380 323 2344 0
-259 162 126 2345 0
61 -482 -118 2346 0
470 -365 -381 2347 0
367 8 10 2348 0
-200 -285 -329 2349 0
-280 193 71 2350 0
-113 475 -65 2351 0
-52 297 332 2352 0
-34 -157 -417 2353 0
21 404 77 2354 0
-466 185 -117 2355 0
28 226 -354 2356 0
154 -245 189 2357 0
-463 320 480 2358 0
-350 106 382 2359 0
-58 259 -489 2360 0
225 1 -310 2361 0
187 -357 106 2362 0
-466 112 350 2363 0
247 -325 422 2364 0
-69 -178 307 2365 0
-249 -92 272 2366 0
231 -492 303 2367 0
-450 -220 -208 2368 0
271 59 -197 2369 0
447 185 -239 2370 0
131 311 -317 2371 0
-133 153 257 2372 0
215 129 -351 2373 0
448 240 205 2374 0
357 -361 119 2375 0
-16 106 406 2376 0
207 343 43 2377 0
-212 -489 268 2378 0
132 387 215 2379 0
454 148 420 2380 0
17 146 -112 2381 0
-80 438 -258 2382 0
333 34 484 2383 0
386 439 -305 2384 0
464 -240 134 2385 0
-74 299 -109 2386 0
234 -300 -89 2387 0
127 -360 -462 2388 0
48 8 -292 2389 0
459 71 -408 2390 0
-264 489 206 2391 0
-352 -336 312 2392 0
-127 -362 18 2393 0
-427 323 -256 2394 0
-432 222 -465 2395 0
-218 94 -302 2396 0
61 241 -306 2397 0
357 -78 337 2398 0
-260 -287 65 2399 0
-194 265 -459 2400 0
472 222 -225 2401 0
383 198 -147 2402 0
151 -8 130 2403 0
395 495 329 2404 0
-483 -348 458 2405 0
378 -428 448 2406 0
240 423 -248 2407 0
-219 77 194 2408 0
-109 262 78 2409 0
293 209 476 2410 0
-262 -217 -62 2411 0
-223 -330 -469 2412 0
-270 196 162 2413 0
-227 370 115 2414 0
460 20 -171 2415 0
332 73 431 2416 0
500 72 45 2417 0
-58 -188 -153 2418 0
-427 -271 -128 2419 0
51 148 66 2420 0
243 -333 218 2421 0
326 1 -152 2422 0
187 -464 222 2423 0
-334 331 -466 2424 0
-10 -387 -126 2425 0
-14 -219 -144 2426 0
-164 384 -349 2427 0
290 401 -337 2428 0
-433 77 -276 2429 0
113 245 -226 2430 0
-279 469 366 2431 0
-483 -234 246 2432 0
-334 97 194 2433 0
-85 222 182 2434 0
-296 -447 148 2435 0
167 311 275 2436 0
89 -479 356 2437 0
57 406 -239 2438 0
158 -84 -332 2439 0
-219 -127 317 2440 0
54 286 -231 2441 0
-132 -150 399 2442 0
-500 -273 -411 2443 0
-370 89 28 2444 0
-396 -74 -382 2445 0
-435 116 165 2446 0
246 -319 -457 2447 0
-116 -221 331 2448 0
-231 -71 -294 2449 0
-194 -360 -197 2450 0
282 435 -226 2451 0
386 -46 -450 2452 0
-242 219 -182 2453 0
188 -344 139 2454 0
361 -423 143 2455 0
148 370 -302 2456 0
-265 28 -439 2457 0
196 140 87 2458 0
-267 -308 -125 2459 0
-193 -297 93 2460 0
13 467 130 2461 0
-236 -211 -279 2462 0
170 -390 192 2463 0
304 -399 -270 2464 0
92 -362 165 2465 0
-268 -174 17 2466 0
-68 -499 -110 2467 0
-417 128 324 2468 0
-309 -353 -430 2469 0
402 436 -202 2470 0
-392 206 -261 2471 0
123 -291 -262 2472 0
385 -155 264 2473 0
-251 -389 -69 2474 0
268 -267 -370 2475 0
476 280 401 2476 0
342 -200 215 2477 0
-221 -480 338 2478 0
305 479 -251 2479 0
139 439 -446 2480 0
-252 386 -38 2481 0
104 -337 246 2482 0
-34 429 413 2483 0
-220 176 384 2484 0
-428 486 33 2485 0
-430 -129 210 2486 0
9 99 338 2487 0
-472 321 -46 2488 0
232 469 113 2489 0
105 -308 -345 2490 0
-481 125 213 2491 0
212 189 190 2492 0
-284 107 -41 2493 0
-449 346 162 2494 0
-354 -315 145 2495 0
-20 458 -98 2496 0
-375 324 -484 2497 0
403 463 8 2498 0
-412 200 355 2499 0
126 -33 307 2500 0
144 -405 338 2501 0
-13 -158 312 2502 0
495 -39 -341 2503 0
-255 -487 -342 2504 0
119 -404 -240 2505 0
-325 -63 -294 2506 0
-91 -309 -89 2507 0
-315 256 -30 2508 0
93 -498 -126 2509 0
362 -383 -318 2510 0
459 -314 -232 2511 0
491 40 400 2512 0
121 -485 330 2513 0
-153 184 -75 2514 0
-162 50 41 2515 0
-44 -80 -222 2516 0
-51 14 -234 2517 0
451 -16 58 2518 0
498 158 -205 2519 0
-335 -142 -446 2520 0
-132 157 -159 2521 0
-334 -254 335 2522 0
44 93 191 2523 0
463 70 -93 2524 0
206 108 -178 2525 0
298 165 -406 2526 0
403 421 94 2527 0
-310 -402 -186 2528 0
-396 469 181 2529 0
411 200 404 2530 0
-34 137 -20 2531 0
-186 486 -457 2532 0
441 -345 -463 2533 0
-185 194 -110 2534 0
39 -485 404 2535 0
-429 -16 135 2536 0
372 475 -189 2537 0
-265 21 -222 2538 0
16 106 351 2539 0
-429 234 -489 2540 0
-405 124 -390 2541 0
-6 495 5 2542 0
365 -115 -200 2543 0
419 -369 -197 2544 0
-468 60 -377 2545 0
-376 -231 -197 2546 0
271 -338 349 2547 0
-154 -408 313 2548 0
94 -407 -31 2549 0
-18 -181 -82 2550 0
-48 -290 -6 2551 0
410 251 39 2552 0
-263 -398 500 2553 0
394 -292 498 2554 0
-145 -36 -56 2555 0
-114 -73 232 2556 0
-268 -4 6 2557 0
-322 422 -323 2558 0
23 12 -15 2559 0
-134 -468 -178 2560 0
-386 -471 370 2561 0
-118 87 411 2562 0
-70 4 405 2563 0
297 91 467 2564 0
244 174 205 2565 0
487 180 175 2566 0
-218 174 -65 2567 0
203 377 -421 2568 0
45 -90 355 2569 0
309 -129 456 2570 0
-203 -37 -363 2571 0
-42 -81 -165 2572 0
137 181 -155 2573 0
468 413 -228 2574 0
462 28 451 2575 0
371 462 -169 2576 0
-210 -68 263 2577 0
-478 -425 247 2578 0
395 -17 -195 2579 0
-153 220 325 2580 0
63 446 -325 2581 0
409 185 308 2582 0
12 -138 -356 2583 0
339 -368 -26 2584 0
242 -371 126 2585 0
-216 -75 207 2586 0
-363 -188 -369 2587 0
263 167 -459 2588 0
380 -103 -276 2589 0
-406 326 -163 2590 0
-65 371 294 2591 0
-44 217 -65 2592 0
426 434 -231 2593 0
306 82 355 2594 0
-479 -254 -188 2595 0
-378 393 -379 2596 0
-229 -147 -125 2597 0
-399 295 -271 2598 0
-10 155 461 2599 0
337 -345 -39 2600 0
459 104 -17 2601 0
261 84 -434 2602 0
-132 121 324 2603 0
376 -415 152 2604 0
-337 25 -293 2605 0
317 38 230 2606 0
-36 -263 303 2607 0
18 219 54 2608 0
317 390 -208 2609 0
141 346 101 2610 0
340 -465 -93 2611 0
59 415 328 2612 0
-390 -440 129 2613 0
241 240 379 2614 0
413 248 147 2615 0
-254 419 304 2616 0
-247 131 -273 2617 0
380 119 -139 2618 0
256 -122 59 2619 0
3 -276 408 2620 0
127 -387 -45 2621 0
-467 -269 431 2622 0
-244 -497 -44 2623 0
-124 164 -47 2624 0
-262 271 -443 2625 0
458 383 323 2626 0
237 -332 39 2627 0
327 347 415 2628 0
124 -101 448 2629 0
143 305 -89 2630 0
271 -250 187 2631 0
19 432 -328 2632 0
-16 47 12 2633 0
-352 -215 13 2634 0
-215 -157 -128 2635 0
-432 93 -289 2636 0
137 256 -184 2637 0
-303 162 -300 2638 0
32 -125 73 2639 0
493 -396 18 2640 0
106 -414 -295 2641 0
279 -483 64 2642 0
-330 72 -119 2643 0
493 -263 166 2644 0
183 438 112 2645 0
4 191 -213 2646 0
251 474 -425 2647 0
-301 119 465 2648 0
171 -253 361 2649 0
335 485 360 2650 0
