p cnf 2650 2150
198 383 12 501 0
450 93 -43 502 0
443 -254 -109 503 0
-232 413 -174 504 0
-432 -348 107 505 0
-338 303 225 506 0
-446 -225 179 507 0
-243 118 430 508 0
-188 199 -377 509 0
420 363 -319 510 0
219 64 223 511 0
-54 278 -274 512 0
145 297 -352 513 0
113 -104 22 514 0
-27 -188 113 515 0
307 -332 -135 516 0
13 -90 385 517 0
381 -327 193 518 0
-396 -280 486 519 0
343 -16 3 520 0
-25 414 190 521 0
-336 341 -11 522 0
-120 183 -238 523 0
210 -431 262 524 0
-491 411 210 525 0
-221 261 -47 526 0
139 173 -191 527 0
-234 -217 445 528 0
405 -49 304 529 0
-103 -419 342 530 0
298 421 -186 531 0
200 40 190 532 0
364 -457 -493 533 0
-412 -228 -105 534 0
-164 365 -26 535 0
122 386 394 536 0
15 33 373 537 0
-497 -327 -298 538 0
398 -447 -43 539 0
-110 -124 -426 540 0
-251 427 -500 541 0
-374 -480 -250 542 0
11 -306 125 543 0
-445 209 -54 544 0
-262 -187 25 545 0
350 205 -87 546 0
300 334 -226 547 0
-191 260 406 548 0
237 260 -220 549 0
-445 222 -151 550 0
465 -50 37 551 0
-337 295 328 552 0
31 -230 -474 553 0
-330 279 458 554 0
-201 -392 243 555 0
-260 -299 433 556 0
-104 -320 416 557 0
-228 188 80 558 0
-270 56 58 559 0
-337 461 94 560 0
387 -218 -465 561 0
183 -28 356 562 0
471 474 -421 563 0
473 31 -137 564 0
-104 70 144 565 0
292 280 414 566 0
36 355 37 567 0
-8 -210 -39 568 0
478 -309 -104 569 0
126 237 77 570 0
-23 -164 -475 571 0
-438 -205 -373 572 0
-280 -55 127 573 0
-59 -300 -445 574 0
428 465 -307 575 0
-341 485 -468 576 0
346 -61 -210 577 0
-483 313 -1 578 0
291 -162 482 579 0
306 -446 -48 580 0
133 -289 14 581 0
-59 -200 -478 582 0
-213 -399 78 583 0
450 36 -403 584 0
37 77 236 585 0
-234 433 -210 586 0
-235 -412 103 587 0
179 -169 -360 588 0
130 -116 392 589 0
40 77 446 590 0
-20 -393 -315 591 0
-294 248 182 592 0
-242 -387 -59 593 0
324 -74 -214 594 0
103 -380 98 595 0
-434 172 -234 596 0
-317 -482 151 597 0
271 -275 -385 598 0
321 88 -433 599 0
-152 -176 204 600 0
390 347 472 601 0
-272 255 159 602 0
-495 65 199 603 0
-427 413 -470 604 0
-254 -23 -418 605 0
-164 -168 -240 606 0
91 297 -332 607 0
304 351 -249 608 0
-225 -240 214 609 0
-132 187 -3 610 0
-269 -471 195 611 0
-75 79 334 612 0
-111 205 223 613 0
-392 390 172 614 0
299 441 309 615 0
-161 255 -174 616 0
-266 -282 200 617 0
96 93 132 618 0
353 277 404 619 0
-123 297 -464 620 0
-148 -206 496 621 0
-224 -158 -429 622 0
-226 293 55 623 0
-139 112 312 624 0
5 412 -482 625 0
-215 -339 -408 626 0
334 -480 411 627 0
-399 214 424 628 0
344 158 -15 629 0
-22 -178 1 630 0
239 -298 -307 631 0
-447 -312 -463 632 0
284 464 -84 633 0
104 338 185 634 0
-319 -80 -342 635 0
33 10 -208 636 0
329 86 369 637 0
115 -189 150 638 0
-3 -327 227 639 0
-276 192 252 640 0
299 41 -240 641 0
336 86 355 642 0
140 330 -3 643 0
-145 273 -239 644 0
306 236 39 645 0
278 92 189 646 0
-424 -279 -432 647 0
278 -483 271 648 0
145 -215 -416 649 0
-176 -24 -305 650 0
-273 361 -152 651 0
-179 98 -173 652 0
376 -460 -208 653 0
-418 -301 -307 654 0
-263 456 25 655 0
-176 116 167 656 0
-303 394 271 657 0
28 422 431 658 0
363 21 374 659 0
-353 221 424 660 0
-259 433 -38 661 0
317 -358 469 662 0
180 164 -259 663 0
144 -361 253 664 0
309 17 402 665 0
-500 -115 -216 666 0
-246 51 335 667 0
-89 -87 196 668 0
-273 276 65 669 0
-201 -474 -448 670 0
-40 142 -201 671 0
-187 79 -42 672 0
420 -198 494 673 0
-392 -347 461 674 0
-141 -252 -433 675 0
290 -313 338 676 0
142 475 -486 677 0
460 247 -41 678 0
-193 205 -497 679 0
-231 305 -220 680 0
136 -404 -452 681 0
-396 -476 -355 682 0
-398 83 134 683 0
480 394 265 684 0
-59 238 163 685 0
-341 -453 -479 686 0
-279 84 57 687 0
69 -145 -417 688 0
-161 -342 -221 689 0
309 -117 -42 690 0
226 375 -201 691 0
74 -45 -4 692 0
-150 -406 215 693 0
-354 168 245 694 0
57 -440 478 695 0
-89 85 -222 696 0
-452 43 -209 697 0
-12 298 257 698 0
-133 -45 -377 699 0
383 103 384 700 0
-396 41 -320 701 0
219 71 145 702 0
425 -303 -238 703 0
-61 311 -74 704 0
-244 205 59 705 0
-221 477 373 706 0
481 249 414 707 0
67 -158 -286 708 0
318 -455 -114 709 0
336 -362 286 710 0
46 -110 326 711 0
-215 104 -347 712 0
-307 171 323 713 0
484 215 394 714 0
-14 -233 -168 715 0
135 1 -287 716 0
-137 -64 -185 717 0
-390 -186 95 718 0
385 453 -357 719 0
-56 280 254 720 0
-279 448 -277 721 0
488 -143 -313 722 0
469 370 -138 723 0
497 -185 360 724 0
-315 72 -407 725 0
-254 -343 -209 726 0
-67 -172 -381 727 0
-465 -317 -9 728 0
353 269 232 729 0
258 422 -16 730 0
-281 -338 84 731 0
8 128 117 732 0
-209 -380 279 733 0
-195 -104 463 734 0
144 1 -485 735 0
283 -39 -350 736 0
352 -272 -71 737 0
38 -20 -39 738 0
114 358 -333 739 0
-314 -221 -112 740 0
465 -428 -372 741 0
366 181 -288 742 0
-244 -338 -459 743 0
457 -337 486 744 0
-214 -231 291 745 0
-231 -316 -276 746 0
16 -347 129 747 0
-41 444 -323 748 0
206 224 76 749 0
58 465 -5 750 0
-392 -389 135 751 0
222 -332 267 752 0
431 236 352 753 0
-316 -96 315 754 0
-366 328 300 755 0
384 -9 164 756 0
-342 -199 -218 757 0
469 340 -225 758 0
166 -362 -99 759 0
212 154 -70 760 0
-171 496 197 761 0
37 -246 491 762 0
-375 -159 71 763 0
179 40 -128 764 0
-133 -252 -189 765 0
103 -120 -2 766 0
136 352 -225 767 0
293 -52 -32 768 0
265 -389 -48 769 0
458 -131 224 770 0
478 299 325 771 0
-358 -200 -34 772 0
-243 -135 -272 773 0
-181 -358 241 774 0
-126 437 485 775 0
-99 -393 315 776 0
122 -210 -293 777 0
-327 474 493 778 0
86 133 7 779 0
373 49 -12 780 0
481 187 -259 781 0
39 362 -200 782 0
35 259 132 783 0
110 28 301 784 0
346 311 58 785 0
235 383 -183 786 0
169 -484 -104 787 0
-402 -500 481 788 0
-343 255 -465 789 0
395 -43 -453 790 0
-86 288 -164 791 0
-300 451 -206 792 0
-259 455 248 793 0
-171 38 134 794 0
84 -411 352 795 0
-178 -364 14 796 0
10 -195 -314 797 0
-499 -449 282 798 0
281 69 80 799 0
-150 463 474 800 0
-252 154 -35 801 0
-215 -290 234 802 0
281 -82 204 803 0
-488 432 229 804 0
-229 436 -244 805 0
396 -313 301 806 0
440 -71 -195 807 0
323 357 2 808 0
-438 338 393 809 0
-319 -489 -171 810 0
67 167 259 811 0
-145 -67 434 812 0
-49 -215 -362 813 0
-58 -195 -152 814 0
30 217 -8 815 0
-421 344 -26 816 0
420 -215 476 817 0
153 -224 -295 818 0
-19 -384 189 819 0
-434 496 -63 820 0
-473 431 268 821 0
-389 -424 489 822 0
-148 -223 94 823 0
148 -313 142 824 0
227 280 89 825 0
-466 8 -491 826 0
-19 413 -316 827 0
264 -311 -309 828 0
416 -186 -283 829 0
61 -498 36 830 0
-10 -471 182 831 0
146 -197 299 832 0
469 -404 -55 833 0
230 -455 319 834 0
97 358 -29 835 0
-73 -55 297 836 0
201 257 -353 837 0
429 160 307 838 0
-436 129 -215 839 0
-397 358 278 840 0
212 -208 135 841 0
-95 -128 -386 842 0
4 -53 24 843 0
491 310 -221 844 0
148 437 460 845 0
347 289 498 846 0
132 -468 -90 847 0
-116 469 -75 848 0
460 235 -425 849 0
30 -88 254 850 0
281 -239 -24 851 0
308 -369 -205 852 0
355 248 -120 853 0
138 -165 106 854 0
-266 -499 481 855 0
-333 -313 9 856 0
-182 323 -207 857 0
-190 339 427 858 0
-140 -124 22 859 0
-29 359 -334 860 0
-135 -145 -65 861 0
-40 373 -463 862 0
-391 -209 351 863 0
141 -227 -499 864 0
240 150 235 865 0
295 53 404 866 0
59 276 137 867 0
422 -458 -274 868 0
353 70 -374 869 0
357 291 -375 870 0
-432 395 334 871 0
318 346 -329 872 0
-314 442 -286 873 0
30 373 -320 874 0
-44 -292 -313 875 0
289 -365 159 876 0
189 -79 469 877 0
-197 67 460 878 0
-362 -149 430 879 0
-474 -226 -240 880 0
45 463 235 881 0
232 -190 413 882 0
255 -289 -266 883 0
200 -54 -326 884 0
-97 391 -240 885 0
-396 408 221 886 0
-364 324 245 887 0
392 -421 -328 888 0
430 -357 -372 889 0
6 107 292 890 0
7 -219 13 891 0
-48 -63 -235 892 0
-19 -350 -395 893 0
24 -157 282 894 0
433 193 82 895 0
-292 -8 474 896 0
-165 -125 357 897 0
-96 -226 327 898 0
-320 13 342 899 0
-220 -246 340 900 0
13 241 -182 901 0
-315 117 -427 902 0
-484 146 -227 903 0
-196 -38 -200 904 0
285 -263 -149 905 0
34 -499 229 906 0
453 490 -469 907 0
72 -435 -99 908 0
109 -237 -256 909 0
96 -100 -223 910 0
445 93 1 911 0
194 246 -251 912 0
-113 35 -389 913 0
-26 -265 324 914 0
324 130 -120 915 0
23 334 -155 916 0
-306 236 -266 917 0
285 -188 54 918 0
230 -220 156 919 0
147 -195 -276 920 0
-299 180 350 921 0
220 -396 350 922 0
-147 83 -329 923 0
207 -187 401 924 0
293 -90 -68 925 0
277 -122 -214 926 0
-413 -318 -405 927 0
155 -87 392 928 0
-441 259 -455 929 0
-235 -288 96 930 0
465 -406 451 931 0
351 210 -104 932 0
183 -135 -196 933 0
104 427 30 934 0
-344 466 14 935 0
326 111 444 936 0
-259 371 -284 937 0
383 -12 448 938 0
170 -52 120 939 0
-376 -79 -107 940 0
-373 -249 -7 941 0
305 171 454 942 0
-299 119 -337 943 0
205 -3 485 944 0
431 -25 195 945 0
88 -113 348 946 0
-95 254 213 947 0
-178 82 262 948 0
-339 -289 -382 949 0
76 -498 -260 950 0
433 -163 -215 951 0
238 -165 -420 952 0
302 -114 -91 953 0
230 -170 -306 954 0
-130 -331 -225 955 0
-365 -345 44 956 0
74 -360 474 957 0
-287 -442 371 958 0
481 -19 207 959 0
-480 451 -343 960 0
-213 -292 496 961 0
100 118 -268 962 0
137 -472 74 963 0
248 216 -57 964 0
30 -268 52 965 0
35 307 -343 966 0
-23 207 260 967 0
-488 -116 -473 968 0
-349 -462 -124 969 0
488 -251 213 970 0
-131 413 -44 971 0
355 -311 62 972 0
87 434 -445 973 0
-429 -441 58 974 0
228 293 375 975 0
142 -465 30 976 0
399 -103 280 977 0
72 -416 221 978 0
361 -237 -370 979 0
222 -79 -53 980 0
153 460 124 981 0
223 464 178 982 0
-384 -399 -299 983 0
412 324 -289 984 0
-36 48 220 985 0
474 -488 144 986 0
-471 59 -357 987 0
289 -256 -260 988 0
157 -115 479 989 0
-116 -370 -125 990 0
-147 96 -336 991 0
249 386 -178 992 0
74 407 213 993 0
17 346 302 994 0
-363 473 -428 995 0
-411 267 84 996 0
-394 103 411 997 0
63 -415 155 998 0
-59 440 -96 999 0
169 -206 277 1000 0
-493 197 -12 1001 0
-329 -444 -320 1002 0
-48 -357 214 1003 0
-194 -176 -319 1004 0
65 235 -38 1005 0
-356 -443 150 1006 0
-74 178 -455 1007 0
364 464 431 1008 0
298 -398 280 1009 0
114 56 179 1010 0
-9 385 225 1011 0
-389 209 310 1012 0
211 377 47 1013 0
-68 -295 437 1014 0
-135 -203 476 1015 0
220 -433 -444 1016 0
145 -223 -271 1017 0
451 431 -357 1018 0
67 253 -414 1019 0
204 -311 -152 1020 0
451 243 426 1021 0
-130 23 -250 1022 0
182 261 359 1023 0
479 380 -424 1024 0
-107 443 -243 1025 0
-169 -283 -183 1026 0
-173 445 -14 1027 0
-84 -75 -111 1028 0
-19 -197 -312 1029 0
-52 328 171 1030 0
-357 -374 120 1031 0
205 -372 479 1032 0
170 -7 -41 1033 0
180 -304 214 1034 0
180 -399 -90 1035 0
236 -130 -344 1036 0
196 277 126 1037 0
427 -315 229 1038 0
-437 44 -190 1039 0
288 160 154 1040 0
-217 278 -23 1041 0
-374 -308 160 1042 0
181 -318 -493 1043 0
191 -317 -139 1044 0
-117 153 490 1045 0
-380 280 -65 1046 0
-340 274 310 1047 0
184 440 61 1048 0
32 199 -330 1049 0
413 -220 291 1050 0
418 318 22 1051 0
-140 -403 -126 1052 0
191 361 -237 1053 0
-500 450 -476 1054 0
213 -111 418 1055 0
411 -445 320 1056 0
346 -139 86 1057 0
143 -6 414 1058 0
259 -274 -104 1059 0
461 204 -57 1060 0
138 -423 -13 1061 0
479 371 -348 1062 0
260 66 -84 1063 0
184 71 396 1064 0
-473 -378 -190 1065 0
390 -350 -326 1066 0
252 409 364 1067 0
-369 474 332 1068 0
158 444 -401 1069 0
-433 -418 229 1070 0
-391 -463 -9 1071 0
365 -402 382 1072 0
-115 -323 466 1073 0
-161 -281 -396 1074 0
-441 342 -16 1075 0
195 171 224 1076 0
414 82 -463 1077 0
144 335 299 1078 0
169 -363 232 1079 0
178 130 46 1080 0
469 475 170 1081 0
-405 470 -5 1082 0
490 -55 153 1083 0
237 478 -103 1084 0
-54 293 -219 1085 0
-185 -21 -481 1086 0
66 -247 31 1087 0
351 90 243 1088 0
-477 303 -205 1089 0
-83 157 196 1090 0
106 -101 -497 1091 0
-114 -79 -103 1092 0
235 289 376 1093 0
-490 -88 311 1094 0
68 425 457 1095 0
79 13 -143 1096 0
-157 -141 10 1097 0
248 349 -256 1098 0
-24 132 -294 1099 0
107 -88 -101 1100 0
114 402 381 1101 0
266 210 188 1102 0
281 268 -170 1103 0
117 350 122 1104 0
-180 -395 499 1105 0
420 -252 -230 1106 0
-466 -456 -279 1107 0
438 -339 -378 1108 0
284 -310 -168 1109 0
-247 127 -341 1110 0
-451 -360 -47 1111 0
-33 437 492 1112 0
-173 51 -488 1113 0
-52 -146 -184 1114 0
-175 -5 220 1115 0
-17 -283 -168 1116 0
147 -409 259 1117 0
12 357 413 1118 0
451 -374 -28 1119 0
-142 -73 258 1120 0
-119 6 -487 1121 0
-77 -181 313 1122 0
180 -276 -388 1123 0
-54 -323 -284 1124 0
-292 398 -90 1125 0
-337 -13 -465 1126 0
412 -176 -377 1127 0
-396 -458 146 1128 0
-268 -397 -444 1129 0
215 -181 19 1130 0
106 -299 -423 1131 0
40 -373 -494 1132 0
-420 -459 443 1133 0
483 305 331 1134 0
275 -292 258 1135 0
-61 422 -464 1136 0
281 398 90 1137 0
-236 152 -419 1138 0
-156 204 -128 1139 0
409 152 -288 1140 0
-194 144 -412 1141 0
487 127 -469 1142 0
60 138 -366 1143 0
-405 -181 499 1144 0
-24 -188 406 1145 0
-431 -370 -71 1146 0
462 -273 94 1147 0
152 390 175 1148 0
-272 -268 454 1149 0
57 30 348 1150 0
-405 -67 139 1151 0
232 390 -309 1152 0
-412 290 337 1153 0
-172 244 439 1154 0
-326 491 -493 1155 0
30 494 446 1156 0
172 -25 19 1157 0
77 241 297 1158 0
207 -405 393 1159 0
15 71 -44 1160 0
-177 -19 95 1161 0
18 -194 -193 1162 0
37 -343 152 1163 0
-240 18 318 1164 0
-110 -106 163 1165 0
-484 -165 125 1166 0
230 -66 -473 1167 0
240 -407 -75 1168 0
-96 -21 78 1169 0
-295 142 99 1170 0
317 230 117 1171 0
211 116 420 1172 0
-265 -49 274 1173 0
-338 -472 -83 1174 0
-318 107 -449 1175 0
339 251 222 1176 0
-91 403 -17 1177 0
334 -229 -176 1178 0
-425 -247 125 1179 0
173 83 40 1180 0
-337 -249 285 1181 0
216 447 464 1182 0
-381 -355 433 1183 0
-198 229 -270 1184 0
317 338 -107 1185 0
-227 -134 -295 1186 0
231 -57 32 1187 0
-189 116 -182 1188 0
-360 -484 150 1189 0
111 -137 -246 1190 0
307 -142 199 1191 0
-71 -222 -159 1192 0
409 272 245 1193 0
-98 11 -111 1194 0
63 -150 190 1195 0
205 -188 -417 1196 0
274 45 -420 1197 0
-278 -71 -5 1198 0
190 210 -187 1199 0
323 -58 -127 1200 0
381 45 214 1201 0
73 69 -168 1202 0
480 -232 -115 1203 0
-461 -229 -452 1204 0
439 -341 73 1205 0
-328 -168 -133 1206 0
-191 42 181 1207 0
141 274 -496 1208 0
377 475 61 1209 0
-40 -174 -328 1210 0
-374 -170 335 1211 0
-379 -232 -131 1212 0
71 183 -30 1213 0
-130 267 -160 1214 0
-160 394 -221 1215 0
-147 261 -390 1216 0
-58 77 -223 1217 0
-448 248 -407 1218 0
181 -136 316 1219 0
-313 -230 -42 1220 0
316 -337 -229 1221 0
250 -43 158 1222 0
-248 163 -405 1223 0
276 -127 232 1224 0
-482 -30 488 1225 0
-417 -372 -111 1226 0
46 272 284 1227 0
416 458 205 1228 0
413 179 290 1229 0
134 -161 345 1230 0
-205 428 432 1231 0
-372 -277 101 1232 0
252 45 434 1233 0
196 340 -227 1234 0
431 -277 -140 1235 0
-210 -3 -187 1236 0
-1 100 -386 1237 0
-49 -379 -220 1238 0
494 -388 -102 1239 0
324 446 -435 1240 0
-213 35 -57 1241 0
-31 -248 -93 1242 0
162 -455 -175 1243 0
453 486 -61 1244 0
-142 -351 269 1245 0
-71 -393 394 1246 0
184 -211 106 1247 0
216 296 -476 1248 0
-315 -362 -84 1249 0
-294 93 101 1250 0
126 -382 396 1251 0
-472 -362 -65 1252 0
65 -492 7 1253 0
113 -178 -445 1254 0
419 355 171 1255 0
-295 -320 -337 1256 0
-314 -459 249 1257 0
160 394 120 1258 0
166 -76 392 1259 0
-90 311 -213 1260 0
68 126 36 1261 0
-109 40 -88 1262 0
29 -320 -80 1263 0
402 -131 -254 1264 0
-330 -383 -147 1265 0
408 -259 339 1266 0
395 -264 -258 1267 0
301 422 -317 1268 0
-499 -147 58 1269 0
109 -247 479 1270 0
78 -407 99 1271 0
-293 -377 31 1272 0
281 -227 -269 1273 0
-285 -417 -407 1274 0
-198 423 -349 1275 0
376 401 283 1276 0
-482 -190 424 1277 0
-208 -421 214 1278 0
159 326 421 1279 0
90 -69 38 1280 0
-345 280 118 1281 0
443 -20 -83 1282 0
13 406 246 1283 0
449 477 234 1284 0
62 -379 47 1285 0
-319 87 -305 1286 0
-298 283 376 1287 0
-228 398 308 1288 0
44 -113 195 1289 0
-471 484 -41 1290 0
69 -183 -78 1291 0
-297 427 21 1292 0
-129 -147 -171 1293 0
-25 347 -185 1294 0
325 92 434 1295 0
269 486 -309 1296 0
-342 -198 -334 1297 0
-171 -73 247 1298 0
415 189 -99 1299 0
-251 345 -416 1300 0
57 -108 257 1301 0
-126 -499 498 1302 0
201 -382 215 1303 0
-203 451 -267 1304 0
427 361 -355 1305 0
-12 -368 -86 1306 0
-120 73 195 1307 0
-477 236 -279 1308 0
129 -337 407 1309 0
45 -123 350 1310 0
-456 -491 112 1311 0
255 -260 -453 1312 0
264 -46 212 1313 0
429 181 -466 1314 0
-58 25 -466 1315 0
-47 -463 458 1316 0
-69 61 -117 1317 0
229 -219 -358 1318 0
329 -37 -111 1319 0
-320 -474 365 1320 0
189 199 295 1321 0
-102 315 -494 1322 0
-157 -316 333 1323 0
-462 52 183 1324 0
-104 -229 24 1325 0
-306 -433 54 1326 0
104 -157 -475 1327 0
-206 -130 322 1328 0
27 274 74 1329 0
-144 125 -494 1330 0
202 -78 348 1331 0
393 117 7 1332 0
-488 -23 -104 1333 0
-433 367 356 1334 0
-234 -415 -395 1335 0
314 85 137 1336 0
322 -415 -311 1337 0
227 58 176 1338 0
416 -57 115 1339 0
186 142 -166 1340 0
-314 -336 318 1341 0
304 -495 -435 1342 0
-396 320 437 1343 0
-202 -378 448 1344 0
479 407 -441 1345 0
-176 -140 309 1346 0
-34 94 398 1347 0
-301 426 -496 1348 0
-390 -210 -428 1349 0
-130 -483 -262 1350 0
484 -370 42 1351 0
-372 333 139 1352 0
-82 419 337 1353 0
-212 -234 197 1354 0
-393 -341 -15 1355 0
498 -288 21 1356 0
134 96 -330 1357 0
-320 13 -441 1358 0
261 457 73 1359 0
-65 -408 33 1360 0
135 383 -284 1361 0
371 -173 -222 1362 0
309 -453 342 1363 0
135 266 -294 1364 0
285 159 -255 1365 0
236 -339 422 1366 0
28 272 -40 1367 0
-381 132 -256 1368 0
360 260 486 1369 0
54 263 -281 1370 0
103 -355 401 1371 0
65 -84 -468 1372 0
-182 439 -21 1373 0
-447 68 99 1374 0
-449 -435 -333 1375 0
325 464 -306 1376 0
361 -174 60 1377 0
69 -380 -68 1378 0
-49 -417 -28 1379 0
-174 458 -148 1380 0
-500 398 478 1381 0
348 -335 -80 1382 0
322 -202 -24 1383 0
-199 -487 445 1384 0
227 16 -417 1385 0
-148 360 -464 1386 0
-473 494 364 1387 0
365 -432 80 1388 0
-467 -83 -25 1389 0
-65 393 -192 1390 0
-18 -399 -162 1391 0
299 -286 372 1392 0
-86 -81 235 1393 0
249 -253 -425 1394 0
406 -315 -262 1395 0
190 -322 -481 1396 0
99 -494 -207 1397 0
-369 -330 305 1398 0
-247 -357 259 1399 0
-464 -371 413 1400 0
-73 -388 -422 1401 0
3 265 -274 1402 0
-53 -314 -397 1403 0
-378 9 358 1404 0
333 260 493 1405 0
152 374 121 1406 0
370 -344 -263 1407 0
481 -116 75 1408 0
-392 490 -422 1409 0
39 -437 466 1410 0
211 172 261 1411 0
-190 114 -453 1412 0
32 315 341 1413 0
-144 -381 -369 1414 0
275 111 321 1415 0
-327 -68 55 1416 0
-361 141 -439 1417 0
-248 -443 -464 1418 0
-129 389 125 1419 0
-314 274 414 1420 0
-204 -469 -430 1421 0
71 61 98 1422 0
70 370 41 1423 0
-82 -249 -387 1424 0
-98 -126 310 1425 0
226 369 -166 1426 0
268 -186 -422 1427 0
-258 -350 -81 1428 0
-471 -136 -164 1429 0
-31 145 -211 1430 0
47 251 448 1431 0
84 382 -33 1432 0
-130 -248 269 1433 0
165 77 -477 1434 0
-128 132 -24 1435 0
-188 424 258 1436 0
-132 125 -240 1437 0
-142 -345 266 1438 0
-24 -418 -93 1439 0
-419 -431 415 1440 0
-476 198 -93 1441 0
-19 -232 275 1442 0
186 168 303 1443 0
301 -352 -52 1444 0
236 -92 204 1445 0
-253 -106 -86 1446 0
52 -15 -137 1447 0
-88 -431 -419 1448 0
169 441 -469 1449 0
197 75 -221 1450 0
465 163 383 1451 0
252 -40 -120 1452 0
-357 -450 50 1453 0
-97 19 -290 1454 0
165 464 271 1455 0
-374 -160 53 1456 0
82 7 -53 1457 0
414 -189 313 1458 0
280 -474 -82 1459 0
-459 387 -457 1460 0
419 322 177 1461 0
-461 472 377 1462 0
-199 452 415 1463 0
-430 171 471 1464 0
72 -92 68 1465 0
-470 22 242 1466 0
25 -207 -99 1467 0
398 -147 -348 1468 0
-460 486 148 1469 0
318 357 469 1470 0
157 430 206 1471 0
27 421 -467 1472 0
300 -18 -136 1473 0
-338 -114 -361 1474 0
174 -277 -282 1475 0
-316 309 -293 1476 0
-370 -422 -277 1477 0
282 -179 54 1478 0
-230 177 349 1479 0
82 46 412 1480 0
-299 362 -71 1481 0
134 -43 -431 1482 0
218 439 428 1483 0
-197 449 -259 1484 0
-10 353 81 1485 0
-455 173 -106 1486 0
115 43 -58 1487 0
-448 498 98 1488 0
297 191 -229 1489 0
-218 105 313 1490 0
248 -409 -371 1491 0
10 -474 406 1492 0
-374 -342 460 1493 0
-223 -16 181 1494 0
345 273 479 1495 0
-118 -424 481 1496 0
-369 349 -85 1497 0
-380 -230 171 1498 0
-468 340 -381 1499 0
-9 110 -419 1500 0
-335 -74 360 1501 0
215 403 242 1502 0
434 348 168 1503 0
-325 -243 -227 1504 0
110 -297 149 1505 0
435 181 -103 1506 0
-285 -166 -500 1507 0
-345 468 348 1508 0
-170 47 376 1509 0
-369 112 43 1510 0
125 -317 419 1511 0
140 -135 -256 1512 0
-446 -100 116 1513 0
-92 -450 289 1514 0
-297 259 -97 1515 0
-166 149 476 1516 0
438 -481 -192 1517 0
-89 493 -211 1518 0
495 -492 283 1519 0
493 221 -60 1520 0
-434 -493 -415 1521 0
362 270 -435 1522 0
239 167 122 1523 0
28 -358 -351 1524 0
58 420 346 1525 0
-144 -416 -322 1526 0
27 -483 362 1527 0
-351 -292 183 1528 0
418 -214 -420 1529 0
-371 -173 300 1530 0
-406 -473 -158 1531 0
155 -316 197 1532 0
259 -475 428 1533 0
-284 -491 475 1534 0
-38 320 -298 1535 0
-119 -134 355 1536 0
250 -285 -28 1537 0
-121 26 106 1538 0
156 287 391 1539 0
-388 115 -6 1540 0
-112 241 460 1541 0
-15 -66 -73 1542 0
384 -39 498 1543 0
395 326 -117 1544 0
-344 -123 -166 1545 0
474 -103 -452 1546 0
-431 -167 -209 1547 0
-38 60 197 1548 0
420 -153 -319 1549 0
393 -67 -445 1550 0
-352 -355 385 1551 0
311 227 -355 1552 0
-413 189 -197 1553 0
-380 256 -237 1554 0
255 107 81 1555 0
-52 -311 37 1556 0
-437 229 352 1557 0
-191 -117 -484 1558 0
-63 476 490 1559 0
200 -274 382 1560 0
-235 9 -470 1561 0
-408 93 141 1562 0
-385 -368 -381 1563 0
-359 -34 320 1564 0
478 -68 -313 1565 0
-383 58 311 1566 0
498 -133 437 1567 0
266 -119 -321 1568 0
91 428 139 1569 0
404 13 -44 1570 0
433 271 79 1571 0
43 -63 -196 1572 0
85 -22 278 1573 0
135 265 -232 1574 0
-46 -330 44 1575 0
-71 164 95 1576 0
414 256 -458 1577 0
331 351 243 1578 0
-76 -443 -136 1579 0
-287 -359 351 1580 0
-201 -356 -212 1581 0
145 -439 -323 1582 0
-291 -187 -428 1583 0
162 -311 183 1584 0
188 97 21 1585 0
406 370 460 1586 0
-385 297 -295 1587 0
-427 -39 -44 1588 0
-339 127 393 1589 0
-294 214 498 1590 0
-241 -109 -48 1591 0
-425 -237 106 1592 0
-138 -395 -399 1593 0
-483 -341 140 1594 0
91 -496 25 1595 0
365 356 -79 1596 0
-383 -258 89 1597 0
-483 122 -464 1598 0
-382 -138 -413 1599 0
157 346 -435 1600 0
-31 -477 263 1601 0
-492 -330 -468 1602 0
257 -358 -273 1603 0
-173 -413 62 1604 0
-87 -487 -380 1605 0
-406 483 -455 1606 0
191 -352 -207 1607 0
-267 86 -220 1608 0
-133 51 -105 1609 0
385 19 197 1610 0
-465 -46 -376 1611 0
-29 -357 -384 1612 0
182 407 -180 1613 0
-290 -120 340 1614 0
478 379 253 1615 0
198 57 251 1616 0
395 -394 -407 1617 0
271 99 -354 1618 0
481 -316 -437 1619 0
129 -342 320 1620 0
394 370 -445 1621 0
-223 203 21 1622 0
-333 -450 -276 1623 0
-218 115 -88 1624 0
-418 201 365 1625 0
-413 -44 -384 1626 0
-376 -321 314 1627 0
63 113 -141 1628 0
-460 -294 -129 1629 0
391 -431 -254 1630 0
110 150 96 1631 0
-388 -390 418 1632 0
-342 -393 223 1633 0
314 -304 312 1634 0
453 -19 154 1635 0
326 -305 21 1636 0
-36 -467 -261 1637 0
-354 340 328 1638 0
-494 47 -204 1639 0
-206 368 -406 1640 0
11 43 337 1641 0
-20 -176 -93 1642 0
-31 -6 299 1643 0
394 264 224 1644 0
371 -398 -146 1645 0
-428 317 456 1646 0
466 -35 65 1647 0
130 -434 -311 1648 0
-422 41 -174 1649 0
218 -114 46 1650 0
-439 -337 -241 1651 0
-73 -53 52 1652 0
53 -141 -451 1653 0
259 -156 252 1654 0
373 198 -100 1655 0
214 313 207 1656 0
-3 -440 -362 1657 0
78 131 25 1658 0
371 312 229 1659 0
185 220 -332 1660 0
62 351 -302 1661 0
169 -187 138 1662 0
491 287 -16 1663 0
-194 -64 -326 1664 0
345 -425 -93 1665 0
393 446 -274 1666 0
477 -200 275 1667 0
480 150 475 1668 0
-445 -86 448 1669 0
57 31 397 1670 0
-270 -499 142 1671 0
78 -143 -454 1672 0
-386 -351 332 1673 0
411 -340 -24 1674 0
387 -209 -384 1675 0
-317 -314 -266 1676 0
-195 -1 -251 1677 0
87 -483 -491 1678 0
-223 462 390 1679 0
44 21 439 1680 0
-463 171 260 1681 0
32 379 -351 1682 0
-232 -447 4 1683 0
-260 -420 61 1684 0
433 -111 -75 1685 0
347 -404 409 1686 0
69 121 489 1687 0
-324 -152 411 1688 0
-374 339 116 1689 0
-170 -474 -79 1690 0
-384 162 262 1691 0
186 -407 -405 1692 0
-437 388 277 1693 0
-152 44 66 1694 0
-35 -106 448 1695 0
-176 -303 428 1696 0
-161 325 128 1697 0
209 495 168 1698 0
19 -242 -366 1699 0
-130 -144 199 1700 0
-120 -398 -295 1701 0
296 -246 -214 1702 0
462 157 294 1703 0
-430 -258 427 1704 0
-23 -13 -140 1705 0
-303 43 -127 1706 0
149 193 170 1707 0
69 71 -160 1708 0
-412 -305 365 1709 0
106 -224 483 1710 0
217 -273 419 1711 0
401 -262 -83 1712 0
105 -381 460 1713 0
-6 444 7 1714 0
168 469 228 1715 0
485 -219 -73 1716 0
-76 200 -396 1717 0
-136 387 399 1718 0
287 234 1 1719 0
197 106 -358 1720 0
-287 -21 431 1721 0
226 36 231 1722 0
-19 341 -94 1723 0
471 -381 -476 1724 0
-251 459 428 1725 0
-234 280 72 1726 0
421 -328 414 1727 0
-417 54 120 1728 0
121 -239 280 1729 0
170 -109 -135 1730 0
376 -175 46 1731 0
182 448 -298 1732 0
-356 133 344 1733 0
-293 364 224 1734 0
-277 393 -189 1735 0
55 -269 -479 1736 0
231 470 198 1737 0
113 -102 -206 1738 0
-436 -380 90 1739 0
438 25 280 1740 0
-10 -494 -47 1741 0
380 -286 -124 1742 0
-240 244 -484 1743 0
132 -320 316 1744 0
-488 -139 252 1745 0
-174 -365 -482 1746 0
18 23 -288 1747 0
136 -5 54 1748 0
-239 201 332 1749 0
-336 -17 434 1750 0
-291 218 -59 1751 0
11 43 338 1752 0
269 -50 384 1753 0
36 425 155 1754 0
-194 172 43 1755 0
212 -490 -317 1756 0
101 475 158 1757 0
-267 439 -440 1758 0
-232 -326 -119 1759 0
281 271 118 1760 0
109 355 83 1761 0
399 -350 279 1762 0
-8 97 -50 1763 0
-9 49 -105 1764 0
-248 -492 -138 1765 0
108 -475 123 1766 0
471 -202 -317 1767 0
-102 294 -225 1768 0
-253 457 -182 1769 0
-119 -200 247 1770 0
325 -490 -331 1771 0
201 -469 75 1772 0
-316 -85 -399 1773 0
-184 93 260 1774 0
-126 -357 -283 1775 0
399 -237 -445 1776 0
-8 -137 -257 1777 0
-251 -368 109 1778 0
105 322 -287 1779 0
346 45 -407 1780 0
488 130 348 1781 0
-314 463 441 1782 0
-197 -133 56 1783 0
-462 -168 -331 1784 0
-200 -98 135 1785 0
38 -351 391 1786 0
241 -271 265 1787 0
101 269 6 1788 0
281 -61 -471 1789 0
52 413 406 1790 0
315 -266 436 1791 0
-366 485 477 1792 0
-481 -114 -399 1793 0
228 447 -336 1794 0
-202 -357 415 1795 0
30 -256 -232 1796 0
404 234 411 1797 0
322 -290 263 1798 0
134 448 132 1799 0
171 406 395 1800 0
-395 -189 195 1801 0
460 -282 -299 1802 0
-179 262 42 1803 0
-118 -497 -87 1804 0
485 324 78 1805 0
-113 55 -31 1806 0
65 -196 -406 1807 0
86 123 108 1808 0
-381 -108 89 1809 0
-474 301 -427 1810 0
92 -240 -173 1811 0
435 -43 411 1812 0
281 441 372 1813 0
281 124 277 1814 0
-133 -35 -438 1815 0
-350 32 347 1816 0
-207 489 210 1817 0
103 140 -134 1818 0
283 -369 432 1819 0
69 -211 -235 1820 0
-36 -144 414 1821 0
-46 -105 162 1822 0
371 447 -260 1823 0
84 -45 125 1824 0
184 -57 288 1825 0
-379 -158 151 1826 0
-349 -480 -67 1827 0
417 -12 222 1828 0
193 54 472 1829 0
225 -231 115 1830 0
499 -291 -498 1831 0
229 454 -294 1832 0
-491 -457 -296 1833 0
-452 -284 -181 1834 0
289 -335 -186 1835 0
-25 64 309 1836 0
-236 -292 -412 1837 0
-174 423 -318 1838 0
423 -363 -40 1839 0
250 -116 307 1840 0
-345 -335 383 1841 0
-319 457 -473 1842 0
347 395 338 1843 0
-56 -76 49 1844 0
299 204 -293 1845 0
-34 223 86 1846 0
398 -50 -293 1847 0
118 -234 184 1848 0
133 -244 279 1849 0
-454 -426 -198 1850 0
329 197 -395 1851 0
-170 201 367 1852 0
-272 32 -16 1853 0
-300 38 -415 1854 0
436 -37 -156 1855 0
-304 140 159 1856 0
168 343 489 1857 0
180 -427 -314 1858 0
-497 435 -295 1859 0
-283 154 270 1860 0
473 64 434 1861 0
-91 -198 -374 1862 0
250 -271 -194 1863 0
459 69 122 1864 0
-329 -317 60 1865 0
-272 479 384 1866 0
121 426 -432 1867 0
415 49 304 1868 0
167 -89 -289 1869 0
-144 415 -215 1870 0
-232 -187 -45 1871 0
-1 -469 -296 1872 0
-453 188 -283 1873 0
-500 -98 -370 1874 0
-281 -70 412 1875 0
220 367 53 1876 0
90 -9 -418 1877 0
-397 -304 391 1878 0
170 -76 -370 1879 0
393 -390 -318 1880 0
-183 -313 127 1881 0
35 116 127 1882 0
43 -116 -144 1883 0
-426 -210 -294 1884 0
128 -294 -383 1885 0
-414 -488 412 1886 0
388 -221 -325 1887 0
-305 -364 301 1888 0
-273 108 232 1889 0
175 -188 229 1890 0
-297 -351 -498 1891 0
141 15 426 1892 0
396 166 -340 1893 0
391 -18 -204 1894 0
253 -221 268 1895 0
483 264 390 1896 0
110 9 -253 1897 0
286 -425 -165 1898 0
-219 -491 -73 1899 0
-311 -206 -75 1900 0
-429 326 -466 1901 0
158 58 302 1902 0
-166 -11 384 1903 0
-15 205 -126 1904 0
476 -384 279 1905 0
218 439 157 1906 0
80 -204 -330 1907 0
-454 -94 459 1908 0
462 -64 268 1909 0
263 -280 -3 1910 0
34 -64 -217 1911 0
436 276 -227 1912 0
265 -228 133 1913 0
-108 -5 14 1914 0
32 419 57 1915 0
178 -43 213 1916 0
386 -166 -72 1917 0
443 75 47 1918 0
47 314 -96 1919 0
250 -291 -323 1920 0
351 410 -181 1921 0
346 -75 -167 1922 0
452 -426 176 1923 0
212 11 317 1924 0
-346 293 477 1925 0
-106 -308 56 1926 0
-459 386 185 1927 0
33 25 208 1928 0
493 96 -197 1929 0
-380 34 -329 1930 0
4 -17 309 1931 0
-481 -482 -302 1932 0
-409 477 231 1933 0
-353 279 -475 1934 0
484 -315 -474 1935 0
-442 -344 -83 1936 0
430 353 485 1937 0
-258 254 368 1938 0
-476 -209 36 1939 0
-218 352 -283 1940 0
457 196 -38 1941 0
-403 174 134 1942 0
-226 -318 122 1943 0
-143 -238 -97 1944 0
129 -162 270 1945 0
489 -143 380 1946 0
-453 256 20 1947 0
-451 -492 -59 1948 0
-272 392 -7 1949 0
-83 -15 -302 1950 0
-238 -91 395 1951 0
147 -308 -292 1952 0
-463 188 247 1953 0
436 -149 203 1954 0
291 -213 -212 1955 0
313 404 -442 1956 0
-481 192 -401 1957 0
-249 344 -345 1958 0
309 -185 417 1959 0
438 -195 -493 1960 0
42 -7 72 1961 0
248 -498 -257 1962 0
-29 487 -409 1963 0
10 -169 -146 1964 0
-291 -310 167 1965 0
-16 499 485 1966 0
-442 -44 -411 1967 0
-167 145 20 1968 0
-128 -242 121 1969 0
-162 173 -459 1970 0
-120 -337 214 1971 0
202 76 234 1972 0
118 -299 221 1973 0
-99 242 -1 1974 0
263 -66 363 1975 0
-363 -339 92 1976 0
-432 235 355 1977 0
-409 -456 -132 1978 0
204 372 420 1979 0
-102 -122 63 1980 0
-494 259 307 1981 0
-53 157 210 1982 0
483 -261 339 1983 0
-425 -310 -276 1984 0
-381 -472 263 1985 0
108 189 -221 1986 0
-1 -46 217 1987 0
-362 -280 316 1988 0
-16 491 356 1989 0
55 25 155 1990 0
334 -343 -358 1991 0
41 -176 374 1992 0
-61 253 -345 1993 0
115 -183 -295 1994 0
26 373 312 1995 0
-302 -60 -293 1996 0
-450 -50 -177 1997 0
-44 57 -465 1998 0
-42 -361 -154 1999 0
315 -49 -237 2000 0
293 420 -295 2001 0
5 -94 -352 2002 0
306 488 -172 2003 0
-301 118 133 2004 0
369 366 -484 2005 0
-336 233 -133 2006 0
-144 392 162 2007 0
-456 -47 267 2008 0
288 -376 -189 2009 0
-119 136 439 2010 0
-426 207 -427 2011 0
127 93 -37 2012 0
-293 -132 -403 2013 0
-277 22 15 2014 0
-387 -31 214 2015 0
-257 87 444 2016 0
441 -314 258 2017 0
219 399 -339 2018 0
-59 112 -478 2019 0
492 461 -442 2020 0
258 -220 106 2021 0
295 -452 315 2022 0
97 486 -428 2023 0
92 -209 293 2024 0
-87 286 236 2025 0
268 -355 -370 2026 0
-235 395 22 2027 0
211 96 -373 2028 0
250 -216 -280 2029 0
384 229 211 2030 0
131 303 -470 2031 0
63 344 -328 2032 0
-244 116 241 2033 0
-99 318 -134 2034 0
416 351 -146 2035 0
-193 -159 -477 2036 0
-190 239 199 2037 0
-48 -373 338 2038 0
-376 -18 -466 2039 0
69 320 -280 2040 0
264 318 -374 2041 0
140 -299 -465 2042 0
468 133 471 2043 0
-98 256 464 2044 0
487 -347 392 2045 0
-433 361 -72 2046 0
247 -92 -49 2047 0
179 232 -212 2048 0
151 262 -422 2049 0
-99 197 -142 2050 0
-374 -238 499 2051 0
321 373 51 2052 0
-164 -172 -406 2053 0
46 43 235 2054 0
-135 302 -20 2055 0
-405 -353 -322 2056 0
-229 387 -237 2057 0
261 287 -122 2058 0
-29 -429 322 2059 0
-9 418 -253 2060 0
154 -418 459 2061 0
440 -63 431 2062 0
110 215 139 2063 0
207 441 320 2064 0
-423 -215 -278 2065 0
-475 -109 429 2066 0
360 -210 381 2067 0
-499 -121 174 2068 0
260 101 -41 2069 0
-209 -48 -421 2070 0
-342 -473 -279 2071 0
-107 31 -22 2072 0
-50 -492 -115 2073 0
478 438 452 2074 0
-202 -241 -103 2075 0
-10 180 63 2076 0
457 -40 -134 2077 0
-237 -6 -37 2078 0
-264 114 257 2079 0
399 -81 -167 2080 0
-460 -314 221 2081 0
500 329 161 2082 0
292 464 227 2083 0
124 -44 191 2084 0
167 -464 -65 2085 0
-165 -366 219 2086 0
193 456 -309 2087 0
87 459 144 2088 0
243 -325 -83 2089 0
343 151 -207 2090 0
387 -189 -411 2091 0
312 -421 -340 2092 0
154 -259 70 2093 0
496 201 290 2094 0
48 -500 -430 2095 0
82 -194 -46 2096 0
15 283 -106 2097 0
-497 -168 -44 2098 0
154 108 187 2099 0
-68 280 74 2100 0
68 -443 328 2101 0
135 336 341 2102 0
194 -230 -75 2103 0
339 -435 212 2104 0
-170 8 -375 2105 0
126 -402 -436 2106 0
479 -417 -196 2107 0
307 211 386 2108 0
-346 -442 -9 2109 0
-96 -120 207 2110 0
-233 -467 366 2111 0
-492 -131 432 2112 0
-440 309 255 2113 0
-68 -99 450 2114 0
-493 -463 372 2115 0
406 -3 171 2116 0
234 -134 422 2117 0
-211 370 285 2118 0
-75 222 157 2119 0
-1 -52 -332 2120 0
132 246 94 2121 0
166 438 -467 2122 0
-107 -119 -373 2123 0
-430 -498 377 2124 0
-484 -145 432 2125 0
253 197 -54 2126 0
371 101 22 2127 0
463 312 32 2128 0
70 -241 -275 2129 0
221 124 -411 2130 0
98 -420 285 2131 0
-62 -401 -273 2132 0
-232 495 470 2133 0
314 207 244 2134 0
127 -492 211 2135 0
-393 -209 -498 2136 0
185 -80 -267 2137 0
-130 -471 -10 2138 0
-373 -59 -365 2139 0
29 -352 61 2140 0
-195 371 433 2141 0
-273 206 -167 2142 0
-286 -384 -414 2143 0
-247 128 -306 2144 0
483 98 -123 2145 0
430 -409 261 2146 0
-104 -468 -235 2147 0
-114 375 37 2148 0
-216 -332 74 2149 0
194 -496 148 2150 0
39 -390 310 2151 0
-227 332 -100 2152 0
316 391 149 2153 0
-255 160 205 2154 0
404 -292 303 2155 0
197 104 -377 2156 0
-373 440 77 2157 0
366 443 -72 2158 0
267 164 -447 2159 0
491 396 321 2160 0
-412 496 -280 2161 0
219 -377 -418 2162 0
105 -60 95 2163 0
185 11 177 2164 0
260 -265 -94 2165 0
417 141 -240 2166 0
-160 -468 -261 2167 0
158 -317 260 2168 0
-321 -53 277 2169 0
-34 -283 -273 2170 0
-166 319 380 2171 0
-436 412 -268 2172 0
64 -248 -445 2173 0
-492 -236 344 2174 0
-259 13 -294 2175 0
56 -489 14 2176 0
110 63 -88 2177 0
110 -333 -54 2178 0
319 -31 468 2179 0
-195 242 -219 2180 0
288 -74 208 2181 0
431 367 23 2182 0
-275 459 -352 2183 0
158 -482 -414 2184 0
370 -442 118 2185 0
-225 345 153 2186 0
238 -317 334 2187 0
-82 -275 138 2188 0
-178 -77 -51 2189 0
314 -19 312 2190 0
-476 -417 -405 2191 0
-366 -18 118 2192 0
10 167 132 2193 0
176 -287 316 2194 0
-171 -378 -225 2195 0
-37 79 -339 2196 0
-345 -251 -134 2197 0
-96 -271 -252 2198 0
196 491 500 2199 0
95 289 -189 2200 0
424 -365 -402 2201 0
478 85 -471 2202 0
-236 486 -305 2203 0
63 48 454 2204 0
484 -251 305 2205 0
450 -147 85 2206 0
-106 -320 -247 2207 0
-171 44 370 2208 0
276 -370 -29 2209 0
-230 489 441 2210 0
-414 324 166 2211 0
-162 -91 -113 2212 0
-117 187 277 2213 0
270 313 405 2214 0
-429 -364 -109 2215 0
-322 119 451 2216 0
115 -413 -354 2217 0
484 136 27 2218 0
-370 290 366 2219 0
-394 426 14 2220 0
384 -260 144 2221 0
-180 -410 -378 2222 0
-165 -31 420 2223 0
85 -388 262 2224 0
54 -446 333 2225 0
-50 274 103 2226 0
438 -341 -364 2227 0
248 460 -134 2228 0
-181 453 -429 2229 0
-89 -226 -191 2230 0
123 -151 -252 2231 0
171 361 122 2232 0
274 -287 -400 2233 0
-150 15 -342 2234 0
51 404 -131 2235 0
160 -258 -143 2236 0
387 -24 29 2237 0
-210 -122 -283 2238 0
499 -164 483 2239 0
-241 177 -435 2240 0
-334 -187 489 2241 0
468 -203 329 2242 0
303 -489 16 2243 0
400 159 97 2244 0
475 -2 70 2245 0
-2 -492 -244 2246 0
175 -382 -109 2247 0
106 370 -310 2248 0
81 295 281 2249 0
-268 396 39 2250 0
-46 -346 210 2251 0
-34 500 102 2252 0
-142 -323 -79 2253 0
210 -137 318 2254 0
-63 -423 90 2255 0
196 -272 264 2256 0
466 273 -473 2257 0
21 63 394 2258 0
475 299 -308 2259 0
158 -95 -52 2260 0
239 301 326 2261 0
-76 -52 48 2262 0
-314 -24 142 2263 0
98 159 -173 2264 0
-135 -241 309 2265 0
206 497 336 2266 0
-424 -155 -18 2267 0
402 193 43 2268 0
416 -18 379 2269 0
441 -497 225 2270 0
487 -318 -76 2271 0
-412 355 -406 2272 0
373 336 472 2273 0
207 -110 151 2274 0
314 -28 70 2275 0
-166 405 -500 2276 0
296 229 22 2277 0
-311 219 302 2278 0
-201 -231 498 2279 0
-45 -82 399 2280 0
339 114 63 2281 0
-85 67 -242 2282 0
-150 -73 353 2283 0
338 134 -120 2284 0
-174 -358 -231 2285 0
-89 -108 -92 2286 0
355 -234 439 2287 0
496 -430 -491 2288 0
-12 108 251 2289 0
-412 233 -397 2290 0
456 -420 483 2291 0
-110 -162 -90 2292 0
264 -134 74 2293 0
37 237 401 2294 0
-25 -92 -301 2295 0
-303 -461 -486 2296 0
-413 -230 -340 2297 0
-375 -219 -335 2298 0
94 175 -288 2299 0
-10 -50 34 2300 0
-477 219 487 2301 0
-304 -258 269 2302 0
389 399 -469 2303 0
-118 -378 174 2304 0
-138 109 -182 2305 0
85 -200 -201 2306 0
9 -419 323 2307 0
-323 492 171 2308 0
262 -353 -390 2309 0
160 -222 432 2310 0
-226 -434 37 2311 0
375 -18 -301 2312 0
230 258 -495 2313 0
439 -418 -493 2314 0
-226 -468 -266 2315 0
164 207 -377 2316 0
117 466 201 2317 0
99 280 -379 2318 0
-270 -455 198 2319 0
-52 195 -31 2320 0
-466 38 154 2321 0
-263 -500 -451 2322 0
-357 -1 -423 2323 0
-23 280 -459 2324 0
78 -141 19 2325 0
-399 131 51 2326 0
-239 -136 -315 2327 0
-200 -175 317 2328 0
311 107 444 2329 0
-290 -75 -248 2330 0
176 275 8 2331 0
-20 -136 297 2332 0
-256 76 291 2333 0
369 59 -360 2334 0
-439 -15 71 2335 0
309 124 366 2336 0
163 308 -79 2337 0
-297 -460 -14 2338 0
224 153 -408 2339 0
427 125 493 2340 0
-26 -471 258 2341 0
424 -450 71 2342 0
329 -338 9 2343 0
-494 356 61 2344 0
-199 -315 11 2345 0
231 419 347 2346 0
70 211 114 2347 0
21 426 -240 2348 0
-306 312 -222 2349 0
218 -237 -427 2350 0
151 -60 458 2351 0
320 -141 264 2352 0
-59 -337 -136 2353 0
-253 113 305 2354 0
111 -208 -483 2355 0
-324 338 180 2356 0
89 124 -154 2357 0
239 340 -454 2358 0
-196 193 -376 2359 0
-281 220 -478 2360 0
38 -350 170 2361 0
30 163 170 2362 0
-169 -424 418 2363 0
457 135 -483 2364 0
147 197 -152 2365 0
121 56 -74 2366 0
8 -439 166 2367 0
17 257 246 2368 0
6 -190 -335 2369 0
117 448 245 2370 0
-55 58 -41 2371 0
-437 -178 -197 2372 0
312 -221 -1 2373 0
-495 -50 -302 2374 0
483 169 -500 2375 0
-127 362 -299 2376 0
418 -399 -353 2377 0
-293 -198 206 2378 0
-354 234 330 2379 0
-246 156 219 2380 0
-250 -216 -49 2381 0
348 -494 -186 2382 0
-84 239 -110 2383 0
294 -253 -80 2384 0
-489 132 -166 2385 0
258 357 393 2386 0
359 437 341 2387 0
132 472 -394 2388 0
188 162 360 2389 0
-195 208 385 2390 0
-138 -397 372 2391 0
286 -162 -379 2392 0
-193 46 156 2393 0
88 -83 -87 2394 0
-382 -163 -477 2395 0
-285 490 339 2396 0
-177 120 -403 2397 0
-484 -155 -212 2398 0
-135 128 55 2399 0
475 -382 -403 2400 0
-285 -134 327 2401 0
124 86 -169 2402 0
-276 -179 -397 2403 0
-207 -469 6 2404 0
105 -275 161 2405 0
52 -168 476 2406 0
98 214 -199 2407 0
-114 473 337 2408 0
-372 231 -455 2409 0
-99 -165 -55 2410 0
-177 201 255 2411 0
65 388 2 2412 0
-329 47 309 2413 0
464 -350 292 2414 0
123 -144 180 2415 0
354 -369 111 2416 0
-112 52 231 2417 0
-421 215 264 2418 0
-463 341 -187 2419 0
-498 478 -176 2420 0
490 259 294 2421 0
-309 -260 -295 2422 0
107 -204 288 2423 0
377 37 -99 2424 0
369 482 85 2425 0
103 190 273 2426 0
-42 66 -150 2427 0
-322 -332 -190 2428 0
427 -119 -202 2429 0
383 52 397 2430 0
410 -138 314 2431 0
238 -403 345 2432 0
378 -106 423 2433 0
434 -104 -151 2434 0
471 314 -80 2435 0
-497 141 -452 2436 0
432 -226 415 2437 0
-310 201 -268 2438 0
-460 -187 -142 2439 0
-99 -193 485 2440 0
38 283 69 2441 0
-31 -170 -210 2442 0
273 424 100 2443 0
-239 390 -23 2444 0
133 406 392 2445 0
-399 70 414 2446 0
-18 396 -176 2447 0
-500 -260 -135 2448 0
-290 -354 487 2449 0
-399 318 40 2450 0
450 168 -465 2451 0
262 -31 -285 2452 0
318 -171 -37 2453 0
-191 -204 141 2454 0
41 292 95 2455 0
-328 188 -336 2456 0
122 -349 77 2457 0
69 -490 183 2458 0
-66 481 -134 2459 0
-160 485 -260 2460 0
114 -255 -295 2461 0
109 -87 194 2462 0
-292 202 496 2463 0
-21 486 -80 2464 0
-321 246 -140 2465 0
-283 -391 -212 2466 0
470 -398 -26 2467 0
391 412 -370 2468 0
-406 52 -232 2469 0
-37 273 -78 2470 0
-364 205 15 2471 0
238 -261 56 2472 0
260 214 126 2473 0
-435 437 -146 2474 0
472 105 -90 2475 0
-26 446 43 2476 0
455 371 -133 2477 0
-20 -402 297 2478 0
-456 -420 -204 2479 0
-487 7 10 2480 0
-393 -97 -58 2481 0
-411 120 -159 2482 0
353 157 270 2483 0
-103 -460 -12 2484 0
-86 139 -98 2485 0
323 -156 -355 2486 0
-462 399 -171 2487 0
-452 228 -235 2488 0
-283 -100 197 2489 0
81 -214 -423 2490 0
239 -340 386 2491 0
-251 -7 -146 2492 0
397 220 149 2493 0
-398 -207 -488 2494 0
-261 80 348 2495 0
-72 95 20 2496 0
3 -223 9 2497 0
348 209 -71 2498 0
-238 408 347 2499 0
378 -461 -405 2500 0
-150 26 -160 2501 0
-320 416 -107 2502 0
-124 -464 314 2503 0
-101 -418 -241 2504 0
-27 -110 -99 2505 0
-63 -89 -322 2506 0
-397 -282 -499 2507 0
-203 -17 -103 2508 0
43 347 -483 2509 0
473 -252 211 2510 0
351 -191 1 2511 0
-91 -408 7 2512 0
220 -53 41 2513 0
8 -144 -180 2514 0
98 8 -328 2515 0
-110 375 -437 2516 0
343 460 7 2517 0
-171 -318 385 2518 0
335 15 -129 2519 0
380 -117 -409 2520 0
-197 -284 -216 2521 0
-345 459 -172 2522 0
193 388 -326 2523 0
-496 -349 55 2524 0
-64 131 -123 2525 0
-236 77 -413 2526 0
-416 488 -250 2527 0
283 -83 -68 2528 0
-65 -482 -391 2529 0
-421 303 331 2530 0
303 -52 -353 2531 0
-425 187 467 2532 0
96 229 405 2533 0
-76 354 43 2534 0
209 -136 -327 2535 0
-238 174 -402 2536 0
-423 -97 -302 2537 0
-422 -407 388 2538 0
-93 419 -157 2539 0
-186 -266 474 2540 0
28 -270 411 2541 0
-417 -176 -96 2542 0
264 -324 233 2543 0
215 101 83 2544 0
-261 304 397 2545 0
-361 181 -151 2546 0
-104 -179 421 2547 0
-239 142 -223 2548 0
-414 206 434 2549 0
-405 334 43 2550 0
245 -418 -489 2551 0
-117 91 238 2552 0
79 367 52 2553 0
143 128 37 2554 0
-93 396 235 2555 0
-52 283 -259 2556 0
389 -210 477 2557 0
-80 252 205 2558 0
-186 -389 341 2559 0
152 142 -51 2560 0
409 188 -464 2561 0
-258 90 380 2562 0
206 347 395 2563 0
329 157 248 2564 0
377 133 -236 2565 0
-99 -378 177 2566 0
-248 -440 -277 2567 0
-260 -408 491 2568 0
-400 -111 12 2569 0
303 338 -350 2570 0
407 -261 -488 2571 0
320 181 -387 2572 0
355 -452 348 2573 0
-121 117 229 2574 0
-42 329 -265 2575 0
100 -354 -96 2576 0
-123 64 -10 2577 0
365 -149 87 2578 0
-448 -233 -430 2579 0
449 -250 -487 2580 0
-83 255 -323 2581 0
-335 371 -110 2582 0
-48 124 329 2583 0
-380 -321 -347 2584 0
389 -460 140 2585 0
-98 -428 474 2586 0
206 63 -416 2587 0
-490 380 -352 2588 0
-483 89 -171 2589 0
372 -63 -290 2590 0
102 -148 -174 2591 0
243 397 410 2592 0
-364 -453 -421 2593 0
354 -270 -494 2594 0
460 -207 248 2595 0
363 -260 -339 2596 0
-49 163 65 2597 0
-276 -200 -55 2598 0
-400 -213 306 2599 0
36 305 -299 2600 0
53 98 60 2601 0
80 -449 -425 2602 0
71 343 -275 2603 0
233 -113 -259 2604 0
-379 -497 -498 2605 0
102 479 -24 2606 0
-150 -158 -372 2607 0
180 -247 -393 2608 0
-492 -314 127 2609 0
-35 -36 -54 2610 0
-127 12 -244 2611 0
-93 -325 398 2612 0
451 -37 131 2613 0
454 -200 -80 2614 0
-168 -289 462 2615 0
77 -139 42 2616 0
217 -425 -447 2617 0
-315 -239 -19 2618 0
-180 229 -308 2619 0
-76 -90 61 2620 0
360 -268 19 2621 0
477 384 -144 2622 0
-397 -100 -193 2623 0
406 407 264 2624 0
196 292 58 2625 0
-143 -298 85 2626 0
-213 -315 463 2627 0
283 111 476 2628 0
328 119 -376 2629 0
258 -179 -187 2630 0
-262 30 157 2631 0
159 -88 186 2632 0
156 346 -476 2633 0
-373 120 452 2634 0
320 243 417 2635 0
9 -491 317 2636 0
291 -342 -369 2637 0
-317 107 -218 2638 0
-27 -359 -231 2639 0
395 344 -327 2640 0
76 274 -126 2641 0
-373 -300 -476 2642 0
-224 306 396 2643 0
476 -175 378 2644 0
-1 -69 103 2645 0
-147 158 37 2646 0
194 199 17 2647 0
205 -485 -309 2648 0
-73 -418 214 2649 0
-368 -235 276 2650 0
