p cnf 2650 2150
209 -384 67 501 0
73 129 477 502 0
-267 -15 143 503 0
-38 -155 -306 504 0
490 -363 414 505 0
400 457 284 506 0
198 -398 -65 507 0
-190 474 40 508 0
349 336 -180 509 0
-382 -318 -288 510 0
143 -483 412 511 0
-37 -346 -355 512 0
-48 79 294 513 0
-335 355 -339 514 0
-46 86 -217 515 0
470 -9 -46 516 0
391 387 360 517 0
74 -67 -275 518 0
-74 379 269 519 0
-199 267 66 520 0
-271 295 -411 521 0
196 66 376 522 0
136 -93 310 523 0
-437 -110 -314 524 0
198 276 57 525 0
-236 -398 -371 526 0
58 -116 456 527 0
288 -185 5 528 0
-100 -465 249 529 0
142 448 370 530 0
-109 -94 -152 531 0
270 451 235 532 0
238 -208 90 533 0
-340 65 -331 534 0
-248 269 261 535 0
425 -76 74 536 0
-323 -469 -407 537 0
462 66 378 538 0
391 -247 124 539 0
-123 -125 140 540 0
-382 -479 -17 541 0
245 74 -365 542 0
-111 -321 -345 543 0
338 -6 -243 544 0
179 441 -54 545 0
293 -19 291 546 0
-158 -287 -210 547 0
-2 -313 225 548 0
-217 -256 -169 549 0
135 366 404 550 0
-145 135 -487 551 0
-339 273 459 552 0
307 348 -491 553 0
-62 401 -263 554 0
-153 492 -99 555 0
221 231 -484 556 0
-350 394 497 557 0
-466 212 -194 558 0
263 290 -224 559 0
-117 199 -187 560 0
221 -139 98 561 0
35 -368 -136 562 0
-246 -449 259 563 0
201 -450 -214 564 0
-244 -455 -401 565 0
346 394 -244 566 0
-191 80 264 567 0
-96 217 424 568 0
364 -272 -266 569 0
68 389 78 570 0
382 429 -221 571 0
34 -74 379 572 0
-226 -227 -315 573 0
-52 -183 -496 574 0
474 284 296 575 0
54 163 416 576 0
267 -313 -181 577 0
12 127 -332 578 0
324 21 -249 579 0
461 -463 208 580 0
245 -61 84 581 0
-169 242 -200 582 0
363 367 52 583 0
-407 389 468 584 0
-180 288 -231 585 0
-108 190 245 586 0
-367 81 -59 587 0
441 62 245 588 0
444 92 -86 589 0
426 -370 -477 590 0
462 498 183 591 0
-414 -41 -129 592 0
409 -182 -8 593 0
87 -380 -203 594 0
459 -442 141 595 0
209 150 462 596 0
319 335 154 597 0
20 158 404 598 0
-426 228 -367 599 0
442 -224 114 600 0
-26 356 330 601 0
382 325 70 602 0
-499 18 126 603 0
167 130 -381 604 0
-402 -384 -128 605 0
-454 -408 436 606 0
-162 -328 453 607 0
-239 99 -350 608 0
-475 -497 -435 609 0
116 -233 -14 610 0
-67 429 66 611 0
-304 468 345 612 0
216 -376 -49 613 0
-428 -414 -33 614 0
314 472 390 615 0
119 322 155 616 0
230 134 -344 617 0
-208 407 -477 618 0
121 -145 344 619 0
1 -218 -178 620 0
466 396 56 621 0
-58 57 -253 622 0
-106 -395 494 623 0
-481 -296 -93 624 0
-105 -257 -447 625 0
471 -155 -11 626 0
251 157 -423 627 0
-196 -20 -439 628 0
85 424 -252 629 0
109 -143 -464 630 0
-290 143 382 631 0
-253 166 -242 632 0
24 187 282 633 0
130 362 398 634 0
-201 -406 -229 635 0
499 423 250 636 0
29 -91 -453 637 0
88 -67 -334 638 0
-380 -185 238 639 0
-118 492 -240 640 0
16 47 -366 641 0
-53 93 -482 642 0
-251 11 -180 643 0
192 -55 -314 644 0
-280 -31 -414 645 0
-140 362 -109 646 0
30 455 -295 647 0
-63 -407 58 648 0
-404 -45 -410 649 0
289 485 457 650 0
-87 137 -121 651 0
356 263 360 652 0
273 301 -4 653 0
-479 -163 -396 654 0
76 -351 -472 655 0
475 -436 63 656 0
-293 -301 131 657 0
-473 -440 18 658 0
-7 183 427 659 0
54 -475 174 660 0
-124 91 363 661 0
112 -481 356 662 0
-375 183 -471 663 0
-439 211 -55 664 0
46 -241 -478 665 0
387 -318 -43 666 0
-126 -322 417 667 0
136 396 391 668 0
315 3 -229 669 0
126 149 -176 670 0
-250 -323 -194 671 0
328 -167 312 672 0
-129 386 320 673 0
-495 -75 -437 674 0
-451 246 -68 675 0
-332 12 353 676 0
49 -86 -131 677 0
-150 333 -483 678 0
-216 -236 -247 679 0
237 -95 42 680 0
423 155 295 681 0
-85 5 -206 682 0
-268 -425 355 683 0
-270 484 124 684 0
-334 15 164 685 0
330 492 -473 686 0
193 -460 -308 687 0
-201 -18 -480 688 0
458 32 -258 689 0
-220 -31 -358 690 0
-266 127 -439 691 0
-73 -22 63 692 0
203 169 467 693 0
-53 -222 94 694 0
-298 304 -7 695 0
-59 216 -482 696 0
12 -186 -181 697 0
-107 -171 -440 698 0
93 6 -183 699 0
377 -422 196 700 0
212 73 -364 701 0
-123 -136 193 702 0
-189 129 -433 703 0
-5 -397 -476 704 0
-438 -487 -166 705 0
437 -82 -62 706 0
494 -267 315 707 0
-294 -8 -25 708 0
-403 -494 -187 709 0
-309 363 -144 710 0
-109 129 -478 711 0
416 225 433 712 0
125 420 -26 713 0
-223 -434 -56 714 0
-376 -229 403 715 0
213 462 -379 716 0
304 -45 -178 717 0
378 16 -469 718 0
-257 -169 109 719 0
195 86 -370 720 0
-432 333 -441 721 0
70 -500 -216 722 0
-162 -203 -121 723 0
91 -46 250 724 0
327 2 412 725 0
51 11 -7 726 0
-428 -142 -157 727 0
413 370 409 728 0
-64 -368 -390 729 0
309 361 461 730 0
283 349 188 731 0
-104 -15 -177 732 0
220 -227 174 733 0
93 319 255 734 0
-118 -117 -498 735 0
352 400 -368 736 0
497 202 91 737 0
384 135 131 738 0
-35 -217 -127 739 0
-423 -264 189 740 0
-192 -391 -202 741 0
333 -321 -487 742 0
-242 -301 292 743 0
-173 -406 -260 744 0
-283 -436 294 745 0
59 -98 29 746 0
281 425 276 747 0
50 -68 159 748 0
359 449 463 749 0
336 75 -329 750 0
-231 -198 -220 751 0
-138 -483 -345 752 0
-423 230 300 753 0
-202 13 -185 754 0
-357 404 -418 755 0
-29 149 488 756 0
384 391 290 757 0
36 353 -289 758 0
50 196 37 759 0
269 212 -447 760 0
175 -250 -233 761 0
-47 405 -487 762 0
254 -226 233 763 0
168 -444 -369 764 0
-349 -458 -402 765 0
-7 -144 -378 766 0
248 402 -406 767 0
462 -193 -222 768 0
17 62 -424 769 0
-348 -434 147 770 0
190 -354 -379 771 0
177 -119 -287 772 0
-485 -151 102 773 0
173 220 420 774 0
3 493 436 775 0
-214 75 18 776 0
-16 333 -272 777 0
-232 140 406 778 0
152 -391 376 779 0
116 -369 309 780 0
-352 -447 -453 781 0
-499 191 485 782 0
146 -379 40 783 0
-87 -495 108 784 0
-388 142 -338 785 0
6 219 272 786 0
14 486 -276 787 0
-274 472 49 788 0
-347 -418 -171 789 0
-36 -476 -300 790 0
108 -355 -323 791 0
39 151 75 792 0
-320 -28 -68 793 0
410 -11 156 794 0
-49 -278 390 795 0
475 154 -254 796 0
43 -200 296 797 0
-410 74 18 798 0
131 -184 100 799 0
45 -76 -42 800 0
-368 -322 177 801 0
435 230 67 802 0
-25 -405 433 803 0
-142 63 464 804 0
273 25 -84 805 0
-60 439 262 806 0
-237 -425 -392 807 0
210 275 462 808 0
3 -460 427 809 0
461 180 -289 810 0
-326 457 -140 811 0
-157 241 -457 812 0
270 -17 -45 813 0
-454 -305 -23 814 0
90 -451 -395 815 0
386 243 443 816 0
484 -51 -67 817 0
206 -84 313 818 0
-292 -68 62 819 0
383 -342 331 820 0
363 102 432 821 0
-349 182 299 822 0
-468 -364 -485 823 0
-278 -28 168 824 0
117 -96 87 825 0
-310 449 89 826 0
-172 -105 314 827 0
-207 -228 -407 828 0
477 -56 126 829 0
-42 286 500 830 0
-37 300 467 831 0
-372 -329 210 832 0
-140 248 445 833 0
-147 -92 251 834 0
-35 253 -187 835 0
286 -15 -309 836 0
-146 20 -145 837 0
30 401 206 838 0
205 -339 472 839 0
109 -229 200 840 0
239 378 107 841 0
-196 -364 410 842 0
-236 251 131 843 0
-198 -389 296 844 0
-471 -458 -316 845 0
287 -460 -172 846 0
-160 -190 12 847 0
-499 369 -229 848 0
-123 -330 308 849 0
90 -285 -106 850 0
-92 263 -254 851 0
12 21 -362 852 0
-479 -266 367 853 0
-76 464 59 854 0
-379 301 420 855 0
26 130 19 856 0
-109 478 -230 857 0
128 469 -21 858 0
-146 198 -480 859 0
-258 334 -448 860 0
218 -67 -382 861 0
27 -482 -262 862 0
262 -479 -223 863 0
-84 292 212 864 0
-351 -148 330 865 0
334 -48 -289 866 0
407 -347 318 867 0
-352 149 296 868 0
184 458 -118 869 0
385 -240 49 870 0
-90 -495 -34 871 0
-269 -150 -141 872 0
137 -163 341 873 0
6 -468 -215 874 0
322 187 235 875 0
87 -62 -303 876 0
80 117 -240 877 0
-391 194 -107 878 0
119 -241 -371 879 0
420 402 374 880 0
-415 56 99 881 0
64 354 -492 882 0
-104 -273 184 883 0
-320 -34 -466 884 0
-34 108 153 885 0
151 -170 8 886 0
402 -175 127 887 0
-307 -284 222 888 0
191 -401 276 889 0
92 -189 -418 890 0
-435 40 -134 891 0
156 481 -34 892 0
-26 83 4 893 0
-294 -152 -430 894 0
-13 428 -388 895 0
-117 452 205 896 0
440 -159 -420 897 0
-51 118 264 898 0
59 476 482 899 0
111 439 -203 900 0
-231 270 -310 901 0
241 190 493 902 0
439 -115 230 903 0
-227 38 280 904 0
276 283 369 905 0
-276 -195 -5 906 0
-356 298 -6 907 0
-79 167 -18 908 0
-207 -369 -34 909 0
-241 93 -327 910 0
-198 492 350 911 0
93 169 -359 912 0
287 -131 -36 913 0
-500 494 -337 914 0
-453 213 479 915 0
-189 -191 -156 916 0
-163 211 156 917 0
70 -106 315 918 0
441 254 292 919 0
188 -97 -432 920 0
-172 -201 112 921 0
-98 417 247 922 0
-118 -332 -99 923 0
-92 331 284 924 0
-98 180 -115 925 0
-440 188 -6 926 0
-40 -461 95 927 0
-171 206 -71 928 0
-430 496 -453 929 0
-174 -380 172 930 0
425 -203 -435 931 0
232 -253 233 932 0
129 -65 223 933 0
432 -375 424 934 0
-381 331 184 935 0
253 -163 -11 936 0
-328 378 -375 937 0
344 -408 83 938 0
50 -245 318 939 0
119 -118 246 940 0
-395 422 26 941 0
-435 108 -74 942 0
-77 111 174 943 0
-212 -141 -344 944 0
359 -59 46 945 0
180 266 -415 946 0
-212 -383 -122 947 0
-375 -489 93 948 0
-498 497 -341 949 0
-11 323 -158 950 0
195 -239 -129 951 0
464 -331 -270 952 0
224 -449 423 953 0
109 -472 13 954 0
447 -431 -461 955 0
451 124 -488 956 0
-253 -353 -255 957 0
456 416 -14 958 0
-374 -456 -235 959 0
175 -196 -402 960 0
188 -467 -219 961 0
109 -145 -114 962 0
164 381 52 963 0
423 499 -177 964 0
-186 -363 -92 965 0
435 128 423 966 0
394 -193 315 967 0
212 -78 323 968 0
357 -275 -418 969 0
-143 -404 -401 970 0
-467 387 3 971 0
-247 441 -50 972 0
377 -87 258 973 0
-116 -107 97 974 0
66 74 -382 975 0
294 -443 -281 976 0
-101 -80 287 977 0
-362 170 -50 978 0
-321 5 -460 979 0
368 463 -202 980 0
301 -348 226 981 0
-453 46 -76 982 0
-52 -272 -246 983 0
-55 116 164 984 0
-97 -342 7 985 0
-56 -256 -254 986 0
-121 -287 -85 987 0
-436 -438 -34 988 0
226 87 140 989 0
-76 210 -347 990 0
-490 214 205 991 0
163 285 -66 992 0
-492 -22 383 993 0
39 -68 -145 994 0
297 -233 6 995 0
7 425 -456 996 0
-201 354 163 997 0
-429 -156 322 998 0
-208 236 5 999 0
131 -118 72 1000 0
468 401 -397 1001 0
107 -438 -460 1002 0
-21 -206 -378 1003 0
255 -144 103 1004 0
-368 63 87 1005 0
100 -97 -190 1006 0
212 -462 88 1007 0
34 131 -25 1008 0
-123 231 433 1009 0
-459 -302 -293 1010 0
215 118 235 1011 0
114 484 -70 1012 0
213 -257 -84 1013 0
131 201 -42 1014 0
220 130 215 1015 0
-105 155 -194 1016 0
-398 437 445 1017 0
144 -330 -87 1018 0
-306 102 29 1019 0
-264 93 456 1020 0
464 451 58 1021 0
-355 401 489 1022 0
-338 262 -427 1023 0
-448 -279 -1 1024 0
492 -142 -231 1025 0
199 -442 496 1026 0
-333 101 306 1027 0
-231 180 -42 1028 0
108 -243 -94 1029 0
1 308 257 1030 0
265 -479 218 1031 0
-311 238 -150 1032 0
-461 243 454 1033 0
-273 2 -264 1034 0
82 -115 235 1035 0
205 -481 -5 1036 0
245 149 -295 1037 0
245 82 -47 1038 0
-424 349 294 1039 0
454 -327 330 1040 0
416 -393 -143 1041 0
-315 430 -274 1042 0
176 -212 -96 1043 0
-349 -209 268 1044 0
93 -218 -369 1045 0
453 273 -306 1046 0
399 313 86 1047 0
196 -448 -351 1048 0
-261 286 -39 1049 0
-368 -312 -461 1050 0
-476 -226 154 1051 0
252 -271 -106 1052 0
-467 -380 345 1053 0
-122 156 -427 1054 0
-248 -461 -165 1055 0
255 193 -18 1056 0
27 -167 154 1057 0
-344 -85 55 1058 0
342 -360 97 1059 0
432 289 399 1060 0
8 38 -413 1061 0
469 115 52 1062 0
-83 297 -282 1063 0
-341 -434 -356 1064 0
60 215 -103 1065 0
141 -356 -407 1066 0
301 -411 432 1067 0
194 318 235 1068 0
-299 76 -275 1069 0
404 370 -305 1070 0
-315 101 -233 1071 0
-204 392 393 1072 0
358 -195 499 1073 0
-431 357 -67 1074 0
-158 -352 -77 1075 0
319 -357 403 1076 0
181 359 268 1077 0
-101 171 -407 1078 0
-337 -415 -5 1079 0
242 -120 -439 1080 0
378 215 342 1081 0
184 -494 -386 1082 0
-207 438 -341 1083 0
-116 476 6 1084 0
390 273 -456 1085 0
469 239 -318 1086 0
308 -225 -341 1087 0
451 -413 176 1088 0
-356 -385 -350 1089 0
279 111 -236 1090 0
-415 -155 -15 1091 0
163 452 37 1092 0
308 137 -427 1093 0
236 -220 -203 1094 0
-377 249 93 1095 0
450 155 -95 1096 0
302 435 -349 1097 0
-118 -385 42 1098 0
215 -104 417 1099 0
491 1 396 1100 0
471 240 462 1101 0
-292 334 208 1102 0
249 -471 -480 1103 0
333 -142 -169 1104 0
-288 202 198 1105 0
275 -326 402 1106 0
12 -319 429 1107 0
438 181 -293 1108 0
80 418 262 1109 0
-280 219 311 1110 0
-178 363 -192 1111 0
-463 -320 397 1112 0
269 75 -380 1113 0
-212 -130 37 1114 0
179 69 279 1115 0
-404 -9 49 1116 0
-22 115 -292 1117 0
-32 -483 288 1118 0
-480 8 464 1119 0
-265 50 -26 1120 0
243 453 -88 1121 0
377 -330 -426 1122 0
-21 -351 -51 1123 0
45 -109 -113 1124 0
-188 185 83 1125 0
-178 189 407 1126 0
-8 278 186 1127 0
-390 -409 72 1128 0
417 139 -161 1129 0
-134 44 -335 1130 0
307 120 167 1131 0
-264 416 233 1132 0
-368 491 -170 1133 0
469 -62 40 1134 0
391 288 454 1135 0
473 -410 330 1136 0
-31 452 -181 1137 0
-283 -340 -33 1138 0
-51 -357 -277 1139 0
-465 312 -321 1140 0
-299 -410 128 1141 0
412 273 -430 1142 0
-441 7 -176 1143 0
31 -103 -347 1144 0
66 206 131 1145 0
-245 -492 209 1146 0
-64 32 413 1147 0
131 318 250 1148 0
-109 -459 -108 1149 0
-156 -202 -122 1150 0
129 -286 -237 1151 0
403 -395 -477 1152 0
446 -340 72 1153 0
20 -64 -413 1154 0
460 -164 -258 1155 0
156 246 -245 1156 0
472 405 -279 1157 0
-250 251 367 1158 0
-145 -51 225 1159 0
2 263 -441 1160 0
279 372 -390 1161 0
-161 -168 -286 1162 0
-216 -178 465 1163 0
-269 477 466 1164 0
196 -342 -497 1165 0
184 261 391 1166 0
-393 103 -459 1167 0
-283 -151 -386 1168 0
-109 87 -397 1169 0
-329 234 -103 1170 0
144 -304 280 1171 0
94 150 -383 1172 0
-135 16 202 1173 0
196 -402 -486 1174 0
-78 -375 -249 1175 0
100 67 -64 1176 0
-144 -484 313 1177 0
-345 372 -133 1178 0
66 364 48 1179 0
-494 -91 -126 1180 0
-217 337 -237 1181 0
119 -47 62 1182 0
320 -385 -467 1183 0
294 -171 -342 1184 0
-16 -33 -184 1185 0
-220 207 174 1186 0
-58 -238 -178 1187 0
-341 486 -82 1188 0
-290 -480 393 1189 0
-12 158 61 1190 0
207 242 194 1191 0
461 89 -426 1192 0
88 79 -287 1193 0
-152 173 -141 1194 0
-73 -54 -255 1195 0
295 -215 -320 1196 0
-349 -316 -179 1197 0
-219 381 -68 1198 0
-266 186 229 1199 0
84 -353 -41 1200 0
-331 486 -316 1201 0
-245 -435 -105 1202 0
-113 -371 28 1203 0
383 270 -292 1204 0
47 -106 -315 1205 0
-334 451 159 1206 0
338 -125 -160 1207 0
-95 5 320 1208 0
-385 -28 324 1209 0
145 -309 -50 1210 0
-245 450 275 1211 0
-211 170 -489 1212 0
-187 226 -160 1213 0
-142 -424 352 1214 0
474 107 202 1215 0
434 138 -388 1216 0
307 -77 -444 1217 0
266 393 -222 1218 0
-457 -89 -194 1219 0
-140 226 -325 1220 0
35 430 -387 1221 0
74 20 208 1222 0
-387 -310 328 1223 0
203 241 317 1224 0
220 256 235 1225 0
-307 143 -411 1226 0
-417 291 424 1227 0
-15 133 -229 1228 0
395 243 199 1229 0
322 82 298 1230 0
-438 -396 307 1231 0
-177 -251 363 1232 0
427 -78 473 1233 0
396 -27 127 1234 0
220 -262 40 1235 0
-186 -240 78 1236 0
-233 309 -95 1237 0
315 -95 161 1238 0
131 -77 110 1239 0
-128 372 -208 1240 0
-77 83 228 1241 0
-159 217 -392 1242 0
419 203 -240 1243 0
467 -12 345 1244 0
95 129 440 1245 0
-399 -462 -41 1246 0
-76 -412 -310 1247 0
428 -386 112 1248 0
-216 -320 252 1249 0
395 317 -63 1250 0
65 -187 -412 1251 0
392 5 -247 1252 0
31 60 -358 1253 0
356 47 -486 1254 0
211 -283 349 1255 0
27 -135 113 1256 0
193 320 -189 1257 0
311 320 242 1258 0
-420 333 -192 1259 0
-41 137 -25 1260 0
-33 328 212 1261 0
334 448 -246 1262 0
-481 243 50 1263 0
-172 376 -459 1264 0
241 -176 367 1265 0
-460 -262 -448 1266 0
-331 299 -7 1267 0
-455 -226 24 1268 0
370 75 -316 1269 0
39 -387 -47 1270 0
436 -152 -408 1271 0
-161 -210 169 1272 0
-371 458 312 1273 0
5 401 -7 1274 0
272 279 35 1275 0
2 -250 221 1276 0
119 -402 469 1277 0
233 364 22 1278 0
380 -331 -428 1279 0
380 -30 -9 1280 0
-108 467 14 1281 0
-370 -279 -7 1282 0
368 396 72 1283 0
192 -240 149 1284 0
-367 -214 -383 1285 0
-377 -440 -216 1286 0
-127 -486 -154 1287 0
222 114 -381 1288 0
-249 -232 57 1289 0
-15 -470 249 1290 0
284 467 444 1291 0
423 -129 -254 1292 0
-14 296 254 1293 0
366 -160 77 1294 0
-400 497 482 1295 0
-401 27 -185 1296 0
-216 445 -293 1297 0
290 82 -196 1298 0
-112 266 -456 1299 0
-273 -314 -494 1300 0
-112 -315 155 1301 0
184 -256 294 1302 0
397 -318 -159 1303 0
-174 -107 62 1304 0
-417 325 403 1305 0
-157 18 -373 1306 0
-289 -160 -412 1307 0
-3 163 12 1308 0
-185 468 332 1309 0
-251 442 -463 1310 0
452 484 -428 1311 0
155 -136 366 1312 0
192 -239 325 1313 0
-459 172 -370 1314 0
-7 391 -450 1315 0
-229 -391 -497 1316 0
-356 121 8 1317 0
-492 172 -374 1318 0
247 416 -52 1319 0
-98 273 -429 1320 0
-107 365 434 1321 0
-265 90 -257 1322 0
-487 93 -377 1323 0
-123 -132 420 1324 0
-417 99 -190 1325 0
150 -97 -365 1326 0
-250 -126 -128 1327 0
290 -121 -347 1328 0
377 -412 -483 1329 0
-311 207 96 1330 0
-83 3 164 1331 0
-78 -131 284 1332 0
72 -85 487 1333 0
-381 123 -307 1334 0
116 19 -149 1335 0
373 399 104 1336 0
141 -125 -177 1337 0
70 -399 -423 1338 0
206 -197 251 1339 0
157 235 98 1340 0
85 -394 -78 1341 0
-176 300 -108 1342 0
101 -100 -408 1343 0
326 -125 465 1344 0
-223 140 234 1345 0
-282 200 -321 1346 0
80 -151 283 1347 0
167 301 370 1348 0
162 -267 24 1349 0
-104 -386 393 1350 0
-160 219 40 1351 0
-299 318 60 1352 0
-109 101 -347 1353 0
-57 359 288 1354 0
-126 -420 256 1355 0
468 191 182 1356 0
168 -164 361 1357 0
209 -439 389 1358 0
-145 101 -234 1359 0
-467 -337 -244 1360 0
-227 -242 -96 1361 0
301 74 -406 1362 0
-218 -5 -318 1363 0
-358 353 452 1364 0
74 -487 466 1365 0
265 -466 -19 1366 0
-365 143 241 1367 0
-263 161 -137 1368 0
-365 151 188 1369 0
33 267 54 1370 0
356 -282 -227 1371 0
110 41 51 1372 0
425 175 18 1373 0
-118 -352 -248 1374 0
252 -328 -85 1375 0
59 -125 -440 1376 0
406 204 448 1377 0
163 379 -175 1378 0
96 341 413 1379 0
180 332 -240 1380 0
-224 292 -309 1381 0
-421 -456 379 1382 0
242 -118 204 1383 0
239 -74 -283 1384 0
118 -423 -101 1385 0
182 216 303 1386 0
481 483 -182 1387 0
406 -460 -147 1388 0
-102 421 -423 1389 0
-450 -470 -194 1390 0
-35 -118 318 1391 0
-89 -385 184 1392 0
-367 -366 174 1393 0
-6 -255 -419 1394 0
-69 72 -132 1395 0
460 201 47 1396 0
50 176 -182 1397 0
-11 -451 203 1398 0
-371 327 -372 1399 0
-116 1 -251 1400 0
288 -243 492 1401 0
51 -490 316 1402 0
-270 -380 -135 1403 0
366 335 398 1404 0
234 -468 -101 1405 0
-239 -376 259 1406 0
-338 186 180 1407 0
-220 33 -494 1408 0
-41 395 457 1409 0
-283 -95 103 1410 0
-169 -448 386 1411 0
-247 -170 -78 1412 0
-319 365 47 1413 0
-456 -351 -440 1414 0
-33 -242 334 1415 0
-418 -67 -260 1416 0
112 368 122 1417 0
295 2 362 1418 0
363 181 428 1419 0
202 -219 -316 1420 0
-308 187 290 1421 0
-34 87 341 1422 0
-3 -89 -475 1423 0
499 397 30 1424 0
-279 -454 480 1425 0
-175 245 376 1426 0
314 81 -60 1427 0
417 -364 -308 1428 0
-414 -49 -81 1429 0
-368 -31 275 1430 0
-131 24 -168 1431 0
-147 -6 -279 1432 0
495 122 -22 1433 0
-226 72 309 1434 0
137 -313 492 1435 0
31 -276 -371 1436 0
108 -139 -215 1437 0
-29 170 60 1438 0
358 440 235 1439 0
-210 -302 -266 1440 0
-93 -120 -362 1441 0
-386 110 -126 1442 0
-87 -231 -154 1443 0
24 244 -396 1444 0
200 -441 -271 1445 0
-219 -389 48 1446 0
-162 -66 347 1447 0
384 145 -248 1448 0
432 -37 -148 1449 0
-115 -139 -420 1450 0
-306 -364 -116 1451 0
-238 284 -383 1452 0
392 -401 200 1453 0
250 425 260 1454 0
-22 481 -256 1455 0
14 -269 -90 1456 0
-92 -118 113 1457 0
293 484 -482 1458 0
237 454 168 1459 0
301 210 97 1460 0
134 392 -483 1461 0
-284 73 -145 1462 0
-353 490 -434 1463 0
62 374 211 1464 0
-467 -29 -485 1465 0
384 -121 -255 1466 0
229 -149 -250 1467 0
321 35 475 1468 0
51 377 -47 1469 0
341 13 59 1470 0
277 -337 316 1471 0
46 142 299 1472 0
-153 347 329 1473 0
-473 436 -434 1474 0
379 302 329 1475 0
-13 333 -329 1476 0
225 -289 238 1477 0
148 190 114 1478 0
-65 -17 -168 1479 0
390 496 174 1480 0
-282 128 -484 1481 0
235 461 -325 1482 0
-189 -2 -256 1483 0
269 218 -188 1484 0
379 -341 -407 1485 0
-114 -473 -252 1486 0
146 -247 -76 1487 0
-193 -21 405 1488 0
10 -63 -470 1489 0
-12 -334 -118 1490 0
-197 360 -368 1491 0
31 367 -23 1492 0
275 -22 388 1493 0
254 310 115 1494 0
358 215 -169 1495 0
-238 -234 -139 1496 0
319 -356 178 1497 0
-45 452 -20 1498 0
-191 2 168 1499 0
-150 286 413 1500 0
17 104 -88 1501 0
-117 -288 -311 1502 0
123 265 -121 1503 0
-355 -321 -171 1504 0
355 -275 -176 1505 0
119 468 289 1506 0
426 261 235 1507 0
-468 -12 -434 1508 0
353 176 -498 1509 0
151 -321 51 1510 0
481 -460 490 1511 0
52 174 37 1512 0
67 -472 -152 1513 0
-158 126 440 1514 0
-354 -132 284 1515 0
476 -252 92 1516 0
-411 -246 -318 1517 0
159 352 414 1518 0
146 -108 159 1519 0
-456 -427 246 1520 0
214 -350 74 1521 0
227 -91 -37 1522 0
151 -154 371 1523 0
40 400 -193 1524 0
102 -173 478 1525 0
337 -345 149 1526 0
77 449 -147 1527 0
-419 215 497 1528 0
461 -364 -259 1529 0
-7 1 -489 1530 0
-209 -239 -41 1531 0
-500 -206 116 1532 0
446 331 424 1533 0
16 -350 397 1534 0
-329 -274 -174 1535 0
-192 47 -178 1536 0
368 190 -254 1537 0
253 -36 127 1538 0
-96 19 292 1539 0
-448 -172 -286 1540 0
131 -88 -352 1541 0
-87 -190 454 1542 0
-103 279 -230 1543 0
-362 -452 228 1544 0
343 365 370 1545 0
405 295 255 1546 0
442 383 38 1547 0
-61 -135 -77 1548 0
219 426 -330 1549 0
311 365 477 1550 0
397 206 -329 1551 0
63 53 -34 1552 0
306 200 -111 1553 0
-461 440 -277 1554 0
324 -462 -202 1555 0
-407 -256 45 1556 0
-6 254 213 1557 0
-320 -49 13 1558 0
401 -271 70 1559 0
213 95 -253 1560 0
-263 -20 -367 1561 0
199 246 476 1562 0
-319 -274 384 1563 0
368 279 -361 1564 0
-170 277 -69 1565 0
-392 28 266 1566 0
-237 9 306 1567 0
105 -330 271 1568 0
-293 -176 402 1569 0
431 273 -116 1570 0
-314 176 -471 1571 0
-147 464 24 1572 0
-216 -459 -103 1573 0
-74 -412 344 1574 0
-62 -49 153 1575 0
-397 -84 256 1576 0
492 -147 78 1577 0
499 345 -107 1578 0
-416 476 99 1579 0
250 477 -266 1580 0
7 308 -143 1581 0
-254 241 -325 1582 0
470 249 -262 1583 0
-67 481 -196 1584 0
95 292 -114 1585 0
255 315 59 1586 0
21 -115 16 1587 0
24 327 -174 1588 0
114 165 244 1589 0
-361 -234 -249 1590 0
99 -283 -251 1591 0
-290 97 57 1592 0
222 301 -492 1593 0
466 367 -22 1594 0
426 -103 321 1595 0
-125 -27 -434 1596 0
317 -158 387 1597 0
-155 -186 -424 1598 0
450 -321 -319 1599 0
-89 -145 200 1600 0
-224 62 -2 1601 0
279 167 29 1602 0
479 -326 35 1603 0
276 -82 -296 1604 0
156 -241 200 1605 0
-127 429 379 1606 0
-214 461 311 1607 0
110 335 475 1608 0
-441 -293 297 1609 0
-456 -319 -317 1610 0
-390 47 145 1611 0
287 -58 -118 1612 0
440 -315 -28 1613 0
-67 -414 -482 1614 0
-469 -16 212 1615 0
-460 -457 -425 1616 0
-481 -105 -324 1617 0
-414 -310 -121 1618 0
-446 -197 462 1619 0
295 381 -196 1620 0
91 8 335 1621 0
-400 53 213 1622 0
-461 430 -389 1623 0
-269 281 -15 1624 0
167 -485 207 1625 0
11 92 -300 1626 0
-277 369 -20 1627 0
-39 -102 -99 1628 0
-345 75 -145 1629 0
443 -405 -477 1630 0
-393 -400 435 1631 0
296 45 -372 1632 0
-52 184 -361 1633 0
-147 273 433 1634 0
-206 370 -468 1635 0
196 -173 -23 1636 0
497 78 385 1637 0
52 -17 473 1638 0
-262 71 -455 1639 0
281 -352 -69 1640 0
420 323 208 1641 0
-447 255 -467 1642 0
456 318 368 1643 0
379 338 -210 1644 0
-162 -38 -435 1645 0
107 170 161 1646 0
300 13 71 1647 0
206 171 -447 1648 0
-211 -221 -61 1649 0
421 182 58 1650 0
435 -47 376 1651 0
-499 316 -155 1652 0
-224 -313 -467 1653 0
432 6 134 1654 0
-426 -72 189 1655 0
279 -308 -185 1656 0
80 456 424 1657 0
308 -405 -177 1658 0
313 -459 -42 1659 0
-174 -185 -410 1660 0
-377 394 -58 1661 0
156 464 46 1662 0
210 -134 -53 1663 0
-33 -384 -51 1664 0
324 -430 297 1665 0
-193 -108 447 1666 0
-189 -410 137 1667 0
-199 -53 422 1668 0
-172 151 -168 1669 0
260 -99 210 1670 0
-234 -191 89 1671 0
51 -291 -192 1672 0
245 -134 61 1673 0
-324 -459 413 1674 0
307 416 -84 1675 0
216 57 262 1676 0
-493 -399 -149 1677 0
-361 209 -230 1678 0
334 294 197 1679 0
-296 -269 -198 1680 0
-213 468 382 1681 0
-496 -85 248 1682 0
-117 -265 -204 1683 0
4 -323 339 1684 0
151 206 308 1685 0
319 -150 -439 1686 0
135 -60 -316 1687 0
-38 -193 124 1688 0
-252 -297 336 1689 0
-457 -444 -285 1690 0
150 -184 495 1691 0
-224 -485 389 1692 0
493 -64 443 1693 0
139 -211 -420 1694 0
336 10 333 1695 0
-228 96 244 1696 0
154 494 31 1697 0
182 199 312 1698 0
-294 -180 314 1699 0
413 40 47 1700 0
308 -181 -395 1701 0
-148 -209 185 1702 0
-176 -192 274 1703 0
-405 256 -124 1704 0
-76 -441 232 1705 0
26 -213 269 1706 0
81 -178 -437 1707 0
345 -105 180 1708 0
-45 -254 -185 1709 0
-82 187 -478 1710 0
350 439 -470 1711 0
-215 -317 51 1712 0
233 212 228 1713 0
203 -2 21 1714 0
293 18 -103 1715 0
269 355 -414 1716 0
-107 -223 317 1717 0
-276 227 -498 1718 0
44 -334 244 1719 0
149 220 -332 1720 0
358 445 212 1721 0
46 -154 447 1722 0
-309 -112 -256 1723 0
30 165 178 1724 0
-193 402 408 1725 0
150 -264 -453 1726 0
-228 -346 -377 1727 0
-353 332 412 1728 0
-417 -62 303 1729 0
100 -296 40 1730 0
136 34 -133 1731 0
-158 150 -498 1732 0
177 -461 352 1733 0
239 -205 95 1734 0
6 454 -265 1735 0
451 388 -345 1736 0
-120 -487 -398 1737 0
-207 -452 256 1738 0
-109 377 -155 1739 0
240 -354 -314 1740 0
-342 378 195 1741 0
168 -97 477 1742 0
-164 -452 238 1743 0
344 -482 422 1744 0
496 174 118 1745 0
-443 -323 -354 1746 0
-361 465 -198 1747 0
-354 -378 -469 1748 0
-125 323 500 1749 0
-310 370 -417 1750 0
203 -467 468 1751 0
67 -208 -419 1752 0
-432 -354 100 1753 0
-358 -130 222 1754 0
-315 -184 -462 1755 0
-334 -363 -201 1756 0
79 -199 278 1757 0
-145 -465 -143 1758 0
-141 143 35 1759 0
-409 375 450 1760 0
-252 109 -381 1761 0
-198 -103 -288 1762 0
178 48 138 1763 0
90 -460 358 1764 0
270 -421 496 1765 0
-195 -106 -232 1766 0
106 35 75 1767 0
-226 74 214 1768 0
453 469 6 1769 0
201 45 85 1770 0
-395 -67 -389 1771 0
-177 267 64 1772 0
121 -262 499 1773 0
29 415 405 1774 0
339 141 -207 1775 0
-201 212 -372 1776 0
-2 -353 -360 1777 0
425 194 70 1778 0
438 -86 -41 1779 0
-66 -261 -344 1780 0
-407 -477 -479 1781 0
58 181 494 1782 0
269 -63 -149 1783 0
52 65 -491 1784 0
27 -228 -386 1785 0
324 -420 405 1786 0
-137 297 212 1787 0
-326 -409 -226 1788 0
-23 197 411 1789 0
437 -230 -485 1790 0
39 159 -29 1791 0
-340 -320 -456 1792 0
64 -482 -429 1793 0
275 8 -479 1794 0
-452 479 165 1795 0
-200 323 301 1796 0
-160 451 -260 1797 0
-287 118 432 1798 0
51 -400 240 1799 0
197 206 -66 1800 0
435 487 3 1801 0
100 -326 24 1802 0
-302 -88 43 1803 0
-66 13 338 1804 0
376 -218 228 1805 0
128 348 -18 1806 0
287 -398 401 1807 0
424 -182 -260 1808 0
-212 52 -300 1809 0
-49 -288 -371 1810 0
187 276 31 1811 0
-335 -230 -424 1812 0
-33 78 -204 1813 0
-136 159 -406 1814 0
-345 -423 -317 1815 0
-149 81 -17 1816 0
-251 -202 90 1817 0
31 447 138 1818 0
-100 472 69 1819 0
-364 283 105 1820 0
-390 50 283 1821 0
-207 -53 427 1822 0
402 -357 405 1823 0
337 414 -183 1824 0
-365 233 52 1825 0
-428 31 394 1826 0
491 281 -324 1827 0
458 -438 -342 1828 0
351 -278 -191 1829 0
-495 -260 480 1830 0
-213 -453 -285 1831 0
438 25 -175 1832 0
108 -492 153 1833 0
364 -5 115 1834 0
-175 20 -282 1835 0
-365 112 142 1836 0
218 310 -362 1837 0
115 255 498 1838 0
32 34 -296 1839 0
296 -58 -461 1840 0
79 272 435 1841 0
349 -311 -368 1842 0
-340 -316 -199 1843 0
403 -452 50 1844 0
-113 338 115 1845 0
-180 257 -373 1846 0
-152 454 181 1847 0
271 -305 20 1848 0
214 3 -75 1849 0
-172 -375 -247 1850 0
-27 -203 -209 1851 0
-398 -350 344 1852 0
-165 -420 358 1853 0
-196 452 250 1854 0
-335 382 -77 1855 0
178 282 151 1856 0
-153 -183 -361 1857 0
-226 -314 207 1858 0
423 286 -20 1859 0
282 244 -228 1860 0
-83 410 -455 1861 0
129 -59 -193 1862 0
221 -266 -167 1863 0
426 -18 -500 1864 0
-390 -125 388 1865 0
263 -4 438 1866 0
-450 408 -22 1867 0
-475 -120 394 1868 0
443 -219 -461 1869 0
-345 -147 118 1870 0
-311 -33 458 1871 0
-129 199 339 1872 0
495 -171 252 1873 0
-24 22 73 1874 0
41 -274 -463 1875 0
-488 339 -387 1876 0
203 452 168 1877 0
218 -222 -493 1878 0
-173 138 176 1879 0
-423 350 377 1880 0
233 355 -471 1881 0
442 417 -419 1882 0
214 452 118 1883 0
-98 132 -127 1884 0
-123 269 -295 1885 0
106 370 -322 1886 0
-191 -138 -196 1887 0
308 -406 -283 1888 0
-343 397 -326 1889 0
455 -195 -375 1890 0
-131 -388 329 1891 0
-68 -397 340 1892 0
-159 288 -250 1893 0
-457 442 -477 1894 0
347 343 -469 1895 0
-49 -488 -207 1896 0
-420 449 -455 1897 0
-409 -193 -385 1898 0
310 -95 -281 1899 0
378 323 92 1900 0
-209 -355 -126 1901 0
240 328 -259 1902 0
48 345 -285 1903 0
-136 -124 -172 1904 0
-359 -66 -401 1905 0
191 -224 262 1906 0
319 438 -328 1907 0
257 157 -254 1908 0
145 13 -359 1909 0
483 -361 351 1910 0
136 73 -435 1911 0
-344 -66 -108 1912 0
197 499 131 1913 0
486 277 -280 1914 0
-285 229 151 1915 0
-91 -269 -362 1916 0
-93 -392 72 1917 0
-221 -362 437 1918 0
-327 -139 157 1919 0
117 -56 -314 1920 0
-21 337 355 1921 0
-3 67 -13 1922 0
-466 349 -205 1923 0
-404 -205 -89 1924 0
181 -170 -335 1925 0
173 -371 431 1926 0
-244 -275 121 1927 0
490 291 -315 1928 0
197 480 -72 1929 0
372 -281 -185 1930 0
120 -223 -156 1931 0
-36 -4 -404 1932 0
94 -122 -341 1933 0
-274 -468 -451 1934 0
-175 -422 -482 1935 0
-282 -49 -34 1936 0
194 -258 -484 1937 0
-83 -215 89 1938 0
114 -52 411 1939 0
336 299 352 1940 0
302 -163 228 1941 0
273 344 -272 1942 0
313 -102 -294 1943 0
-409 433 -258 1944 0
237 -185 480 1945 0
-492 -439 191 1946 0
376 -244 92 1947 0
428 -478 -61 1948 0
90 43 407 1949 0
468 -33 -316 1950 0
-305 -318 268 1951 0
402 -5 -153 1952 0
-359 228 -305 1953 0
199 -161 129 1954 0
324 433 266 1955 0
64 399 356 1956 0
-61 -435 -409 1957 0
-22 357 -167 1958 0
-104 199 98 1959 0
446 98 92 1960 0
-258 -146 -470 1961 0
-65 372 79 1962 0
-386 -50 491 1963 0
423 182 11 1964 0
410 -491 -419 1965 0
-31 -178 35 1966 0
-464 -332 -148 1967 0
-461 124 7 1968 0
-97 123 422 1969 0
-325 -202 -158 1970 0
-160 305 433 1971 0
-49 86 472 1972 0
237 340 332 1973 0
-271 -261 26 1974 0
-410 405 -321 1975 0
-349 176 280 1976 0
-378 -95 56 1977 0
-139 -381 282 1978 0
-184 -74 -292 1979 0
-221 -96 -114 1980 0
-59 266 -389 1981 0
-288 130 -247 1982 0
362 107 -213 1983 0
35 387 323 1984 0
-103 90 101 1985 0
178 146 -53 1986 0
430 470 276 1987 0
-375 -285 429 1988 0
438 322 -267 1989 0
371 76 1 1990 0
-103 -257 272 1991 0
-215 -156 -243 1992 0
257 481 292 1993 0
-281 490 -288 1994 0
-232 457 13 1995 0
345 371 -26 1996 0
-180 147 -389 1997 0
262 -201 448 1998 0
92 157 -467 1999 0
337 73 -422 2000 0
409 -475 215 2001 0
377 -460 -130 2002 0
-58 -164 61 2003 0
461 375 -86 2004 0
-414 -6 343 2005 0
150 16 -199 2006 0
-248 -184 4 2007 0
-58 -104 -426 2008 0
364 118 262 2009 0
-146 410 -204 2010 0
-175 187 -124 2011 0
-2 -365 -74 2012 0
489 45 -340 2013 0
2 351 -232 2014 0
5 -65 381 2015 0
475 -191 476 2016 0
-191 -43 -184 2017 0
279 -500 495 2018 0
423 392 -79 2019 0
-30 -223 487 2020 0
212 -77 265 2021 0
61 -266 -52 2022 0
-212 179 -115 2023 0
324 172 97 2024 0
-363 -329 -410 2025 0
324 354 195 2026 0
201 -452 499 2027 0
322 -358 297 2028 0
415 400 -499 2029 0
-418 466 405 2030 0
204 -64 -264 2031 0
-496 303 -316 2032 0
-433 -397 -1 2033 0
261 104 173 2034 0
65 344 360 2035 0
-401 144 184 2036 0
-55 236 -388 2037 0
-213 -403 -255 2038 0
-24 -119 172 2039 0
-379 -58 246 2040 0
-151 -113 -194 2041 0
276 -420 298 2042 0
165 218 382 2043 0
-344 -328 -261 2044 0
-135 -179 237 2045 0
118 442 -401 2046 0
495 261 181 2047 0
-366 24 -349 2048 0
-402 -481 -80 2049 0
141 414 312 2050 0
-289 217 -226 2051 0
125 77 294 2052 0
-408 222 79 2053 0
-435 -96 -63 2054 0
-72 149 349 2055 0
-354 277 181 2056 0
-122 -345 -41 2057 0
-55 12 -449 2058 0
119 -275 -406 2059 0
31 -270 225 2060 0
-414 -135 474 2061 0
-186 -308 -217 2062 0
-47 58 -417 2063 0
-179 183 -261 2064 0
281 35 394 2065 0
-452 -248 -25 2066 0
-488 -210 243 2067 0
76 322 -222 2068 0
-457 -315 332 2069 0
-269 -469 -324 2070 0
129 338 237 2071 0
430 188 -220 2072 0
427 -189 478 2073 0
296 75 -227 2074 0
-313 -485 -40 2075 0
446 -26 -327 2076 0
-474 -231 -292 2077 0
-24 203 -450 2078 0
-493 -63 -407 2079 0
63 343 364 2080 0
41 466 -74 2081 0
-207 -407 -216 2082 0
70 -436 425 2083 0
-377 -281 -380 2084 0
-159 -438 -395 2085 0
-239 -364 316 2086 0
75 276 -119 2087 0
-156 -98 -351 2088 0
292 -406 -396 2089 0
-48 -202 178 2090 0
437 -258 15 2091 0
224 443 296 2092 0
-137 -316 -31 2093 0
299 -119 -265 2094 0
453 190 212 2095 0
-110 481 -472 2096 0
62 -359 -49 2097 0
-285 -163 206 2098 0
146 288 280 2099 0
-196 153 265 2100 0
421 -440 -242 2101 0
-309 33 166 2102 0
-86 -9 402 2103 0
-129 -342 330 2104 0
-75 307 -391 2105 0
-342 408 400 2106 0
-373 -342 -91 2107 0
213 164 -105 2108 0
430 316 73 2109 0
-198 192 334 2110 0
-181 -448 -190 2111 0
275 -369 -96 2112 0
491 9 128 2113 0
-244 235 -251 2114 0
485 -333 158 2115 0
329 468 -264 2116 0
302 -44 67 2117 0
-384 -210 -196 2118 0
121 137 497 2119 0
-294 264 -400 2120 0
-215 -78 -490 2121 0
185 -359 -446 2122 0
416 -496 339 2123 0
-139 -132 435 2124 0
203 -86 171 2125 0
-106 195 149 2126 0
381 170 -374 2127 0
30 -435 112 2128 0
-236 45 258 2129 0
358 173 465 2130 0
-44 394 59 2131 0
463 -422 169 2132 0
183 -148 452 2133 0
341 -140 141 2134 0
-447 21 149 2135 0
5 -78 436 2136 0
338 300 -244 2137 0
368 180 282 2138 0
-47 -306 468 2139 0
105 147 -5 2140 0
-385 121 -315 2141 0
-42 -120 -213 2142 0
-277 -134 -188 2143 0
495 -499 -233 2144 0
183 14 499 2145 0
486 393 87 2146 0
-99 -426 -37 2147 0
196 430 328 2148 0
436 363 123 2149 0
131 -480 381 2150 0
276 85 383 2151 0
-188 222 -455 2152 0
229 182 83 2153 0
-280 400 305 2154 0
-388 452 109 2155 0
335 183 -324 2156 0
63 310 -245 2157 0
60 -80 364 2158 0
-251 -207 12 2159 0
376 -435 304 2160 0
-71 53 -59 2161 0
-239 -76 -322 2162 0
-497 -304 271 2163 0
-326 -260 64 2164 0
161 56 -196 2165 0
53 355 440 2166 0
-234 -205 364 2167 0
283 -440 136 2168 0
-199 221 -405 2169 0
-210 499 -381 2170 0
341 14 62 2171 0
449 -252 74 2172 0
-219 188 263 2173 0
405 -383 -300 2174 0
-194 -257 384 2175 0
-131 331 -87 2176 0
356 188 264 2177 0
-303 403 470 2178 0
-452 115 -411 2179 0
226 309 -371 2180 0
63 -15 -119 2181 0
-276 147 30 2182 0
-339 499 3 2183 0
-119 -449 -345 2184 0
109 -413 -1 2185 0
92 427 -223 2186 0
73 -226 407 2187 0
-400 -467 -47 2188 0
373 128 107 2189 0
-212 141 -485 2190 0
23 177 239 2191 0
-443 475 275 2192 0
379 -492 -311 2193 0
-31 -263 21 2194 0
-392 388 427 2195 0
-410 387 197 2196 0
16 74 134 2197 0
-152 -10 -205 2198 0
442 -255 427 2199 0
264 -314 -385 2200 0
-73 -389 -157 2201 0
460 -51 -227 2202 0
307 -398 -74 2203 0
-216 -280 220 2204 0
175 110 225 2205 0
37 -316 8 2206 0
-383 227 414 2207 0
175 -495 -41 2208 0
453 -123 134 2209 0
-288 231 -365 2210 0
-404 286 -335 2211 0
325 265 455 2212 0
-334 -396 -195 2213 0
300 -155 98 2214 0
-401 -70 321 2215 0
-123 243 272 2216 0
447 27 123 2217 0
201 403 341 2218 0
341 312 470 2219 0
395 444 -483 2220 0
109 -208 -417 2221 0
-187 -278 403 2222 0
426 322 33 2223 0
-5 10 167 2224 0
223 335 327 2225 0
16 81 -116 2226 0
-444 -499 30 2227 0
15 301 302 2228 0
-174 -159 64 2229 0
100 221 276 2230 0
-466 317 -137 2231 0
-469 -418 307 2232 0
63 214 125 2233 0
-239 -63 -258 2234 0
64 -196 404 2235 0
-62 373 383 2236 0
-378 -275 -257 2237 0
155 399 -306 2238 0
-149 303 -122 2239 0
-433 -345 197 2240 0
400 -393 289 2241 0
-308 297 450 2242 0
74 155 166 2243 0
398 -456 -420 2244 0
370 182 475 2245 0
-366 57 218 2246 0
-197 297 -179 2247 0
-118 -248 181 2248 0
267 -263 -372 2249 0
472 -102 163 2250 0
326 -380 -280 2251 0
-73 -409 115 2252 0
141 -160 71 2253 0
263 -126 374 2254 0
-53 -418 -76 2255 0
-279 381 231 2256 0
-277 -310 258 2257 0
-214 -16 195 2258 0
-161 -470 261 2259 0
-373 215 114 2260 0
-126 222 -433 2261 0
469 -190 312 2262 0
429 -306 -354 2263 0
19 -403 -61 2264 0
-114 463 248 2265 0
88 149 499 2266 0
-330 23 -112 2267 0
149 -113 339 2268 0
-137 -218 -325 2269 0
-61 -387 -397 2270 0
46 209 -497 2271 0
371 100 -470 2272 0
14 -230 -240 2273 0
-281 -395 -404 2274 0
-494 -493 30 2275 0
-465 -303 168 2276 0
351 387 -399 2277 0
-375 160 253 2278 0
385 262 314 2279 0
79 -322 -53 2280 0
-259 114 238 2281 0
-252 -208 -485 2282 0
-278 375 -176 2283 0
-134 422 -104 2284 0
-211 297 -486 2285 0
-373 -387 438 2286 0
-189 -98 -109 2287 0
211 488 50 2288 0
142 342 -381 2289 0
-127 -33 206 2290 0
428 -218 330 2291 0
249 -473 -57 2292 0
-486 -352 -401 2293 0
-250 -281 -98 2294 0
-356 403 269 2295 0
305 -44 412 2296 0
342 -490 -188 2297 0
-500 -130 126 2298 0
118 300 67 2299 0
-68 -49 -476 2300 0
382 16 -470 2301 0
465 101 282 2302 0
-334 179 -359 2303 0
-400 -256 39 2304 0
-335 -371 480 2305 0
-242 -127 -396 2306 0
400 198 219 2307 0
420 -188 -253 2308 0
-51 -46 -78 2309 0
-404 -252 -391 2310 0
-121 240 493 2311 0
-20 -145 -459 2312 0
-141 276 224 2313 0
429 -272 222 2314 0
15 -6 229 2315 0
-276 -405 -282 2316 0
-240 -490 228 2317 0
-475 -168 165 2318 0
-95 373 45 2319 0
8 -457 191 2320 0
-94 -318 -38 2321 0
226 -51 343 2322 0
-194 -476 -239 2323 0
-106 -331 -251 2324 0
160 -230 -345 2325 0
-484 356 -113 2326 0
213 -384 -296 2327 0
17 272 -241 2328 0
418 56 284 2329 0
380 371 272 2330 0
-210 313 76 2331 0
495 -439 317 2332 0
-383 -222 -444 2333 0
-481 -73 78 2334 0
358 -194 366 2335 0
-186 -18 -91 2336 0
96 303 -245 2337 0
-108 -406 60 2338 0
23 144 -415 2339 0
316 -342 -408 2340 0
-244 145 -288 2341 0
445 -310 406 2342 0
-246 63 -273 2343 0
125 364 -438 2344 0
-483 -343 94 2345 0
96 371 297 2346 0
322 -29 -175 2347 0
158 46 98 2348 0
-316 331 102 2349 0
-81 108 -79 2350 0
-446 -500 453 2351 0
311 -166 -324 2352 0
-378 -377 -182 2353 0
294 351 401 2354 0
-342 -442 -98 2355 0
1 -449 364 2356 0
-448 -475 -95 2357 0
-410 459 -262 2358 0
130 -47 442 2359 0
-177 -19 385 2360 0
-422 163 -18 2361 0
143 -451 410 2362 0
228 -432 -332 2363 0
429 -270 188 2364 0
366 -442 332 2365 0
-401 -238 424 2366 0
-365 67 -82 2367 0
-109 -66 376 2368 0
344 -14 421 2369 0
-333 -204 211 2370 0
-31 473 211 2371 0
-428 56 37 2372 0
-124 272 -396 2373 0
277 -248 -368 2374 0
109 20 169 2375 0
302 -141 -292 2376 0
276 -228 441 2377 0
-238 277 -373 2378 0
-240 -358 -488 2379 0
-373 112 359 2380 0
424 179 374 2381 0
-48 -167 80 2382 0
-255 -210 367 2383 0
328 140 -428 2384 0
106 448 462 2385 0
-114 -110 -490 2386 0
-481 148 -277 2387 0
195 -451 -227 2388 0
493 142 -3 2389 0
-134 160 -36 2390 0
259 478 -225 2391 0
21 -27 31 2392 0
494 -65 239 2393 0
163 -242 47 2394 0
-228 -471 124 2395 0
-215 401 -206 2396 0
-35 306 392 2397 0
-25 -208 496 2398 0
186 -361 -79 2399 0
-359 113 270 2400 0
-314 230 190 2401 0
-246 363 106 2402 0
429 494 306 2403 0
-396 145 -111 2404 0
-330 -163 82 2405 0
80 128 -483 2406 0
-441 -403 -55 2407 0
-276 -15 -154 2408 0
-155 -335 -64 2409 0
-212 155 -68 2410 0
26 -61 -470 2411 0
-224 -228 255 2412 0
-238 -320 144 2413 0
-283 -237 -153 2414 0
89 142 293 2415 0
-242 -70 -273 2416 0
-344 -342 238 2417 0
-205 -22 245 2418 0
-366 -444 138 2419 0
276 -358 -402 2420 0
334 355 -120 2421 0
-383 449 -143 2422 0
-138 -471 424 2423 0
-359 272 -358 2424 0
-92 -382 -415 2425 0
-223 -222 -32 2426 0
-446 74 -465 2427 0
-168 161 -133 2428 0
-236 -113 400 2429 0
86 -207 186 2430 0
-221 -10 405 2431 0
-449 431 -11 2432 0
39 -463 -188 2433 0
229 474 -52 2434 0
447 484 -175 2435 0
-256 148 420 2436 0
-305 488 222 2437 0
34 -88 -325 2438 0
91 302 -105 2439 0
-311 143 -295 2440 0
-83 74 249 2441 0
-135 -427 -420 2442 0
-438 211 -459 2443 0
-88 354 207 2444 0
51 195 444 2445 0
408 -291 -361 2446 0
-2 31 113 2447 0
-375 51 5 2448 0
-32 215 6 2449 0
-149 379 -428 2450 0
-256 -151 281 2451 0
400 -116 355 2452 0
-263 176 434 2453 0
-226 -499 -163 2454 0
130 48 42 2455 0
426 10 -141 2456 0
-177 -412 71 2457 0
74 -354 133 2458 0
39 428 -288 2459 0
73 401 -442 2460 0
-498 181 144 2461 0
266 44 188 2462 0
-247 164 303 2463 0
49 -361 -433 2464 0
-392 366 73 2465 0
-160 426 -243 2466 0
-54 418 -469 2467 0
-345 -255 34 2468 0
-204 309 -103 2469 0
-16 -368 -6 2470 0
190 -73 -183 2471 0
-364 356 -490 2472 0
-240 -204 -113 2473 0
-209 -316 266 2474 0
336 340 -85 2475 0
-399 -326 -62 2476 0
344 -135 55 2477 0
243 208 -325 2478 0
134 294 -208 2479 0
-148 382 -147 2480 0
370 159 304 2481 0
411 -248 496 2482 0
303 -485 179 2483 0
-50 2 -370 2484 0
409 -345 53 2485 0
16 -241 -326 2486 0
452 87 -462 2487 0
421 -162 157 2488 0
445 402 -286 2489 0
-479 -53 92 2490 0
97 323 35 2491 0
185 -224 -484 2492 0
495 -160 18 2493 0
-9 -200 127 2494 0
400 326 9 2495 0
-147 -171 151 2496 0
328 -427 68 2497 0
-459 -55 232 2498 0
104 -365 -383 2499 0
-425 403 -395 2500 0
59 67 -471 2501 0
10 9 -279 2502 0
-279 299 43 2503 0
451 -199 142 2504 0
145 -417 35 2505 0
-75 46 478 2506 0
490 -306 14 2507 0
-34 -145 -217 2508 0
-497 5 -202 2509 0
188 -230 -72 2510 0
-312 338 331 2511 0
-95 222 197 2512 0
-53 60 472 2513 0
-100 348 384 2514 0
-497 467 -324 2515 0
471 338 -18 2516 0
168 -115 84 2517 0
-467 -47 -492 2518 0
371 -441 -385 2519 0
162 211 12 2520 0
324 370 -366 2521 0
-75 208 390 2522 0
22 74 25 2523 0
-486 346 -181 2524 0
-195 -235 202 2525 0
9 -144 53 2526 0
-137 488 -306 2527 0
-202 -373 -171 2528 0
-118 111 -245 2529 0
-39 132 -174 2530 0
-19 388 270 2531 0
-233 56 249 2532 0
284 182 51 2533 0
373 74 95 2534 0
-396 -454 -181 2535 0
121 141 -40 2536 0
-271 -91 185 2537 0
-139 100 -169 2538 0
-460 -154 -236 2539 0
-180 -176 17 2540 0
313 -98 348 2541 0
338 -442 428 2542 0
-123 495 307 2543 0
-76 479 -187 2544 0
-435 -72 -350 2545 0
-100 400 -196 2546 0
-427 100 8 2547 0
234 -222 -177 2548 0
436 444 443 2549 0
-438 -42 -19 2550 0
-307 13 59 2551 0
-474 -186 -28 2552 0
-465 -485 -167 2553 0
-401 120 -283 2554 0
450 29 358 2555 0
317 -222 41 2556 0
49 99 255 2557 0
-121 415 209 2558 0
-63 -487 187 2559 0
301 398 52 2560 0
11 96 60 2561 0
467 500 357 2562 0
145 264 473 2563 0
238 -206 126 2564 0
91 377 407 2565 0
3 -200 384 2566 0
-407 -325 41 2567 0
113 -28 376 2568 0
-290 498 208 2569 0
-346 -1 295 2570 0
-36 435 -152 2571 0
484 -224 124 2572 0
49 -306 -402 2573 0
-349 -327 -311 2574 0
-21 -288 198 2575 0
231 500 -292 2576 0
-444 242 -356 2577 0
416 -402 367 2578 0
-83 -428 446 2579 0
21 94 437 2580 0
-299 103 53 2581 0
-326 433 -465 2582 0
-347 235 454 2583 0
-461 -92 495 2584 0
-34 435 -397 2585 0
162 -102 121 2586 0
-328 -375 171 2587 0
45 -384 -222 2588 0
-485 -114 235 2589 0
-171 -258 235 2590 0
331 442 282 2591 0
-97 71 -130 2592 0
-40 -285 -186 2593 0
216 147 49 2594 0
-393 -423 449 2595 0
-260 117 67 2596 0
-410 -242 -343 2597 0
81 -240 398 2598 0
-232 61 -399 2599 0
255 179 -79 2600 0
-262 116 -336 2601 0
-474 428 -72 2602 0
-296 329 -64 2603 0
76 125 290 2604 0
-294 277 -117 2605 0
-378 197 -69 2606 0
-95 -32 407 2607 0
226 112 415 2608 0
500 196 440 2609 0
412 -439 287 2610 0
103 -373 38 2611 0
-2 -237 107 2612 0
120 -31 -182 2613 0
452 -50 445 2614 0
-394 265 -335 2615 0
428 239 -286 2616 0
-472 467 384 2617 0
-371 -386 -77 2618 0
-155 243 474 2619 0
31 147 304 2620 0
-203 230 496 2621 0
-120 -137 95 2622 0
-396 -70 195 2623 0
-471 108 -336 2624 0
192 -202 -375 2625 0
-73 -462 -453 2626 0
-16 -357 -202 2627 0
-339 -415 -285 2628 0
372 172 244 2629 0
46 282 483 2630 0
416 -358 197 2631 0
-79 3 -428 2632 0
123 -254 323 2633 0
-223 -260 381 2634 0
-265 -323 -496 2635 0
407 29 -131 2636 0
194 -148 -359 2637 0
147 48 359 2638 0
10 -31 -385 2639 0
73 145 -181 2640 0
-196 -120 126 2641 0
-4 -172 -401 2642 0
-201 -396 489 2643 0
-384 -79 130 2644 0
137 -312 242 2645 0
-223 86 -79 2646 0
159 -435 116 2647 0
-223 287 -437 2648 0
-189 462 -490 2649 0
-110 482 -260 2650 0
