p cnf 2650 2150
21 450 -464 501 0
302 -337 -48 502 0
497 471 -236 503 0
332 -185 463 504 0
-130 438 287 505 0
462 487 141 506 0
-266 268 42 507 0
-93 -479 412 508 0
154 17 66 509 0
-315 -77 476 510 0
444 164 345 511 0
112 -211 13 512 0
375 -295 -301 513 0
315 -172 -483 514 0
-445 -486 60 515 0
-395 389 -159 516 0
-276 -12 454 517 0
-306 -447 -281 518 0
383 456 -174 519 0
-130 -85 120 520 0
352 366 74 521 0
138 -185 -333 522 0
369 -232 367 523 0
469 -127 485 524 0
-286 293 226 525 0
486 327 368 526 0
-178 417 333 527 0
174 -192 -398 528 0
28 34 338 529 0
-248 -183 -222 530 0
485 -480 361 531 0
-305 46 -448 532 0
-449 -469 -179 533 0
-497 27 350 534 0
-489 394 409 535 0
-345 359 -151 536 0
-239 76 348 537 0
98 389 330 538 0
113 -407 191 539 0
40 -262 -486 540 0
-264 -103 267 541 0
-117 249 -92 542 0
62 102 267 543 0
-483 -115 -259 544 0
242 45 -264 545 0
-273 67 -253 546 0
417 -233 475 547 0
179 500 195 548 0
217 -75 263 549 0
-306 -260 -422 550 0
-468 231 412 551 0
-44 -400 -314 552 0
213 -38 -477 553 0
-285 -231 -121 554 0
-137 -38 395 555 0
-275 404 30 556 0
-434 460 258 557 0
-368 218 77 558 0
-151 13 375 559 0
-492 171 -279 560 0
226 423 -171 561 0
493 -258 373 562 0
49 188 -60 563 0
-56 142 -97 564 0
209 -427 -291 565 0
486 196 136 566 0
-318 -228 -12 567 0
-344 -279 168 568 0
-363 416 393 569 0
-32 -9 -374 570 0
-436 222 -92 571 0
334 -184 399 572 0
80 293 -230 573 0
268 -297 -149 574 0
463 117 -438 575 0
-391 -375 36 576 0
16 91 -435 577 0
368 175 256 578 0
112 398 -291 579 0
-65 -211 479 580 0
83 -119 224 581 0
323 134 -421 582 0
138 -277 -62 583 0
-193 -9 -207 584 0
-307 344 131 585 0
-78 -455 376 586 0
324 393 -129 587 0
218 279 -500 588 0
-316 469 291 589 0
-180 -232 -88 590 0
420 -470 44 591 0
-248 -13 -149 592 0
-464 432 -116 593 0
162 -312 -449 594 0
-275 248 234 595 0
-308 395 109 596 0
39 -337 409 597 0
426 61 -268 598 0
272 456 254 599 0
-76 -95 -71 600 0
-243 -52 -104 601 0
480 345 237 602 0
-357 -58 -138 603 0
-444 -273 174 604 0
317 -388 422 605 0
325 -113 148 606 0
-378 -51 209 607 0
-130 -196 -434 608 0
-250 -318 -266 609 0
-473 -104 413 610 0
-441 -341 448 611 0
-257 120 1 612 0
156 451 -78 613 0
34 -304 -444 614 0
500 -9 360 615 0
245 142 204 616 0
302 491 281 617 0
100 -115 56 618 0
379 244 107 619 0
-124 177 -298 620 0
251 -497 252 621 0
217 354 209 622 0
-9 58 -189 623 0
462 -120 318 624 0
-412 -3 -317 625 0
-155 269 -440 626 0
-280 -429 246 627 0
-91 477 -118 628 0
-94 116 -472 629 0
-114 -354 486 630 0
49 -330 -453 631 0
-232 -447 329 632 0
-317 399 81 633 0
65 -479 -177 634 0
-163 367 -271 635 0
292 -436 -355 636 0
-216 -131 388 637 0
68 -483 -182 638 0
417 -224 495 639 0
475 103 385 640 0
-78 -450 217 641 0
-85 420 -212 642 0
66 425 67 643 0
61 213 360 644 0
232 130 -450 645 0
274 -491 358 646 0
74 132 365 647 0
-75 -212 -439 648 0
170 -428 19 649 0
-136 429 79 650 0
237 46 469 651 0
-375 420 269 652 0
-198 458 -108 653 0
-74 -150 461 654 0
-191 9 -419 655 0
-363 245 -138 656 0
-463 242 471 657 0
-368 390 97 658 0
-484 124 348 659 0
57 -263 -401 660 0
-245 272 253 661 0
422 -364 -116 662 0
279 49 439 663 0
-32 335 200 664 0
-370 281 249 665 0
-155 144 27 666 0
454 -198 -450 667 0
101 232 10 668 0
225 143 354 669 0
229 304 256 670 0
-198 -472 -224 671 0
-230 -173 -401 672 0
-307 -348 169 673 0
430 138 128 674 0
452 -238 -450 675 0
270 196 44 676 0
-167 -406 -191 677 0
-463 -359 -487 678 0
-17 -135 377 679 0
26 92 286 680 0
-157 476 110 681 0
-9 -400 -374 682 0
222 -1 -38 683 0
413 429 182 684 0
-361 -187 -240 685 0
-107 -301 490 686 0
-236 207 -149 687 0
-217 140 -112 688 0
131 196 -28 689 0
283 -431 -324 690 0
354 26 -366 691 0
6 340 -373 692 0
-133 287 -30 693 0
25 93 127 694 0
387 -35 52 695 0
246 -419 138 696 0
405 -368 -391 697 0
-329 -296 -483 698 0
-54 -433 197 699 0
-106 454 -73 700 0
-46 233 322 701 0
-21 351 -488 702 0
-42 -76 329 703 0
-391 378 -467 704 0
-74 -50 62 705 0
-454 261 -39 706 0
327 -265 111 707 0
-4 -249 305 708 0
492 -64 90 709 0
327 8 -319 710 0
-100 388 -123 711 0
-143 149 55 712 0
466 -330 274 713 0
-79 69 309 714 0
472 -93 -261 715 0
-289 -279 -56 716 0
-34 -21 415 717 0
-276 499 -128 718 0
-401 -222 -477 719 0
-258 -322 114 720 0
-162 -487 -354 721 0
-291 -396 -129 722 0
22 10 69 723 0
-98 460 -417 724 0
-227 126 -417 725 0
395 -388 495 726 0
-298 -338 319 727 0
342 -465 267 728 0
20 213 -75 729 0
-203 -155 253 730 0
-130 445 312 731 0
-430 55 474 732 0
-347 74 89 733 0
-264 -228 31 734 0
-379 -486 -388 735 0
-307 360 408 736 0
169 315 479 737 0
-248 359 -416 738 0
-373 313 347 739 0
63 -110 -90 740 0
340 279 156 741 0
357 94 -398 742 0
-279 -203 -292 743 0
440 498 217 744 0
-428 -198 6 745 0
317 92 -52 746 0
141 282 275 747 0
-98 -316 402 748 0
-13 270 -339 749 0
262 397 194 750 0
-330 146 -177 751 0
161 -465 -275 752 0
363 -212 -238 753 0
-326 69 -435 754 0
-205 -69 354 755 0
243 -3 276 756 0
120 -461 455 757 0
432 -278 -172 758 0
478 123 -367 759 0
-161 -194 -291 760 0
499 185 -161 761 0
105 111 -93 762 0
161 -367 -102 763 0
90 -467 356 764 0
-124 -436 130 765 0
-401 -89 387 766 0
-433 -345 307 767 0
184 -108 269 768 0
242 409 47 769 0
-325 -111 -90 770 0
305 351 74 771 0
498 69 -359 772 0
-267 -361 78 773 0
312 -298 -159 774 0
159 374 -5 775 0
-257 -389 -357 776 0
395 -169 -134 777 0
-423 -292 -460 778 0
287 -248 478 779 0
369 -193 378 780 0
-62 442 115 781 0
237 480 355 782 0
-12 181 -254 783 0
-199 -339 -66 784 0
-159 419 272 785 0
-42 -113 -91 786 0
227 337 135 787 0
-312 -416 -239 788 0
40 -387 -201 789 0
-469 249 -131 790 0
178 -280 -434 791 0
-456 -222 -245 792 0
424 -25 419 793 0
300 59 -29 794 0
-195 -249 -189 795 0
-54 156 226 796 0
-198 244 -375 797 0
-345 382 -423 798 0
-442 251 179 799 0
-291 -290 299 800 0
41 121 357 801 0
-376 -109 -7 802 0
-120 -241 -231 803 0
-451 -353 208 804 0
-44 -81 242 805 0
-159 236 -28 806 0
-120 380 485 807 0
255 -408 -464 808 0
-188 105 2 809 0
-89 131 73 810 0
64 180 107 811 0
-230 -446 162 812 0
142 31 376 813 0
-65 92 133 814 0
129 -453 -393 815 0
472 -466 281 816 0
-315 -353 -408 817 0
-464 -217 183 818 0
-409 317 454 819 0
-338 420 -287 820 0
442 457 387 821 0
249 236 259 822 0
-332 -100 -163 823 0
470 -449 317 824 0
-405 55 18 825 0
-147 -11 34 826 0
-141 -361 153 827 0
-100 -287 498 828 0
160 385 -126 829 0
351 63 -235 830 0
-146 359 481 831 0
117 -147 -451 832 0
216 190 -389 833 0
146 -290 392 834 0
-461 4 -46 835 0
175 358 -65 836 0
-245 10 -296 837 0
-463 327 52 838 0
398 -3 -43 839 0
248 477 -421 840 0
-40 -186 -300 841 0
-357 381 -232 842 0
55 -203 -31 843 0
-225 162 481 844 0
441 468 -24 845 0
-44 334 -177 846 0
32 -159 373 847 0
500 -414 259 848 0
-350 -25 198 849 0
481 452 -407 850 0
-301 -289 33 851 0
-66 296 -116 852 0
-478 -18 97 853 0
103 -460 -134 854 0
-461 253 -320 855 0
53 255 -112 856 0
-490 112 -343 857 0
139 167 54 858 0
235 -175 -410 859 0
-31 319 -120 860 0
-46 -377 -321 861 0
258 -406 28 862 0
-465 -5 2 863 0
365 -422 231 864 0
-202 -103 -310 865 0
434 -306 141 866 0
-421 475 -241 867 0
450 -2 451 868 0
346 -242 45 869 0
190 178 185 870 0
239 -336 -191 871 0
16 -300 -404 872 0
123 447 429 873 0
237 -75 -401 874 0
-181 -119 -465 875 0
-251 35 139 876 0
347 101 39 877 0
364 -420 -14 878 0
-222 403 -189 879 0
357 -449 144 880 0
428 -245 404 881 0
-391 -362 106 882 0
198 64 -191 883 0
116 -118 -399 884 0
-77 -401 -247 885 0
-467 179 390 886 0
477 -237 327 887 0
422 498 17 888 0
-486 227 137 889 0
-234 397 132 890 0
-207 -94 -229 891 0
128 -266 -252 892 0
12 -478 -201 893 0
110 253 51 894 0
-436 -102 227 895 0
-43 460 -266 896 0
-16 -265 257 897 0
-445 365 381 898 0
-24 69 449 899 0
-157 -118 25 900 0
455 70 245 901 0
339 -269 -493 902 0
-93 -437 453 903 0
-408 -280 54 904 0
117 -186 153 905 0
16 317 -357 906 0
-490 -400 -120 907 0
-80 -493 -147 908 0
198 -371 -495 909 0
44 -149 268 910 0
-282 433 -204 911 0
-58 -93 30 912 0
357 -342 -304 913 0
-331 81 10 914 0
270 -84 -65 915 0
428 314 -318 916 0
-119 -204 -61 917 0
-320 372 -206 918 0
41 -388 -190 919 0
66 -413 -28 920 0
151 -168 181 921 0
61 244 -20 922 0
257 340 363 923 0
102 -281 -349 924 0
-131 262 -76 925 0
157 130 335 926 0
-164 395 -321 927 0
-96 390 -271 928 0
328 -201 12 929 0
206 204 -410 930 0
386 490 450 931 0
-362 -30 -431 932 0
-357 -303 490 933 0
-77 486 -18 934 0
247 -312 199 935 0
-98 -290 -50 936 0
-335 267 69 937 0
-52 239 102 938 0
-122 33 -393 939 0
-24 314 -18 940 0
-318 -406 -309 941 0
-24 272 69 942 0
-406 -457 115 943 0
-215 -118 120 944 0
218 153 -279 945 0
-74 -328 -173 946 0
57 59 -78 947 0
-252 327 446 948 0
-130 398 285 949 0
352 76 -89 950 0
147 8 -368 951 0
255 382 194 952 0
243 -461 -16 953 0
-158 398 -271 954 0
-253 -376 446 955 0
-44 -102 363 956 0
179 -450 199 957 0
-295 -53 165 958 0
-123 308 -56 959 0
415 -153 237 960 0
-106 -332 161 961 0
-306 468 -265 962 0
-323 165 -200 963 0
-219 343 -360 964 0
-328 -6 -388 965 0
69 -429 -439 966 0
328 372 212 967 0
445 468 -499 968 0
472 280 287 969 0
325 216 29 970 0
-409 -102 -374 971 0
-13 349 -453 972 0
-488 -408 113 973 0
-274 161 -413 974 0
-194 301 186 975 0
387 462 -422 976 0
302 435 176 977 0
-158 189 -277 978 0
102 -174 453 979 0
226 326 220 980 0
51 -345 279 981 0
40 -451 142 982 0
124 -379 320 983 0
250 -55 -158 984 0
-484 214 -71 985 0
370 359 268 986 0
-168 199 255 987 0
358 -194 96 988 0
-370 -239 -494 989 0
425 102 263 990 0
-229 -291 -227 991 0
213 243 -440 992 0
-354 -60 321 993 0
-56 323 249 994 0
-139 -105 209 995 0
-471 295 -212 996 0
-456 67 -301 997 0
-174 -353 422 998 0
117 -171 183 999 0
-252 -178 -303 1000 0
-167 332 225 1001 0
330 288 -64 1002 0
-45 55 -2 1003 0
-213 -113 -374 1004 0
233 -334 -247 1005 0
161 -42 284 1006 0
393 -329 370 1007 0
76 -448 -117 1008 0
-85 -214 329 1009 0
220 273 300 1010 0
410 -252 423 1011 0
-11 236 -209 1012 0
133 324 244 1013 0
-453 73 -288 1014 0
-271 -460 85 1015 0
422 -472 -273 1016 0
-27 137 499 1017 0
-257 -113 -287 1018 0
100 333 -368 1019 0
288 -205 -450 1020 0
-450 -500 -106 1021 0
78 67 400 1022 0
134 248 456 1023 0
-198 -313 -110 1024 0
416 -374 478 1025 0
-19 -97 -44 1026 0
59 -406 -359 1027 0
135 117 306 1028 0
372 265 129 1029 0
114 -273 161 1030 0
-189 106 358 1031 0
-6 437 -73 1032 0
-227 137 -68 1033 0
219 -416 -227 1034 0
245 -96 -13 1035 0
-40 -139 -155 1036 0
-180 -124 -313 1037 0
249 -252 90 1038 0
-11 223 429 1039 0
314 -396 24 1040 0
-24 292 41 1041 0
318 -63 359 1042 0
35 236 -4 1043 0
147 36 -114 1044 0
-231 -259 54 1045 0
124 -169 494 1046 0
254 473 408 1047 0
-277 187 -369 1048 0
123 281 -364 1049 0
432 349 -471 1050 0
44 317 -38 1051 0
468 -46 -285 1052 0
-420 -468 -439 1053 0
-379 129 -94 1054 0
334 -486 315 1055 0
91 -324 233 1056 0
-346 275 185 1057 0
58 456 63 1058 0
-275 469 448 1059 0
321 433 362 1060 0
268 -420 387 1061 0
134 -337 311 1062 0
-359 294 309 1063 0
273 50 -3 1064 0
143 91 119 1065 0
37 445 -380 1066 0
-461 164 356 1067 0
304 163 202 1068 0
-35 179 -102 1069 0
59 240 -313 1070 0
331 -310 -89 1071 0
-446 -181 -169 1072 0
-244 423 -331 1073 0
-108 449 163 1074 0
442 31 -160 1075 0
-216 -228 -142 1076 0
-415 -355 -477 1077 0
424 498 -150 1078 0
-436 25 -315 1079 0
274 307 -254 1080 0
-220 461 -497 1081 0
440 57 286 1082 0
485 358 423 1083 0
139 60 -344 1084 0
-344 -231 18 1085 0
-33 -335 446 1086 0
265 340 71 1087 0
295 82 -52 1088 0
107 -262 -200 1089 0
252 426 404 1090 0
57 432 -70 1091 0
353 98 -481 1092 0
-18 427 -120 1093 0
-176 -30 -324 1094 0
-330 314 253 1095 0
-161 -359 -391 1096 0
77 485 259 1097 0
3 328 69 1098 0
86 172 -12 1099 0
364 474 -438 1100 0
-81 168 -14 1101 0
-322 14 -272 1102 0
381 -294 -442 1103 0
171 -275 -458 1104 0
-62 -173 -110 1105 0
261 -299 359 1106 0
275 -255 25 1107 0
182 -351 -234 1108 0
197 124 -223 1109 0
-289 -352 344 1110 0
35 310 107 1111 0
-397 373 188 1112 0
20 -376 -114 1113 0
392 -367 -420 1114 0
-15 185 -475 1115 0
218 -369 -156 1116 0
-409 294 -81 1117 0
239 348 -114 1118 0
-99 49 221 1119 0
4 -211 267 1120 0
263 -49 379 1121 0
235 310 -490 1122 0
418 158 311 1123 0
-482 114 -176 1124 0
-363 -84 453 1125 0
-191 198 324 1126 0
-117 -268 64 1127 0
284 313 -443 1128 0
230 201 -42 1129 0
299 -326 -158 1130 0
109 445 210 1131 0
-435 93 289 1132 0
-260 48 66 1133 0
-92 246 118 1134 0
232 -203 -319 1135 0
-197 419 71 1136 0
-447 80 -99 1137 0
-49 141 -189 1138 0
423 -353 -389 1139 0
50 169 -7 1140 0
-497 432 479 1141 0
-35 442 -289 1142 0
-496 113 478 1143 0
470 15 280 1144 0
436 -120 102 1145 0
238 -416 -370 1146 0
287 334 464 1147 0
-408 444 280 1148 0
-483 -333 -331 1149 0
-305 5 327 1150 0
-156 366 -326 1151 0
100 485 81 1152 0
-370 -387 -23 1153 0
-441 -331 58 1154 0
445 -197 498 1155 0
453 282 359 1156 0
68 -300 137 1157 0
-132 -80 42 1158 0
488 154 -281 1159 0
-272 307 -39 1160 0
-325 417 -197 1161 0
86 449 291 1162 0
-442 363 306 1163 0
439 -245 -46 1164 0
330 337 363 1165 0
-16 411 181 1166 0
-335 -296 428 1167 0
87 266 378 1168 0
28 263 -353 1169 0
275 77 36 1170 0
50 309 -368 1171 0
234 425 -205 1172 0
-250 -15 -155 1173 0
-103 114 -20 1174 0
-176 -363 -461 1175 0
-36 19 468 1176 0
358 -496 366 1177 0
380 340 281 1178 0
-8 -13 334 1179 0
155 430 28 1180 0
-321 144 155 1181 0
-53 290 -34 1182 0
354 -176 -313 1183 0
-76 194 -481 1184 0
279 -71 -173 1185 0
153 302 -27 1186 0
-413 454 -11 1187 0
-397 326 28 1188 0
166 -252 -437 1189 0
316 -350 163 1190 0
366 375 178 1191 0
280 41 482 1192 0
344 480 299 1193 0
-247 -389 -172 1194 0
281 -411 75 1195 0
383 -15 127 1196 0
-422 -329 267 1197 0
-278 342 -140 1198 0
386 206 448 1199 0
-88 -144 252 1200 0
-449 -475 -440 1201 0
-220 -44 -319 1202 0
353 317 -465 1203 0
-209 9 -435 1204 0
319 -362 477 1205 0
28 -251 -170 1206 0
292 -488 -456 1207 0
14 363 312 1208 0
291 107 407 1209 0
268 449 -485 1210 0
41 458 -377 1211 0
-178 -381 -483 1212 0
-258 -405 -355 1213 0
480 -165 -367 1214 0
256 -331 -157 1215 0
-500 252 -151 1216 0
388 377 245 1217 0
278 128 -482 1218 0
-333 -240 193 1219 0
-452 -255 31 1220 0
-130 334 458 1221 0
-261 148 -222 1222 0
127 139 -32 1223 0
-204 -352 11 1224 0
-433 143 369 1225 0
201 299 -188 1226 0
285 194 22 1227 0
83 -64 174 1228 0
190 -55 96 1229 0
184 24 390 1230 0
64 -62 236 1231 0
288 12 -176 1232 0
188 243 28 1233 0
78 471 272 1234 0
-469 -449 -274 1235 0
121 327 356 1236 0
-289 -300 -15 1237 0
275 -322 -274 1238 0
79 310 -432 1239 0
-77 61 345 1240 0
-282 -319 420 1241 0
7 70 -326 1242 0
152 -447 -471 1243 0
-499 31 -16 1244 0
-19 178 -442 1245 0
307 464 -480 1246 0
-290 -78 -437 1247 0
119 359 179 1248 0
134 418 -232 1249 0
-314 -1 55 1250 0
288 -461 45 1251 0
279 412 309 1252 0
51 -148 -80 1253 0
-221 -473 -494 1254 0
-49 -255 -92 1255 0
53 -206 -401 1256 0
-93 -214 -482 1257 0
335 470 -160 1258 0
-411 -293 -68 1259 0
-451 -174 -138 1260 0
421 -136 -162 1261 0
-399 -207 11 1262 0
415 -136 -55 1263 0
167 -335 409 1264 0
-492 343 155 1265 0
186 -203 252 1266 0
-77 -493 -431 1267 0
23 -33 52 1268 0
80 -3 458 1269 0
413 390 -212 1270 0
12 -213 -287 1271 0
-316 -451 -92 1272 0
346 374 48 1273 0
-10 -339 -137 1274 0
-78 -218 -292 1275 0
-440 -402 -387 1276 0
403 -373 -232 1277 0
46 -467 -372 1278 0
342 -82 130 1279 0
-120 167 -115 1280 0
-441 -375 162 1281 0
-93 -265 -176 1282 0
-178 256 -304 1283 0
-488 -95 10 1284 0
-343 61 409 1285 0
-39 161 -358 1286 0
180 -443 305 1287 0
5 -69 254 1288 0
188 -341 -286 1289 0
-183 -46 -400 1290 0
-277 361 -308 1291 0
58 -462 -351 1292 0
82 -57 -139 1293 0
-42 72 349 1294 0
213 331 -408 1295 0
92 -56 38 1296 0
283 427 -297 1297 0
-75 24 -262 1298 0
408 389 480 1299 0
-22 185 -92 1300 0
214 -9 64 1301 0
-329 433 398 1302 0
-185 -51 -217 1303 0
12 -447 -39 1304 0
20 -209 3 1305 0
423 -212 -250 1306 0
-388 177 66 1307 0
110 28 -251 1308 0
110 -127 -205 1309 0
134 480 116 1310 0
369 -37 -233 1311 0
-188 -393 -497 1312 0
235 176 31 1313 0
472 -392 260 1314 0
33 -429 213 1315 0
-461 -47 -456 1316 0
-434 499 -3 1317 0
437 -98 450 1318 0
436 491 -286 1319 0
-172 -155 -285 1320 0
348 473 76 1321 0
83 46 397 1322 0
-470 -213 22 1323 0
187 371 300 1324 0
-14 20 120 1325 0
467 -396 428 1326 0
-127 -269 -495 1327 0
125 -140 -407 1328 0
68 -420 309 1329 0
179 134 411 1330 0
307 -342 -332 1331 0
-450 395 168 1332 0
388 -466 89 1333 0
-286 -21 398 1334 0
394 316 -258 1335 0
-347 361 -349 1336 0
465 2 -443 1337 0
481 36 461 1338 0
-409 74 136 1339 0
354 -257 419 1340 0
138 -457 -194 1341 0
-340 305 385 1342 0
455 -7 -454 1343 0
52 344 -461 1344 0
230 441 -465 1345 0
331 -420 392 1346 0
490 195 4 1347 0
324 128 375 1348 0
-85 -336 64 1349 0
-22 -468 -396 1350 0
162 174 489 1351 0
-386 193 -327 1352 0
217 239 104 1353 0
-361 47 -369 1354 0
188 423 -498 1355 0
-266 -194 -125 1356 0
-33 458 76 1357 0
-193 347 8 1358 0
-468 -464 -458 1359 0
-430 -352 -375 1360 0
-153 -499 -331 1361 0
91 230 -403 1362 0
51 -279 -218 1363 0
384 -313 -443 1364 0
104 -135 -175 1365 0
-190 181 41 1366 0
-171 -5 377 1367 0
-288 -397 -439 1368 0
-171 187 -180 1369 0
146 294 -449 1370 0
-132 -449 273 1371 0
-60 42 -422 1372 0
-394 265 -374 1373 0
2 -109 497 1374 0
420 212 -326 1375 0
331 -72 370 1376 0
-363 255 -301 1377 0
414 -111 259 1378 0
230 463 375 1379 0
-263 438 -158 1380 0
-200 188 -433 1381 0
-452 -444 259 1382 0
-268 169 160 1383 0
416 399 -379 1384 0
-111 22 -274 1385 0
314 12 -218 1386 0
-193 -17 -443 1387 0
315 482 -100 1388 0
-160 286 -293 1389 0
99 422 -378 1390 0
-288 322 480 1391 0
80 -248 -135 1392 0
-248 -37 45 1393 0
-52 71 190 1394 0
257 63 -378 1395 0
-323 376 75 1396 0
390 500 357 1397 0
-395 -132 239 1398 0
135 -404 -300 1399 0
217 438 55 1400 0
-365 -269 -311 1401 0
167 219 294 1402 0
275 -387 -321 1403 0
70 -344 156 1404 0
316 236 -93 1405 0
390 407 203 1406 0
-176 446 422 1407 0
277 -343 -452 1408 0
-500 301 -281 1409 0
458 169 -348 1410 0
-240 22 392 1411 0
459 -171 232 1412 0
-371 -178 -486 1413 0
-116 -47 -239 1414 0
252 -51 71 1415 0
27 -169 -103 1416 0
-183 -39 -50 1417 0
181 -97 349 1418 0
-87 -121 -209 1419 0
441 -329 296 1420 0
-305 -74 -156 1421 0
335 -380 -190 1422 0
-461 -405 -80 1423 0
43 -17 244 1424 0
-465 -161 374 1425 0
110 452 455 1426 0
-173 63 166 1427 0
168 159 129 1428 0
-215 -322 -191 1429 0
-434 19 -200 1430 0
-195 -419 189 1431 0
90 -250 442 1432 0
123 -273 389 1433 0
157 -204 -336 1434 0
260 -419 -162 1435 0
472 492 193 1436 0
-383 164 284 1437 0
-366 -89 82 1438 0
-342 -473 112 1439 0
326 -207 -392 1440 0
-199 -118 474 1441 0
-26 -43 -239 1442 0
-81 264 271 1443 0
37 127 -117 1444 0
52 360 73 1445 0
197 146 -177 1446 0
-27 -321 244 1447 0
329 -120 -405 1448 0
-425 -294 278 1449 0
-456 -486 169 1450 0
-283 220 -155 1451 0
-488 -59 -366 1452 0
-28 -408 410 1453 0
68 256 -370 1454 0
211 208 25 1455 0
-12 -71 -479 1456 0
-271 238 -63 1457 0
-221 -187 -378 1458 0
295 50 219 1459 0
53 424 323 1460 0
-358 -176 -184 1461 0
-430 28 -280 1462 0
-339 -41 -328 1463 0
138 344 352 1464 0
288 -80 -165 1465 0
-317 123 -387 1466 0
-16 -367 -99 1467 0
-224 444 -452 1468 0
-184 70 439 1469 0
-94 441 -133 1470 0
198 353 144 1471 0
101 -61 -78 1472 0
95 380 13 1473 0
372 -214 430 1474 0
-198 -50 221 1475 0
-220 96 453 1476 0
457 424 203 1477 0
-193 -53 262 1478 0
35 -113 115 1479 0
450 -101 -433 1480 0
-30 356 202 1481 0
477 -413 -117 1482 0
187 -380 -90 1483 0
-125 13 -330 1484 0
-292 -379 98 1485 0
189 406 -112 1486 0
82 -417 -161 1487 0
-3 -114 430 1488 0
459 216 335 1489 0
15 -179 -173 1490 0
34 -153 401 1491 0
-283 449 57 1492 0
-262 277 383 1493 0
132 -413 -307 1494 0
-127 -434 186 1495 0
237 -449 397 1496 0
-466 251 -195 1497 0
155 -296 -157 1498 0
-425 -220 -321 1499 0
-155 439 208 1500 0
479 41 395 1501 0
-487 -394 249 1502 0
150 -193 345 1503 0
-344 314 348 1504 0
300 -352 -381 1505 0
-87 -62 286 1506 0
84 -107 -305 1507 0
270 215 -33 1508 0
-176 -420 -458 1509 0
-282 -260 176 1510 0
-250 344 225 1511 0
466 -12 253 1512 0
-15 162 376 1513 0
344 21 -459 1514 0
416 -409 -140 1515 0
131 -384 453 1516 0
147 -294 386 1517 0
460 201 -381 1518 0
-392 -357 -232 1519 0
-358 -229 483 1520 0
-284 -281 312 1521 0
-332 290 -462 1522 0
-215 143 -113 1523 0
-291 82 -437 1524 0
380 -344 412 1525 0
-486 -445 30 1526 0
196 -186 471 1527 0
-430 -101 -161 1528 0
426 112 -197 1529 0
-148 335 230 1530 0
294 183 -192 1531 0
-377 305 331 1532 0
-171 -382 151 1533 0
-427 -238 -377 1534 0
-125 428 -317 1535 0
-130 219 198 1536 0
-358 -367 98 1537 0
-436 -80 -277 1538 0
247 -175 -205 1539 0
-123 62 480 1540 0
-131 -188 -266 1541 0
423 -392 143 1542 0
-237 -337 -368 1543 0
-466 68 -230 1544 0
11 -423 -159 1545 0
109 -243 310 1546 0
445 -480 250 1547 0
393 291 -280 1548 0
18 -433 163 1549 0
-260 -387 -486 1550 0
-160 -482 -60 1551 0
-466 -73 -82 1552 0
-66 -315 -472 1553 0
133 -185 -172 1554 0
161 -218 -314 1555 0
288 316 -235 1556 0
14 257 -128 1557 0
-302 113 -41 1558 0
-304 -130 432 1559 0
-239 -82 357 1560 0
382 -213 142 1561 0
-332 -370 -491 1562 0
-422 409 380 1563 0
214 398 -275 1564 0
-478 138 83 1565 0
-89 -343 8 1566 0
-67 140 -267 1567 0
-151 157 41 1568 0
321 -421 -162 1569 0
-183 61 -189 1570 0
431 114 200 1571 0
-442 -460 -197 1572 0
74 -153 158 1573 0
-255 62 -175 1574 0
-231 3 362 1575 0
363 176 -178 1576 0
324 77 240 1577 0
458 -15 307 1578 0
-103 494 -446 1579 0
-463 -462 483 1580 0
481 474 106 1581 0
165 27 -406 1582 0
-138 371 485 1583 0
-364 -96 -253 1584 0
426 361 250 1585 0
-33 283 -90 1586 0
-240 -238 48 1587 0
410 112 341 1588 0
-97 -396 453 1589 0
-318 287 -286 1590 0
-143 265 -324 1591 0
203 -287 371 1592 0
-483 -488 -302 1593 0
33 -471 370 1594 0
-417 -181 335 1595 0
-343 490 15 1596 0
-228 413 353 1597 0
-388 -85 93 1598 0
236 243 -490 1599 0
218 -97 -284 1600 0
-321 473 -218 1601 0
18 461 -476 1602 0
75 -101 -435 1603 0
-153 262 305 1604 0
-298 316 -310 1605 0
-50 236 -119 1606 0
-394 364 -276 1607 0
305 -228 371 1608 0
-213 -499 -245 1609 0
300 -5 -470 1610 0
287 -360 167 1611 0
287 -300 -457 1612 0
55 -305 -272 1613 0
-274 469 -266 1614 0
357 -471 -356 1615 0
-32 359 159 1616 0
-415 256 359 1617 0
-361 -373 -488 1618 0
257 29 408 1619 0
199 -60 -269 1620 0
-191 -228 -359 1621 0
486 154 -444 1622 0
-64 65 -380 1623 0
414 -452 389 1624 0
120 -293 177 1625 0
45 193 242 1626 0
-393 -17 -279 1627 0
161 -268 122 1628 0
-20 -497 -323 1629 0
-360 -102 445 1630 0
71 294 404 1631 0
281 181 -194 1632 0
-139 10 -473 1633 0
417 -293 -196 1634 0
-299 -226 -322 1635 0
95 -217 239 1636 0
-58 293 -491 1637 0
152 28 251 1638 0
136 360 215 1639 0
-86 -455 -440 1640 0
458 -462 65 1641 0
423 -418 -173 1642 0
-284 -484 -165 1643 0
-424 53 -7 1644 0
-131 -397 -465 1645 0
218 390 426 1646 0
226 -254 -156 1647 0
77 96 10 1648 0
64 278 238 1649 0
190 373 -288 1650 0
-34 329 -490 1651 0
-492 157 -237 1652 0
-395 416 -481 1653 0
-106 25 439 1654 0
422 269 -110 1655 0
-299 126 -234 1656 0
-408 75 263 1657 0
403 8 -355 1658 0
314 -299 -90 1659 0
110 253 -122 1660 0
-12 -450 421 1661 0
-329 198 208 1662 0
-292 368 -226 1663 0
154 -408 455 1664 0
100 402 282 1665 0
379 -62 -310 1666 0
372 -343 205 1667 0
-387 25 362 1668 0
-441 -79 -347 1669 0
400 -179 5 1670 0
-307 -100 382 1671 0
158 -391 408 1672 0
187 -445 -176 1673 0
-195 403 120 1674 0
469 -277 -412 1675 0
254 -19 -214 1676 0
-208 -69 498 1677 0
308 -103 -209 1678 0
426 64 -222 1679 0
369 200 -28 1680 0
86 -310 460 1681 0
17 63 -244 1682 0
-400 -71 -380 1683 0
208 320 330 1684 0
228 390 -388 1685 0
224 385 -20 1686 0
-24 273 65 1687 0
229 -496 201 1688 0
144 -115 -140 1689 0
370 372 427 1690 0
-7 157 -272 1691 0
-235 -1 418 1692 0
48 179 -158 1693 0
-82 -154 338 1694 0
-198 -247 346 1695 0
-21 -119 77 1696 0
-464 107 214 1697 0
372 50 459 1698 0
-454 450 89 1699 0
-157 278 -500 1700 0
-416 246 104 1701 0
270 -104 -471 1702 0
-136 -194 -361 1703 0
-453 -22 489 1704 0
210 -18 137 1705 0
466 404 -148 1706 0
-298 477 -118 1707 0
-182 54 79 1708 0
105 165 -87 1709 0
-169 -310 143 1710 0
-198 152 -130 1711 0
-361 173 185 1712 0
260 177 -171 1713 0
-385 -203 -3 1714 0
241 153 21 1715 0
-318 142 -182 1716 0
-453 -375 -199 1717 0
-297 -34 -283 1718 0
324 -500 -431 1719 0
80 -74 395 1720 0
-318 15 -244 1721 0
93 -31 -240 1722 0
-37 -130 356 1723 0
369 -268 229 1724 0
87 -327 44 1725 0
-60 -471 -437 1726 0
-2 -160 -331 1727 0
-329 -432 469 1728 0
-9 -210 -166 1729 0
235 -454 -16 1730 0
412 224 316 1731 0
-262 374 146 1732 0
-64 283 462 1733 0
354 65 330 1734 0
6 380 448 1735 0
-77 -61 -170 1736 0
-487 -71 -217 1737 0
-101 -309 -497 1738 0
-328 -477 -69 1739 0
-258 -165 -18 1740 0
344 310 242 1741 0
-347 287 284 1742 0
-54 -493 271 1743 0
283 284 -64 1744 0
-154 -201 -293 1745 0
-102 177 -299 1746 0
63 333 321 1747 0
-485 -49 106 1748 0
160 -109 -416 1749 0
-240 -297 -152 1750 0
61 -139 -400 1751 0
4 -394 -6 1752 0
-246 366 347 1753 0
-351 -182 407 1754 0
125 -401 52 1755 0
-167 124 40 1756 0
-162 -166 -344 1757 0
247 351 -176 1758 0
247 -27 -396 1759 0
-265 85 -461 1760 0
166 405 375 1761 0
-196 431 -209 1762 0
-264 419 -233 1763 0
-213 -121 -478 1764 0
315 -236 179 1765 0
339 80 329 1766 0
-146 -293 -61 1767 0
-270 -422 362 1768 0
-498 123 -233 1769 0
481 -294 -295 1770 0
-174 -153 200 1771 0
-411 346 -34 1772 0
-124 -140 359 1773 0
334 43 -438 1774 0
48 498 -10 1775 0
-200 54 -193 1776 0
-132 317 -29 1777 0
-345 -349 -319 1778 0
207 78 -100 1779 0
-453 -139 -289 1780 0
-376 -110 272 1781 0
78 -223 77 1782 0
301 -326 -438 1783 0
-356 -300 179 1784 0
323 116 -99 1785 0
-181 366 -464 1786 0
373 442 -53 1787 0
307 -85 -174 1788 0
83 7 116 1789 0
-362 -144 -349 1790 0
-379 -294 26 1791 0
473 157 -180 1792 0
473 474 -66 1793 0
257 117 -5 1794 0
-72 70 279 1795 0
-219 376 -304 1796 0
122 287 221 1797 0
163 172 -18 1798 0
77 -496 -476 1799 0
136 -294 -20 1800 0
490 -319 151 1801 0
-170 80 171 1802 0
281 -411 349 1803 0
233 488 -269 1804 0
-451 21 -197 1805 0
-206 153 -365 1806 0
-493 31 -213 1807 0
-7 -348 150 1808 0
400 -221 261 1809 0
-404 202 346 1810 0
4 -170 -297 1811 0
-192 412 -396 1812 0
226 -80 -125 1813 0
17 -377 410 1814 0
-122 387 -131 1815 0
4 453 -71 1816 0
475 15 -402 1817 0
-115 -212 466 1818 0
462 395 33 1819 0
-346 285 -109 1820 0
-288 354 281 1821 0
62 -440 -381 1822 0
-59 175 102 1823 0
69 374 158 1824 0
-163 -450 -145 1825 0
112 -424 16 1826 0
473 -372 -44 1827 0
-103 -414 367 1828 0
419 -142 -497 1829 0
361 285 425 1830 0
112 -278 -374 1831 0
207 209 -262 1832 0
-447 -302 -19 1833 0
-430 -368 -337 1834 0
-289 -466 224 1835 0
-219 -453 -353 1836 0
404 453 238 1837 0
454 -362 -448 1838 0
-147 -127 -247 1839 0
-440 -298 -143 1840 0
101 373 194 1841 0
-228 418 367 1842 0
68 495 -26 1843 0
-193 -18 -426 1844 0
82 -272 384 1845 0
-181 -416 77 1846 0
-378 -324 -186 1847 0
-171 -101 -32 1848 0
-53 331 -7 1849 0
-280 12 72 1850 0
-131 -170 -198 1851 0
-141 38 -158 1852 0
-292 -67 24 1853 0
-374 -443 -61 1854 0
90 -328 -165 1855 0
-411 157 -174 1856 0
-66 -208 311 1857 0
157 180 -331 1858 0
121 499 -154 1859 0
260 -61 177 1860 0
-370 -350 307 1861 0
-331 -276 121 1862 0
202 -497 -204 1863 0
487 -161 457 1864 0
-327 -426 -90 1865 0
433 -175 -147 1866 0
-339 344 -269 1867 0
-132 122 -404 1868 0
125 421 68 1869 0
-394 384 -175 1870 0
445 -365 -222 1871 0
29 13 54 1872 0
-354 -45 -346 1873 0
-342 -490 56 1874 0
-474 79 139 1875 0
-224 -95 364 1876 0
182 -137 -381 1877 0
-456 103 -146 1878 0
-458 -411 164 1879 0
260 196 295 1880 0
80 283 473 1881 0
-66 -164 461 1882 0
278 -126 -486 1883 0
20 319 71 1884 0
-186 -53 374 1885 0
-147 310 -249 1886 0
193 477 350 1887 0
67 423 -105 1888 0
-251 92 451 1889 0
-95 239 207 1890 0
-331 223 -266 1891 0
-425 352 -211 1892 0
-318 -254 174 1893 0
-44 -135 157 1894 0
452 -439 -19 1895 0
447 9 149 1896 0
-88 -142 -405 1897 0
318 -74 107 1898 0
78 -48 -364 1899 0
-444 493 39 1900 0
238 -425 475 1901 0
-282 -304 -307 1902 0
106 -66 169 1903 0
468 463 -391 1904 0
357 292 -212 1905 0
-340 93 231 1906 0
57 -202 378 1907 0
149 -189 39 1908 0
297 320 162 1909 0
285 -189 -259 1910 0
208 -86 -272 1911 0
69 -77 378 1912 0
-330 -32 396 1913 0
480 132 -440 1914 0
-146 -37 -491 1915 0
-328 -486 -151 1916 0
82 -487 158 1917 0
368 139 152 1918 0
-190 470 -267 1919 0
347 223 135 1920 0
253 -274 319 1921 0
28 181 -457 1922 0
273 127 -293 1923 0
-112 -341 -426 1924 0
-259 -30 286 1925 0
-490 -403 147 1926 0
-10 -76 -79 1927 0
-280 306 -340 1928 0
-283 -74 190 1929 0
111 439 35 1930 0
375 177 -332 1931 0
72 -158 -2 1932 0
485 432 39 1933 0
-182 353 -453 1934 0
413 -98 -250 1935 0
21 302 -17 1936 0
250 472 113 1937 0
193 254 104 1938 0
-364 329 475 1939 0
363 465 -300 1940 0
427 -248 -385 1941 0
234 232 2 1942 0
234 -66 -348 1943 0
197 -66 185 1944 0
54 188 334 1945 0
224 -294 -256 1946 0
92 100 331 1947 0
434 112 -317 1948 0
301 -449 343 1949 0
327 -271 196 1950 0
312 113 136 1951 0
-344 -133 -41 1952 0
467 -146 332 1953 0
-419 51 202 1954 0
-157 378 245 1955 0
-308 -484 -109 1956 0
216 8 340 1957 0
183 284 -66 1958 0
-124 -189 150 1959 0
439 14 -15 1960 0
252 144 -298 1961 0
-252 -494 -202 1962 0
-227 -73 333 1963 0
394 174 68 1964 0
382 -196 1 1965 0
150 259 399 1966 0
174 292 -489 1967 0
-28 -128 90 1968 0
203 -332 -158 1969 0
199 -76 -486 1970 0
467 274 269 1971 0
223 132 122 1972 0
-455 -25 -379 1973 0
41 93 -251 1974 0
460 29 -218 1975 0
166 -313 350 1976 0
307 335 14 1977 0
486 172 331 1978 0
483 -119 -8 1979 0
-430 275 -99 1980 0
237 403 190 1981 0
-238 117 367 1982 0
-349 358 313 1983 0
-396 -191 344 1984 0
66 -413 -463 1985 0
-114 -265 375 1986 0
-468 88 267 1987 0
493 -322 -69 1988 0
296 -145 72 1989 0
-250 273 -378 1990 0
-41 -301 53 1991 0
308 -467 -81 1992 0
334 223 13 1993 0
473 -382 -56 1994 0
126 435 336 1995 0
409 -235 -293 1996 0
-8 253 312 1997 0
128 -79 -465 1998 0
478 426 -216 1999 0
-164 -393 156 2000 0
418 319 -453 2001 0
56 371 -200 2002 0
375 131 -117 2003 0
65 426 -198 2004 0
277 249 193 2005 0
-468 -186 160 2006 0
-188 227 -265 2007 0
-498 140 -264 2008 0
416 249 257 2009 0
308 132 -42 2010 0
-465 7 -29 2011 0
380 -397 381 2012 0
-105 -491 313 2013 0
-22 -292 -85 2014 0
-167 -10 135 2015 0
353 -174 -487 2016 0
-221 53 -492 2017 0
-315 115 265 2018 0
-452 429 343 2019 0
-112 -134 172 2020 0
199 -160 63 2021 0
-109 -280 -437 2022 0
492 165 152 2023 0
425 428 -110 2024 0
-368 -459 60 2025 0
-45 236 387 2026 0
-15 95 -165 2027 0
434 -202 -399 2028 0
363 -182 334 2029 0
-383 225 67 2030 0
-223 -36 345 2031 0
325 463 -212 2032 0
126 -78 432 2033 0
10 -284 -175 2034 0
-490 -194 367 2035 0
-7 249 326 2036 0
-471 171 -40 2037 0
118 288 -91 2038 0
-430 85 -198 2039 0
105 -323 285 2040 0
-88 -157 -399 2041 0
-247 -374 336 2042 0
350 446 176 2043 0
190 -297 -146 2044 0
-385 -344 -72 2045 0
-260 35 -66 2046 0
-420 89 3 2047 0
202 -171 -270 2048 0
-430 -31 -265 2049 0
263 -216 64 2050 0
-12 36 -74 2051 0
-266 -201 -401 2052 0
134 -252 192 2053 0
440 -373 -388 2054 0
-97 -218 -194 2055 0
342 -356 191 2056 0
-233 299 -401 2057 0
158 -99 390 2058 0
-14 -86 380 2059 0
-452 127 -303 2060 0
175 -17 456 2061 0
-310 448 15 2062 0
-269 -206 166 2063 0
223 105 60 2064 0
-213 152 -262 2065 0
-383 -299 -273 2066 0
-2 -215 -151 2067 0
282 -461 187 2068 0
162 412 481 2069 0
-367 421 -33 2070 0
-236 148 302 2071 0
-312 489 -202 2072 0
-458 431 383 2073 0
170 -215 196 2074 0
-251 -453 -125 2075 0
-147 307 14 2076 0
-242 -48 46 2077 0
-359 499 287 2078 0
329 29 -35 2079 0
71 349 -366 2080 0
-393 -280 -262 2081 0
203 39 185 2082 0
-494 101 336 2083 0
225 -260 -461 2084 0
-487 265 -360 2085 0
264 -287 434 2086 0
278 447 -256 2087 0
495 466 -318 2088 0
294 -346 56 2089 0
231 303 -100 2090 0
335 29 351 2091 0
311 -426 -187 2092 0
-63 241 424 2093 0
-317 -490 136 2094 0
-379 206 160 2095 0
64 -291 125 2096 0
439 53 499 2097 0
-482 297 -184 2098 0
65 -166 -382 2099 0
390 369 -179 2100 0
167 145 454 2101 0
301 -321 -303 2102 0
184 172 -326 2103 0
-35 -184 203 2104 0
157 430 389 2105 0
339 163 -385 2106 0
474 242 496 2107 0
84 248 -79 2108 0
-388 -136 177 2109 0
-500 -24 -451 2110 0
371 -361 130 2111 0
-20 234 39 2112 0
-81 -99 -34 2113 0
97 -445 474 2114 0
-316 -328 -160 2115 0
301 69 -425 2116 0
-102 296 171 2117 0
462 -80 -29 2118 0
247 228 130 2119 0
-431 -24 -446 2120 0
-454 -211 -500 2121 0
361 415 276 2122 0
-358 348 -445 2123 0
-387 351 285 2124 0
403 -311 291 2125 0
370 -440 -462 2126 0
79 -425 302 2127 0
114 109 -424 2128 0
-390 -53 219 2129 0
385 -246 154 2130 0
431 -347 -119 2131 0
482 186 325 2132 0
374 -404 -443 2133 0
-239 366 -128 2134 0
-27 230 71 2135 0
73 -266 -304 2136 0
-128 412 -100 2137 0
-341 -172 -119 2138 0
78 -230 -46 2139 0
149 -402 433 2140 0
170 -309 -18 2141 0
-18 121 -468 2142 0
298 -337 424 2143 0
-236 -152 24 2144 0
343 412 -340 2145 0
-170 472 -174 2146 0
-175 345 477 2147 0
367 418 371 2148 0
-376 424 -22 2149 0
455 269 -328 2150 0
146 250 364 2151 0
93 364 -441 2152 0
-333 -107 -17 2153 0
-112 210 494 2154 0
137 -346 -127 2155 0
-305 309 33 2156 0
167 287 -337 2157 0
-82 39 316 2158 0
150 188 -116 2159 0
-408 -184 457 2160 0
7 -170 -155 2161 0
-287 390 -48 2162 0
-388 -11 52 2163 0
368 -155 -153 2164 0
18 -160 249 2165 0
135 -484 158 2166 0
-265 421 -35 2167 0
101 322 -5 2168 0
232 400 131 2169 0
214 -314 77 2170 0
-338 -177 -230 2171 0
435 380 -371 2172 0
357 -320 176 2173 0
352 -147 -334 2174 0
313 -191 -339 2175 0
-443 259 -22 2176 0
488 -121 -241 2177 0
308 385 -259 2178 0
-404 8 -389 2179 0
-484 377 -491 2180 0
-389 227 310 2181 0
302 -34 456 2182 0
-78 -391 266 2183 0
34 133 -396 2184 0
144 362 -179 2185 0
183 388 -290 2186 0
465 -427 -121 2187 0
110 -416 -204 2188 0
6 -231 132 2189 0
168 -160 -73 2190 0
-279 -346 229 2191 0
-165 -69 -285 2192 0
-433 4 435 2193 0
273 51 -66 2194 0
256 75 -27 2195 0
-260 93 -137 2196 0
-83 2 196 2197 0
412 71 429 2198 0
-24 390 358 2199 0
185 -114 -102 2200 0
-82 490 209 2201 0
-191 -193 -404 2202 0
-69 -192 36 2203 0
-20 430 325 2204 0
-123 401 424 2205 0
-393 289 430 2206 0
-34 -270 -421 2207 0
-405 -459 -252 2208 0
-90 -431 -191 2209 0
60 -6 -452 2210 0
117 -62 -76 2211 0
20 88 45 2212 0
395 -250 -265 2213 0
-151 -115 240 2214 0
-490 -440 92 2215 0
11 -263 -4 2216 0
-247 -223 216 2217 0
396 14 124 2218 0
465 -202 -130 2219 0
-6 -161 269 2220 0
135 169 -59 2221 0
112 315 261 2222 0
-459 -426 -483 2223 0
-461 144 291 2224 0
-198 -76 -335 2225 0
409 414 -376 2226 0
14 -116 90 2227 0
471 -222 -72 2228 0
130 113 74 2229 0
275 -248 -218 2230 0
98 284 161 2231 0
-401 478 465 2232 0
-63 -163 199 2233 0
-486 275 459 2234 0
-452 -349 88 2235 0
293 -6 460 2236 0
-182 96 -325 2237 0
-480 91 68 2238 0
114 -247 -34 2239 0
-76 310 413 2240 0
155 -490 419 2241 0
246 -84 403 2242 0
-174 382 -61 2243 0
-286 348 -110 2244 0
188 91 163 2245 0
-64 -494 109 2246 0
482 363 220 2247 0
-258 -18 277 2248 0
226 -61 238 2249 0
-222 399 40 2250 0
-72 284 173 2251 0
440 35 -450 2252 0
-500 -37 -150 2253 0
339 377 187 2254 0
146 -8 -302 2255 0
243 -128 344 2256 0
-233 282 -192 2257 0
-6 -251 -27 2258 0
210 -152 -211 2259 0
-170 -488 32 2260 0
-317 159 274 2261 0
-404 189 -449 2262 0
-140 444 -177 2263 0
-8 -57 500 2264 0
27 261 -292 2265 0
380 -200 -500 2266 0
-301 469 -89 2267 0
111 -174 94 2268 0
-418 249 -284 2269 0
-267 -7 -311 2270 0
-51 110 219 2271 0
281 42 -5 2272 0
212 91 -361 2273 0
-70 128 190 2274 0
-466 -153 66 2275 0
-348 -246 380 2276 0
421 -361 -394 2277 0
143 -77 326 2278 0
-470 153 -417 2279 0
-353 324 -129 2280 0
464 495 -480 2281 0
350 399 116 2282 0
35 310 -217 2283 0
491 427 428 2284 0
125 -252 318 2285 0
-209 -220 -354 2286 0
23 155 -410 2287 0
153 -48 -47 2288 0
184 356 43 2289 0
131 -262 -453 2290 0
146 148 -109 2291 0
-287 72 189 2292 0
108 -340 18 2293 0
266 -128 -141 2294 0
139 -209 -338 2295 0
133 311 -376 2296 0
335 -124 -246 2297 0
180 -469 -25 2298 0
-44 -63 286 2299 0
-388 412 160 2300 0
-278 -274 145 2301 0
-247 -90 -319 2302 0
209 -168 -219 2303 0
-191 -45 469 2304 0
-250 380 145 2305 0
-26 -322 -19 2306 0
409 -73 -329 2307 0
-67 446 224 2308 0
-265 -349 165 2309 0
263 -342 355 2310 0
-92 -434 -379 2311 0
-159 377 -54 2312 0
-372 -182 -346 2313 0
413 -261 -40 2314 0
-423 122 -429 2315 0
184 487 84 2316 0
352 -74 230 2317 0
482 -389 205 2318 0
-263 -465 -46 2319 0
-332 393 274 2320 0
-197 -369 454 2321 0
178 -370 -253 2322 0
111 -130 -412 2323 0
267 -391 -35 2324 0
-271 4 -366 2325 0
-40 307 448 2326 0
-122 48 -52 2327 0
411 127 -469 2328 0
27 353 269 2329 0
313 41 54 2330 0
292 -240 21 2331 0
483 468 -385 2332 0
47 426 -370 2333 0
459 -241 403 2334 0
476 155 181 2335 0
29 458 167 2336 0
-5 -387 466 2337 0
-7 -352 -424 2338 0
-266 -157 -165 2339 0
-490 -116 23 2340 0
196 -366 -296 2341 0
-81 7 279 2342 0
243 204 441 2343 0
-173 -32 105 2344 0
472 202 401 2345 0
49 461 394 2346 0
133 -264 38 2347 0
362 -466 -50 2348 0
-235 276 10 2349 0
280 79 -230 2350 0
-121 470 315 2351 0
431 -225 -192 2352 0
169 -359 254 2353 0
345 441 -446 2354 0
398 462 -314 2355 0
181 -212 400 2356 0
-485 -208 93 2357 0
195 -267 217 2358 0
471 -279 -157 2359 0
92 71 -98 2360 0
-470 -102 175 2361 0
480 -231 181 2362 0
-239 -86 312 2363 0
-133 108 -380 2364 0
236 457 -285 2365 0
-232 462 -224 2366 0
-264 26 405 2367 0
-371 -180 -390 2368 0
-94 171 300 2369 0
376 308 413 2370 0
172 258 148 2371 0
289 357 -262 2372 0
347 -237 -394 2373 0
-324 -320 -405 2374 0
-117 -286 320 2375 0
141 -335 -251 2376 0
-447 -109 100 2377 0
460 402 248 2378 0
-351 102 431 2379 0
-17 -255 -453 2380 0
198 473 -69 2381 0
-441 21 289 2382 0
127 -148 131 2383 0
65 -222 -302 2384 0
419 -406 -228 2385 0
437 -243 438 2386 0
317 416 361 2387 0
129 -38 -68 2388 0
202 6 5 2389 0
-447 383 -188 2390 0
77 -141 -166 2391 0
-488 222 -460 2392 0
156 -254 -112 2393 0
-394 -290 -43 2394 0
308 -433 245 2395 0
-404 -413 -387 2396 0
224 433 -445 2397 0
-383 335 312 2398 0
184 -299 -230 2399 0
-367 146 342 2400 0
-373 197 -487 2401 0
62 478 154 2402 0
-87 64 37 2403 0
-464 -263 -45 2404 0
-71 113 91 2405 0
-111 365 445 2406 0
120 -40 130 2407 0
84 126 -286 2408 0
-220 -303 426 2409 0
431 341 -257 2410 0
-177 -191 224 2411 0
-173 336 377 2412 0
-236 147 328 2413 0
-329 -413 93 2414 0
-325 383 468 2415 0
-89 -492 389 2416 0
-496 -319 -9 2417 0
361 -93 43 2418 0
-47 -259 -409 2419 0
142 74 191 2420 0
34 237 251 2421 0
-167 -393 -399 2422 0
443 184 225 2423 0
-268 -148 254 2424 0
489 117 19 2425 0
-449 263 -254 2426 0
-172 -253 284 2427 0
-65 248 354 2428 0
464 146 161 2429 0
355 -364 337 2430 0
-341 -15 209 2431 0
-316 -96 176 2432 0
-230 288 15 2433 0
-308 398 -127 2434 0
-109 330 478 2435 0
255 293 -24 2436 0
238 465 -466 2437 0
215 266 -330 2438 0
-263 -310 216 2439 0
-82 -416 -191 2440 0
-11 -91 196 2441 0
-216 -375 -236 2442 0
354 362 423 2443 0
212 -480 -150 2444 0
-122 -309 473 2445 0
369 -99 408 2446 0
-415 247 487 2447 0
-376 283 317 2448 0
84 376 -180 2449 0
108 47 -448 2450 0
-417 -338 468 2451 0
-150 -113 201 2452 0
444 -131 140 2453 0
373 -299 -436 2454 0
-439 -204 65 2455 0
162 215 48 2456 0
202 -358 431 2457 0
355 300 497 2458 0
349 59 -410 2459 0
64 402 302 2460 0
379 402 -307 2461 0
56 -188 -37 2462 0
-231 -394 88 2463 0
237 -358 -357 2464 0
-464 7 160 2465 0
494 463 470 2466 0
363 -337 -394 2467 0
307 127 -199 2468 0
-309 -50 181 2469 0
-19 -4 -451 2470 0
-83 482 -41 2471 0
-260 -427 -40 2472 0
-171 372 -340 2473 0
100 -121 207 2474 0
340 165 -268 2475 0
-11 421 -177 2476 0
392 356 -383 2477 0
34 -393 -435 2478 0
-165 -446 475 2479 0
497 -350 -254 2480 0
-124 31 -83 2481 0
-302 -64 -10 2482 0
188 -333 -317 2483 0
-466 187 477 2484 0
-397 -2 -353 2485 0
-359 -441 296 2486 0
-135 -298 188 2487 0
-22 -84 -236 2488 0
467 267 373 2489 0
181 -75 321 2490 0
392 164 -83 2491 0
247 -48 -4 2492 0
35 79 266 2493 0
-494 -138 -98 2494 0
4 384 -361 2495 0
-475 -57 -497 2496 0
-355 -400 401 2497 0
330 -275 120 2498 0
14 414 71 2499 0
-339 279 -439 2500 0
198 1 -225 2501 0
75 112 -383 2502 0
164 245 -284 2503 0
-481 -423 -344 2504 0
-108 369 -495 2505 0
-425 451 -110 2506 0
-306 -56 -476 2507 0
278 371 143 2508 0
460 404 -265 2509 0
25 -429 279 2510 0
-90 141 -270 2511 0
25 110 -437 2512 0
291 388 477 2513 0
-474 309 -498 2514 0
221 194 -244 2515 0
-487 308 179 2516 0
493 174 -130 2517 0
-492 -125 -312 2518 0
-114 6 428 2519 0
341 405 88 2520 0
470 491 -230 2521 0
-247 -442 225 2522 0
202 161 -200 2523 0
-185 -282 264 2524 0
470 -255 -329 2525 0
195 253 345 2526 0
237 389 -260 2527 0
132 -57 -82 2528 0
266 50 -223 2529 0
-85 -135 -39 2530 0
31 282 360 2531 0
-213 357 499 2532 0
-180 156 -484 2533 0
-23 154 435 2534 0
210 358 -90 2535 0
167 -393 463 2536 0
-393 -184 104 2537 0
-40 32 193 2538 0
55 -272 120 2539 0
427 386 -301 2540 0
-240 68 -182 2541 0
153 388 188 2542 0
168 219 -339 2543 0
297 500 8 2544 0
-189 137 422 2545 0
-211 -217 -165 2546 0
201 -43 -482 2547 0
-328 63 170 2548 0
81 -311 -405 2549 0
200 -107 353 2550 0
-15 -256 -231 2551 0
-193 100 366 2552 0
-446 453 -240 2553 0
-88 -357 137 2554 0
231 433 -288 2555 0
168 -342 -319 2556 0
209 -419 -74 2557 0
481 -22 -457 2558 0
-492 -378 164 2559 0
-346 229 23 2560 0
-211 -221 -239 2561 0
-231 296 116 2562 0
-370 72 -490 2563 0
-90 -120 -441 2564 0
396 -2 -48 2565 0
-250 -60 -153 2566 0
-133 -446 -264 2567 0
-425 85 -37 2568 0
-56 -425 54 2569 0
380 -365 235 2570 0
-169 332 336 2571 0
312 -297 172 2572 0
322 -357 319 2573 0
-133 -96 -437 2574 0
321 55 -351 2575 0
179 -500 198 2576 0
-447 -207 67 2577 0
144 -483 329 2578 0
8 313 24 2579 0
-21 483 318 2580 0
492 -223 201 2581 0
-392 108 -56 2582 0
308 -345 -280 2583 0
-361 -386 246 2584 0
-443 -89 -486 2585 0
-113 446 163 2586 0
406 404 182 2587 0
-401 422 -388 2588 0
-437 -451 -162 2589 0
167 241 378 2590 0
-51 155 288 2591 0
234 -252 -424 2592 0
213 -189 -269 2593 0
-435 47 -263 2594 0
-249 -150 -256 2595 0
-178 -405 377 2596 0
-143 54 -84 2597 0
54 -272 -397 2598 0
-285 -317 168 2599 0
345 45 403 2600 0
-155 66 -440 2601 0
431 -252 -21 2602 0
-410 204 -263 2603 0
-489 107 435 2604 0
234 391 -117 2605 0
128 -369 -183 2606 0
-105 265 -210 2607 0
-448 -113 -258 2608 0
-58 472 -366 2609 0
-183 88 -212 2610 0
435 336 -162 2611 0
472 -124 275 2612 0
367 291 201 2613 0
490 158 -259 2614 0
398 139 -474 2615 0
285 75 131 2616 0
-380 419 -62 2617 0
133 -319 -314 2618 0
331 227 -160 2619 0
-266 -307 -231 2620 0
245 375 49 2621 0
328 278 -277 2622 0
-154 234 237 2623 0
-446 -440 293 2624 0
-214 -186 -376 2625 0
-86 -35 265 2626 0
-102 101 324 2627 0
234 74 112 2628 0
-111 307 -449 2629 0
-335 -47 423 2630 0
488 -483 495 2631 0
437 142 500 2632 0
-387 44 389 2633 0
-193 209 -199 2634 0
383 -79 -221 2635 0
-205 247 -306 2636 0
353 -410 72 2637 0
-450 318 401 2638 0
-64 -462 -463 2639 0
160 -443 -183 2640 0
473 475 109 2641 0
-129 151 -448 2642 0
489 402 359 2643 0
-479 -24 348 2644 0
-383 -183 -160 2645 0
463 -407 -170 2646 0
-233 -160 74 2647 0
456 -487 310 2648 0
-4 -193 -451 2649 0
-199 -464 -131 2650 0
