p cnf 2650 2150
-47 -66 -150 501 0
-26 331 218 502 0
-339 3 338 503 0
-282 460 -255 504 0
186 349 -59 505 0
170 109 280 506 0
196 390 144 507 0
30 182 273 508 0
92 -55 -279 509 0
-191 235 -437 510 0
-407 12 -76 511 0
393 -190 -460 512 0
271 147 -132 513 0
185 467 455 514 0
-472 321 -469 515 0
370 271 -99 516 0
-396 -155 14 517 0
125 -372 278 518 0
-353 11 -25 519 0
-460 -232 96 520 0
-218 345 402 521 0
-50 -468 -274 522 0
-269 283 -164 523 0
451 314 -126 524 0
93 71 77 525 0
447 184 47 526 0
-477 -242 110 527 0
-249 398 -227 528 0
-441 -114 -7 529 0
-476 -223 -161 530 0
303 -419 -447 531 0
-397 225 -485 532 0
292 133 457 533 0
-35 318 -363 534 0
-166 197 301 535 0
-439 -234 385 536 0
108 406 -101 537 0
-41 -321 -351 538 0
-494 80 115 539 0
-366 187 -342 540 0
75 -10 -73 541 0
388 191 478 542 0
-104 -345 261 543 0
217 -17 -253 544 0
-427 -45 93 545 0
181 -326 242 546 0
-131 -280 204 547 0
-68 -190 -465 548 0
-63 -460 -300 549 0
376 -166 342 550 0
-148 202 -121 551 0
-67 -253 136 552 0
-156 30 -27 553 0
402 -224 354 554 0
388 -335 201 555 0
27 -118 -64 556 0
275 -219 -114 557 0
-87 -329 176 558 0
-326 109 149 559 0
484 -452 -45 560 0
235 -254 -462 561 0
-246 135 35 562 0
-330 -219 3 563 0
-251 407 -374 564 0
216 -26 127 565 0
-97 39 -77 566 0
-133 -257 265 567 0
217 -215 325 568 0
150 -53 -103 569 0
127 353 -337 570 0
55 142 216 571 0
-75 -423 -403 572 0
-140 344 -91 573 0
224 -301 -351 574 0
-405 178 -132 575 0
-56 -407 -411 576 0
31 73 58 577 0
-226 207 269 578 0
255 -359 -386 579 0
-474 -90 160 580 0
205 -221 -317 581 0
333 -116 440 582 0
-457 332 1 583 0
-447 -258 251 584 0
318 44 -337 585 0
-182 -20 -383 586 0
139 -2 322 587 0
10 -334 214 588 0
382 -333 380 589 0
381 -5 48 590 0
495 164 65 591 0
423 -429 -123 592 0
59 365 92 593 0
-22 246 -449 594 0
158 -102 -452 595 0
-409 -50 198 596 0
183 241 130 597 0
331 299 330 598 0
475 -387 60 599 0
-120 -139 205 600 0
-35 -486 371 601 0
44 237 86 602 0
372 266 -157 603 0
-101 16 302 604 0
-412 -201 -37 605 0
-58 194 -316 606 0
380 -347 -49 607 0
155 237 126 608 0
445 -477 -109 609 0
132 -290 439 610 0
-202 -390 -226 611 0
359 -236 149 612 0
142 -364 -176 613 0
94 -256 -213 614 0
489 223 -151 615 0
112 -201 78 616 0
-409 117 148 617 0
92 -25 -489 618 0
98 -124 -87 619 0
53 285 -49 620 0
17 -417 -136 621 0
-276 170 -184 622 0
438 148 143 623 0
481 64 470 624 0
15 -338 -119 625 0
353 301 -440 626 0
399 212 -273 627 0
215 -170 272 628 0
-174 67 342 629 0
463 405 350 630 0
-214 500 146 631 0
-138 -351 -251 632 0
224 16 218 633 0
67 -480 97 634 0
34 292 500 635 0
-67 292 488 636 0
24 448 -500 637 0
-83 -27 274 638 0
473 422 272 639 0
456 -425 -327 640 0
-127 61 139 641 0
116 -172 300 642 0
418 9 59 643 0
-204 -277 258 644 0
293 350 54 645 0
41 477 -262 646 0
250 230 -101 647 0
269 235 278 648 0
-379 189 430 649 0
-2 355 378 650 0
-181 113 204 651 0
-18 235 102 652 0
360 266 389 653 0
445 -92 432 654 0
-36 -390 445 655 0
-383 -121 219 656 0
145 -85 -491 657 0
-407 -312 15 658 0
482 496 -215 659 0
68 212 -12 660 0
132 26 53 661 0
-162 202 260 662 0
-286 -335 468 663 0
-231 -319 443 664 0
-275 -481 79 665 0
373 223 445 666 0
57 -389 13 667 0
-195 -335 -316 668 0
87 -339 79 669 0
416 492 474 670 0
-121 170 -438 671 0
425 -428 499 672 0
-367 -226 351 673 0
-349 120 -489 674 0
-173 19 -288 675 0
204 170 -99 676 0
391 -45 333 677 0
472 447 -81 678 0
-325 -217 -465 679 0
383 130 274 680 0
-100 333 219 681 0
-141 302 402 682 0
417 -140 -123 683 0
115 44 -471 684 0
-96 -147 -332 685 0
142 481 -81 686 0
180 394 243 687 0
-276 -1 272 688 0
-121 28 -231 689 0
13 -121 -36 690 0
-287 283 351 691 0
352 476 -332 692 0
108 412 -297 693 0
-65 16 397 694 0
263 -273 -239 695 0
-224 -68 86 696 0
-407 -76 426 697 0
476 204 369 698 0
-362 253 419 699 0
305 -116 27 700 0
-120 -380 45 701 0
94 157 -396 702 0
-253 -392 257 703 0
273 -391 -86 704 0
398 -339 266 705 0
34 399 475 706 0
-25 -65 -60 707 0
-332 279 -55 708 0
234 283 -203 709 0
74 173 -103 710 0
-452 158 37 711 0
91 -207 -126 712 0
243 144 -364 713 0
235 212 113 714 0
-437 200 -330 715 0
462 -150 222 716 0
282 118 34 717 0
60 40 -280 718 0
-365 206 -393 719 0
-291 -307 -11 720 0
-113 -5 469 721 0
359 -248 -84 722 0
-439 -43 -467 723 0
391 -238 13 724 0
260 -383 -243 725 0
324 384 110 726 0
-180 -424 -1 727 0
297 -123 285 728 0
-334 -52 -266 729 0
-27 -393 76 730 0
-10 401 -379 731 0
441 233 -420 732 0
418 -344 -19 733 0
-260 93 362 734 0
95 122 242 735 0
209 -176 15 736 0
-467 -236 -195 737 0
-138 321 293 738 0
-40 -128 466 739 0
237 91 400 740 0
14 361 -282 741 0
-90 -264 -126 742 0
-170 97 -403 743 0
-384 -124 -191 744 0
-233 -195 -167 745 0
-109 -28 115 746 0
-52 238 -470 747 0
-313 -410 -197 748 0
37 -247 -65 749 0
-21 75 92 750 0
128 181 -159 751 0
-245 -171 -166 752 0
493 423 -26 753 0
488 -112 -437 754 0
-210 -233 -410 755 0
485 -140 441 756 0
-142 -98 65 757 0
-162 -334 487 758 0
-158 -256 -229 759 0
-224 271 220 760 0
40 -117 339 761 0
158 -433 -406 762 0
83 281 119 763 0
441 319 387 764 0
-27 -89 -463 765 0
159 229 110 766 0
-120 -305 -160 767 0
113 -182 -396 768 0
301 441 -409 769 0
493 2 470 770 0
-49 -206 89 771 0
360 166 315 772 0
-318 76 -116 773 0
-9 319 -42 774 0
294 -223 472 775 0
-120 355 -330 776 0
-264 100 -246 777 0
-315 211 130 778 0
-429 -47 327 779 0
112 -101 48 780 0
-435 429 -232 781 0
-389 50 -192 782 0
440 -485 169 783 0
-205 29 -193 784 0
-325 479 -9 785 0
258 397 165 786 0
-173 179 472 787 0
-172 -319 -266 788 0
-289 -461 456 789 0
-77 -437 -367 790 0
-70 13 155 791 0
298 62 -485 792 0
108 -126 -400 793 0
-4 201 -59 794 0
-290 368 50 795 0
311 -329 -431 796 0
382 -251 362 797 0
-267 -13 -229 798 0
346 -414 -276 799 0
490 348 -181 800 0
212 -11 -247 801 0
210 -324 221 802 0
-8 -150 456 803 0
-124 -21 323 804 0
-326 155 395 805 0
258 292 -314 806 0
103 241 353 807 0
-355 377 135 808 0
-302 49 11 809 0
417 -300 389 810 0
483 82 -463 811 0
194 -112 -317 812 0
-189 -363 -290 813 0
-15 91 -16 814 0
-357 378 268 815 0
41 -413 120 816 0
-256 -452 132 817 0
-238 142 -85 818 0
-188 172 242 819 0
-233 -283 464 820 0
-378 -385 458 821 0
453 -241 -179 822 0
148 23 -320 823 0
360 471 -352 824 0
-291 238 -111 825 0
284 228 107 826 0
-299 236 -52 827 0
-157 381 443 828 0
162 48 61 829 0
310 -13 131 830 0
-375 -230 -111 831 0
-322 342 -74 832 0
-372 -294 -231 833 0
-350 -71 119 834 0
-419 -441 102 835 0
334 -478 -303 836 0
-112 -426 -361 837 0
105 -183 269 838 0
257 449 429 839 0
201 170 50 840 0
114 -275 69 841 0
-249 -205 492 842 0
152 451 -342 843 0
391 202 -296 844 0
405 79 302 845 0
372 364 250 846 0
-257 -424 170 847 0
306 -129 448 848 0
-160 -165 -57 849 0
327 -300 -228 850 0
-167 485 271 851 0
-42 -459 151 852 0
57 -428 485 853 0
-237 -468 -343 854 0
456 420 -45 855 0
-353 -376 362 856 0
163 340 -218 857 0
182 370 455 858 0
394 399 -264 859 0
-229 270 267 860 0
-40 -396 -124 861 0
36 -297 479 862 0
-236 464 226 863 0
176 106 280 864 0
313 -80 109 865 0
-3 -242 -184 866 0
-357 -21 -200 867 0
274 460 440 868 0
-260 -106 24 869 0
-330 285 255 870 0
-393 -220 -265 871 0
-367 58 51 872 0
-163 -207 -296 873 0
-64 260 -353 874 0
50 296 26 875 0
147 -105 -215 876 0
-283 -268 74 877 0
234 -7 117 878 0
198 44 -57 879 0
273 -65 46 880 0
265 -173 -151 881 0
-117 -21 -182 882 0
-182 60 217 883 0
293 -215 179 884 0
460 241 169 885 0
-177 -9 330 886 0
143 -330 21 887 0
-279 385 359 888 0
-204 245 349 889 0
178 411 425 890 0
10 360 485 891 0
-189 331 -38 892 0
-182 276 -200 893 0
194 -315 16 894 0
2 -280 -492 895 0
-269 175 223 896 0
139 -390 262 897 0
-485 207 -127 898 0
-234 -34 44 899 0
50 13 263 900 0
312 -376 -11 901 0
-362 -144 346 902 0
-461 -452 -440 903 0
-322 89 47 904 0
-91 -248 -225 905 0
-350 -435 181 906 0
393 348 34 907 0
497 -75 163 908 0
-281 -137 -160 909 0
-154 408 153 910 0
258 -49 -235 911 0
-127 394 397 912 0
-4 60 67 913 0
-106 -138 -31 914 0
-158 -437 252 915 0
-263 -366 135 916 0
334 -125 79 917 0
27 -239 -382 918 0
-276 -135 -94 919 0
101 -393 -208 920 0
360 -206 217 921 0
339 -309 223 922 0
142 -393 413 923 0
284 331 442 924 0
-431 -97 -489 925 0
-352 -370 -464 926 0
-410 425 -122 927 0
465 -341 338 928 0
-55 264 -106 929 0
-289 128 354 930 0
167 -379 -124 931 0
220 226 12 932 0
239 -351 -102 933 0
110 -499 -314 934 0
312 40 -47 935 0
273 19 -364 936 0
383 310 441 937 0
-474 -133 268 938 0
18 267 369 939 0
-39 428 270 940 0
-450 1 296 941 0
-171 20 -456 942 0
233 -48 379 943 0
426 -17 -205 944 0
478 -358 219 945 0
281 -192 -96 946 0
207 -187 305 947 0
214 -107 93 948 0
-203 -351 459 949 0
57 -37 -219 950 0
166 -198 -214 951 0
262 -99 -392 952 0
162 82 459 953 0
-494 -304 277 954 0
-231 -19 -224 955 0
-198 -406 -73 956 0
416 485 75 957 0
208 -377 -64 958 0
-149 150 -320 959 0
459 450 -193 960 0
-498 320 -237 961 0
-431 -499 -36 962 0
-423 489 -378 963 0
269 322 401 964 0
-55 -409 250 965 0
-248 166 26 966 0
-340 41 442 967 0
298 238 -30 968 0
-401 -356 414 969 0
398 120 -462 970 0
34 -16 -13 971 0
475 309 101 972 0
440 -330 186 973 0
-104 -257 243 974 0
-107 -175 498 975 0
-483 -316 -149 976 0
-77 377 -1 977 0
-156 225 192 978 0
-104 384 -412 979 0
-200 -242 -400 980 0
5 393 -489 981 0
-90 -414 -193 982 0
-235 16 245 983 0
465 220 -336 984 0
421 482 282 985 0
-369 -371 107 986 0
434 -302 -209 987 0
121 283 -74 988 0
-20 271 -249 989 0
-262 -413 62 990 0
432 -476 218 991 0
-458 68 -359 992 0
298 251 -232 993 0
287 -204 184 994 0
-93 -242 -385 995 0
402 419 381 996 0
-430 -459 -226 997 0
221 273 -432 998 0
-275 208 -113 999 0
-84 -61 67 1000 0
448 213 -158 1001 0
477 -8 388 1002 0
-472 240 -205 1003 0
-323 43 -275 1004 0
9 421 169 1005 0
-2 298 43 1006 0
-62 105 -2 1007 0
-361 330 -107 1008 0
-460 -498 325 1009 0
289 375 489 1010 0
144 -88 126 1011 0
344 -294 86 1012 0
387 -335 316 1013 0
311 87 308 1014 0
391 69 -453 1015 0
321 358 -25 1016 0
418 -86 474 1017 0
-37 -17 -192 1018 0
-472 28 388 1019 0
6 468 218 1020 0
139 60 -480 1021 0
395 147 195 1022 0
-347 390 428 1023 0
252 -415 -42 1024 0
194 -22 240 1025 0
314 -203 472 1026 0
-13 -7 271 1027 0
-159 -105 295 1028 0
-121 360 -46 1029 0
348 -107 444 1030 0
220 478 -345 1031 0
102 244 214 1032 0
129 -51 303 1033 0
-31 -7 -348 1034 0
265 -79 -480 1035 0
109 265 -427 1036 0
371 -443 164 1037 0
-130 -457 39 1038 0
308 -80 -105 1039 0
-469 312 -27 1040 0
-123 82 489 1041 0
-233 130 184 1042 0
-489 -380 279 1043 0
366 -357 -409 1044 0
211 414 -326 1045 0
-294 356 -326 1046 0
225 -58 344 1047 0
-420 -271 -79 1048 0
-476 -416 195 1049 0
-373 -369 -386 1050 0
-404 -80 -436 1051 0
258 249 384 1052 0
-489 345 -475 1053 0
151 -239 478 1054 0
-254 479 191 1055 0
-275 -358 -448 1056 0
-139 -480 -393 1057 0
-115 -292 -157 1058 0
-416 -66 -500 1059 0
202 -308 -133 1060 0
83 -41 224 1061 0
150 -123 70 1062 0
-262 -224 439 1063 0
-87 -93 -71 1064 0
362 -228 21 1065 0
-1 490 402 1066 0
-37 34 114 1067 0
-407 -127 -153 1068 0
340 -5 435 1069 0
474 -22 124 1070 0
-341 195 -135 1071 0
353 140 41 1072 0
-424 -431 369 1073 0
185 -497 478 1074 0
25 -324 327 1075 0
57 149 -255 1076 0
147 -164 35 1077 0
237 450 -423 1078 0
-27 -136 203 1079 0
-227 -418 -461 1080 0
-321 -81 118 1081 0
137 -31 -29 1082 0
-344 -44 413 1083 0
-242 -71 377 1084 0
465 113 -376 1085 0
-240 67 485 1086 0
84 258 -123 1087 0
380 -489 220 1088 0
-62 -190 325 1089 0
362 -294 -54 1090 0
-70 -199 208 1091 0
55 -147 153 1092 0
-137 329 357 1093 0
186 316 426 1094 0
253 6 -150 1095 0
75 -87 356 1096 0
-118 47 -370 1097 0
384 -232 281 1098 0
-199 34 -272 1099 0
344 436 173 1100 0
59 -315 404 1101 0
-306 -189 327 1102 0
93 -108 479 1103 0
-322 248 -308 1104 0
411 -98 136 1105 0
-403 164 -184 1106 0
-104 113 254 1107 0
-169 -22 -450 1108 0
323 260 -169 1109 0
379 21 -166 1110 0
133 -61 -98 1111 0
58 26 -466 1112 0
71 -425 -35 1113 0
-435 467 105 1114 0
-358 -452 -118 1115 0
-108 449 -183 1116 0
209 414 -482 1117 0
-204 111 -155 1118 0
-459 -393 -177 1119 0
-260 314 -142 1120 0
320 177 -370 1121 0
344 -433 -113 1122 0
9 89 -12 1123 0
-237 -50 -261 1124 0
-479 361 -265 1125 0
-199 136 -141 1126 0
-33 -29 4 1127 0
35 471 21 1128 0
-264 -331 -490 1129 0
-85 271 -262 1130 0
-156 365 324 1131 0
-233 190 -114 1132 0
469 119 93 1133 0
-162 -1 -19 1134 0
-184 -61 188 1135 0
499 142 -163 1136 0
-469 -118 174 1137 0
-278 -293 161 1138 0
354 -30 125 1139 0
-182 10 434 1140 0
-18 42 -297 1141 0
-258 -321 82 1142 0
295 -23 -196 1143 0
86 187 -419 1144 0
303 445 450 1145 0
358 393 -252 1146 0
296 181 446 1147 0
-137 -143 -69 1148 0
389 155 38 1149 0
167 -458 -420 1150 0
-117 31 384 1151 0
-491 -214 280 1152 0
141 -221 349 1153 0
217 374 -356 1154 0
-88 -461 414 1155 0
-267 -448 55 1156 0
-180 -379 -407 1157 0
-457 -315 363 1158 0
402 -305 130 1159 0
-129 96 -334 1160 0
-163 368 169 1161 0
189 82 -392 1162 0
-179 21 -339 1163 0
24 273 -48 1164 0
129 -392 213 1165 0
25 -44 245 1166 0
-441 -88 321 1167 0
480 -449 -34 1168 0
175 16 -288 1169 0
-385 -122 228 1170 0
439 375 -216 1171 0
-154 212 98 1172 0
-322 -88 -69 1173 0
267 229 47 1174 0
270 -72 -8 1175 0
-21 -333 206 1176 0
-75 -450 90 1177 0
171 278 444 1178 0
-257 -115 -255 1179 0
301 217 205 1180 0
-90 -118 -489 1181 0
-7 -418 -135 1182 0
456 398 -137 1183 0
-129 -432 -169 1184 0
331 453 340 1185 0
39 308 -366 1186 0
201 -208 26 1187 0
-192 166 209 1188 0
189 -325 191 1189 0
210 222 -23 1190 0
-447 496 30 1191 0
12 -41 66 1192 0
-83 -297 -181 1193 0
360 15 399 1194 0
111 -161 355 1195 0
-311 -231 213 1196 0
318 193 -420 1197 0
-11 -377 72 1198 0
432 309 -27 1199 0
-163 100 -278 1200 0
-480 -383 349 1201 0
332 -407 372 1202 0
69 178 88 1203 0
-238 123 335 1204 0
-404 -137 -160 1205 0
333 47 -245 1206 0
-339 -14 59 1207 0
-218 42 53 1208 0
-399 240 -144 1209 0
-24 450 459 1210 0
-400 -196 -359 1211 0
27 -66 163 1212 0
-291 264 440 1213 0
-494 -193 -60 1214 0
296 -325 -129 1215 0
-173 -465 -231 1216 0
207 302 -223 1217 0
-62 -99 -88 1218 0
271 202 233 1219 0
-361 -452 339 1220 0
-340 431 22 1221 0
-420 311 -395 1222 0
335 415 -347 1223 0
413 7 -456 1224 0
-194 454 -342 1225 0
-391 -476 -240 1226 0
247 14 26 1227 0
246 243 -463 1228 0
-54 401 289 1229 0
-169 -335 -416 1230 0
125 -338 -121 1231 0
331 -265 -57 1232 0
-180 -11 139 1233 0
-27 496 304 1234 0
269 -140 -404 1235 0
47 39 -363 1236 0
15 -350 51 1237 0
362 -318 -352 1238 0
-320 118 214 1239 0
471 -297 287 1240 0
-231 9 143 1241 0
247 -360 70 1242 0
168 -315 376 1243 0
-397 377 358 1244 0
-42 414 -25 1245 0
97 -247 -444 1246 0
4 -443 -495 1247 0
-359 -104 191 1248 0
-303 -169 134 1249 0
-29 63 -22 1250 0
65 -438 331 1251 0
347 -460 -346 1252 0
-62 -405 -371 1253 0
2 187 144 1254 0
-60 -295 70 1255 0
-67 91 -99 1256 0
30 94 388 1257 0
139 -381 -241 1258 0
-81 -203 140 1259 0
-486 187 293 1260 0
-197 241 -234 1261 0
-108 -92 -76 1262 0
477 -265 -234 1263 0
-273 144 356 1264 0
470 69 -380 1265 0
282 -137 -145 1266 0
400 278 232 1267 0
4 -270 -326 1268 0
310 -424 -56 1269 0
-235 -439 300 1270 0
-65 34 163 1271 0
-203 -287 -361 1272 0
293 470 138 1273 0
-413 -487 -76 1274 0
-18 406 -351 1275 0
-47 -72 -451 1276 0
-315 -481 -192 1277 0
266 18 491 1278 0
78 315 -259 1279 0
382 145 -351 1280 0
-480 -414 -50 1281 0
62 -28 29 1282 0
-417 230 446 1283 0
-432 -36 480 1284 0
408 -439 -114 1285 0
18 258 -386 1286 0
-58 1 393 1287 0
419 -44 179 1288 0
222 -2 143 1289 0
-406 -245 344 1290 0
-414 88 -104 1291 0
93 154 -219 1292 0
393 135 -110 1293 0
-102 -213 -176 1294 0
-101 438 -50 1295 0
-235 -352 -367 1296 0
77 195 2 1297 0
121 -418 -428 1298 0
450 380 -492 1299 0
294 305 -494 1300 0
-264 -195 -119 1301 0
86 -193 -117 1302 0
136 -438 -288 1303 0
328 -357 -461 1304 0
399 -230 481 1305 0
129 50 -466 1306 0
368 -166 180 1307 0
-359 264 374 1308 0
-342 -47 78 1309 0
-161 -306 -443 1310 0
-416 368 266 1311 0
-163 284 -119 1312 0
13 223 -435 1313 0
27 138 373 1314 0
281 428 -286 1315 0
305 -348 -14 1316 0
475 390 -245 1317 0
-441 -95 422 1318 0
-154 288 -45 1319 0
-297 329 -417 1320 0
-397 -298 395 1321 0
386 476 163 1322 0
157 25 459 1323 0
-313 68 375 1324 0
-124 140 378 1325 0
11 -190 160 1326 0
486 212 215 1327 0
-211 449 331 1328 0
5 -126 -179 1329 0
482 -69 -451 1330 0
-196 -384 -471 1331 0
-229 206 94 1332 0
-123 -4 -427 1333 0
-95 -491 -412 1334 0
-151 454 13 1335 0
328 211 -250 1336 0
427 -488 331 1337 0
499 414 -453 1338 0
-361 -269 -393 1339 0
323 101 -450 1340 0
17 -73 -483 1341 0
437 -381 129 1342 0
-149 147 -416 1343 0
-382 254 69 1344 0
204 475 288 1345 0
31 -307 -471 1346 0
-317 185 443 1347 0
127 187 -284 1348 0
-271 -264 -193 1349 0
-322 123 64 1350 0
299 188 237 1351 0
251 -11 -316 1352 0
-21 -242 172 1353 0
-159 -296 -305 1354 0
492 -208 439 1355 0
-74 121 -357 1356 0
316 -30 492 1357 0
498 -264 -322 1358 0
246 195 -228 1359 0
-376 -190 231 1360 0
-296 9 -261 1361 0
481 178 -138 1362 0
296 -139 -447 1363 0
272 414 -29 1364 0
437 -94 348 1365 0
144 -121 -97 1366 0
-269 289 106 1367 0
-13 -43 333 1368 0
-29 291 -168 1369 0
346 -482 400 1370 0
262 -80 -170 1371 0
320 -455 210 1372 0
478 487 206 1373 0
-170 -241 -433 1374 0
381 377 -260 1375 0
-373 -153 148 1376 0
-395 -424 -394 1377 0
-134 447 122 1378 0
-167 -290 -211 1379 0
485 -177 12 1380 0
271 -202 241 1381 0
-387 61 319 1382 0
-453 -169 24 1383 0
475 180 -260 1384 0
120 -114 -19 1385 0
-442 -138 -50 1386 0
-356 371 -381 1387 0
174 -188 -314 1388 0
-109 -292 -145 1389 0
-68 137 -37 1390 0
168 -8 327 1391 0
-66 397 329 1392 0
-153 -1 -180 1393 0
-303 236 403 1394 0
-433 -357 -473 1395 0
-231 -337 -379 1396 0
-163 93 441 1397 0
-185 -251 -214 1398 0
-100 79 135 1399 0
27 -363 161 1400 0
270 -244 -367 1401 0
415 346 221 1402 0
357 464 411 1403 0
334 382 221 1404 0
-170 -86 -45 1405 0
-257 -248 -96 1406 0
100 480 -195 1407 0
463 243 -486 1408 0
453 -195 213 1409 0
433 416 -333 1410 0
146 -373 314 1411 0
-468 325 461 1412 0
34 -26 -309 1413 0
12 -339 234 1414 0
40 389 -249 1415 0
-378 -500 -95 1416 0
247 204 -324 1417 0
-43 33 -223 1418 0
321 275 473 1419 0
-18 37 88 1420 0
-464 485 143 1421 0
336 163 -156 1422 0
-180 418 -233 1423 0
247 487 -382 1424 0
402 82 -294 1425 0
325 429 49 1426 0
-152 -143 -115 1427 0
-377 108 414 1428 0
362 -173 -75 1429 0
-380 116 50 1430 0
-260 -114 -439 1431 0
51 417 37 1432 0
158 152 97 1433 0
207 259 8 1434 0
240 -14 -445 1435 0
445 -67 440 1436 0
267 -35 301 1437 0
-497 -412 202 1438 0
-129 -496 429 1439 0
-290 425 -166 1440 0
-351 290 -478 1441 0
-415 -174 -91 1442 0
-356 65 136 1443 0
323 25 -346 1444 0
-159 500 471 1445 0
-391 -74 211 1446 0
176 -92 110 1447 0
373 -237 468 1448 0
389 1 -346 1449 0
392 295 -368 1450 0
-241 35 -153 1451 0
-81 28 -393 1452 0
-300 95 -25 1453 0
-446 -235 -203 1454 0
103 -125 -358 1455 0
-317 352 44 1456 0
408 -230 119 1457 0
-47 -294 -114 1458 0
203 179 -248 1459 0
-496 -165 -265 1460 0
-282 -93 -98 1461 0
349 -411 183 1462 0
-194 405 -69 1463 0
374 -443 -470 1464 0
466 -139 333 1465 0
-144 -243 375 1466 0
-378 53 256 1467 0
-495 278 -16 1468 0
50 314 89 1469 0
391 -172 451 1470 0
365 -480 -416 1471 0
245 -94 230 1472 0
-321 489 -234 1473 0
276 -79 -304 1474 0
-405 220 -239 1475 0
386 -387 283 1476 0
-421 195 -346 1477 0
-281 -462 -10 1478 0
-61 139 -252 1479 0
157 133 -452 1480 0
-494 400 420 1481 0
413 272 285 1482 0
-382 365 -110 1483 0
-374 281 285 1484 0
-250 -500 -458 1485 0
-12 83 -126 1486 0
204 -241 44 1487 0
468 -117 -218 1488 0
73 -24 -22 1489 0
15 -415 16 1490 0
-185 -464 144 1491 0
83 421 203 1492 0
-222 -353 418 1493 0
-231 -335 -392 1494 0
-100 -200 179 1495 0
-62 -434 -32 1496 0
211 -227 -469 1497 0
494 137 262 1498 0
169 -240 125 1499 0
-287 25 369 1500 0
-3 453 -159 1501 0
-361 -42 492 1502 0
419 -200 293 1503 0
314 -25 35 1504 0
315 -498 385 1505 0
-463 288 -191 1506 0
484 -103 -376 1507 0
-395 177 -16 1508 0
39 -129 450 1509 0
-385 346 -337 1510 0
146 -299 -414 1511 0
-366 -299 -172 1512 0
482 -475 395 1513 0
-333 -76 28 1514 0
304 196 -51 1515 0
-28 -404 106 1516 0
-421 116 -311 1517 0
468 260 -345 1518 0
-353 -96 -288 1519 0
354 303 35 1520 0
-402 323 -500 1521 0
25 -326 -439 1522 0
-469 324 -359 1523 0
-282 -204 -207 1524 0
187 -388 125 1525 0
128 -19 320 1526 0
211 165 -170 1527 0
-194 -109 288 1528 0
198 143 66 1529 0
-130 -266 144 1530 0
265 -480 301 1531 0
368 -24 258 1532 0
-214 467 319 1533 0
250 -226 -263 1534 0
292 258 141 1535 0
-19 -499 285 1536 0
-100 -408 -323 1537 0
198 -40 377 1538 0
45 -306 14 1539 0
451 -238 -329 1540 0
-453 264 382 1541 0
-124 -264 -66 1542 0
-65 263 452 1543 0
97 1 485 1544 0
188 430 -217 1545 0
263 -479 331 1546 0
221 -397 -342 1547 0
-223 -83 -387 1548 0
-269 154 41 1549 0
-120 -198 171 1550 0
362 56 437 1551 0
-259 264 -74 1552 0
387 -245 69 1553 0
-131 -30 332 1554 0
-205 388 343 1555 0
335 36 71 1556 0
-398 -311 -89 1557 0
-227 -20 -81 1558 0
321 -55 -89 1559 0
-105 -129 41 1560 0
332 -4 170 1561 0
394 308 -227 1562 0
209 275 340 1563 0
-470 -311 -84 1564 0
-134 -446 -354 1565 0
-2 280 80 1566 0
386 -215 480 1567 0
118 -200 -281 1568 0
280 448 -439 1569 0
-184 420 416 1570 0
128 348 -257 1571 0
201 -311 398 1572 0
109 347 -48 1573 0
-170 -323 -115 1574 0
-120 204 -148 1575 0
-280 -198 174 1576 0
245 -321 -436 1577 0
-403 -426 -400 1578 0
384 -391 -146 1579 0
-96 228 -210 1580 0
95 46 -454 1581 0
378 494 -185 1582 0
201 438 -153 1583 0
-83 465 201 1584 0
-247 -348 -255 1585 0
340 -8 -93 1586 0
-258 22 -147 1587 0
3 224 274 1588 0
36 107 29 1589 0
-290 124 72 1590 0
-30 -90 56 1591 0
-32 -470 479 1592 0
-73 356 200 1593 0
444 111 -197 1594 0
-18 448 -113 1595 0
-49 -171 106 1596 0
-451 468 155 1597 0
-415 62 -472 1598 0
184 251 -402 1599 0
68 -13 498 1600 0
36 389 481 1601 0
97 -489 -387 1602 0
183 17 -415 1603 0
21 6 182 1604 0
-499 44 411 1605 0
-374 256 219 1606 0
419 -439 448 1607 0
-473 -298 -328 1608 0
183 465 -182 1609 0
376 -137 -304 1610 0
-119 -57 318 1611 0
-153 -436 -25 1612 0
-270 -482 323 1613 0
-260 117 419 1614 0
-210 -123 -321 1615 0
275 97 -79 1616 0
184 400 -286 1617 0
208 -231 446 1618 0
-18 -71 128 1619 0
-336 180 -39 1620 0
66 -168 85 1621 0
327 -37 245 1622 0
137 392 -220 1623 0
-403 474 265 1624 0
131 -252 -258 1625 0
218 228 -56 1626 0
458 83 -153 1627 0
-4 -66 -33 1628 0
-431 -241 500 1629 0
189 -146 -90 1630 0
179 150 230 1631 0
-229 10 58 1632 0
-269 -61 488 1633 0
119 -289 -278 1634 0
26 49 -303 1635 0
-335 -227 -154 1636 0
-267 -100 279 1637 0
211 221 70 1638 0
346 -61 393 1639 0
-329 -276 -412 1640 0
-182 -439 487 1641 0
-14 438 409 1642 0
104 141 205 1643 0
167 5 454 1644 0
176 209 165 1645 0
418 463 -25 1646 0
-490 -270 9 1647 0
293 -415 -7 1648 0
126 498 335 1649 0
-230 -259 -112 1650 0
54 73 -221 1651 0
430 478 118 1652 0
190 148 3 1653 0
86 3 376 1654 0
164 -149 432 1655 0
293 -129 -458 1656 0
-183 122 -102 1657 0
-342 -456 304 1658 0
422 493 -53 1659 0
60 155 -319 1660 0
-52 20 -255 1661 0
-78 98 -195 1662 0
-320 100 -84 1663 0
-394 -175 -474 1664 0
-405 150 -34 1665 0
-301 -341 157 1666 0
-196 -358 -435 1667 0
392 362 307 1668 0
362 135 -129 1669 0
-457 273 266 1670 0
27 -53 405 1671 0
165 -28 355 1672 0
-97 -350 223 1673 0
-116 -76 229 1674 0
185 -401 -213 1675 0
249 8 360 1676 0
402 -39 151 1677 0
-279 222 -50 1678 0
315 -275 -248 1679 0
166 327 -140 1680 0
-144 -104 449 1681 0
401 437 -453 1682 0
321 95 -31 1683 0
-317 301 -263 1684 0
-142 439 397 1685 0
409 444 -182 1686 0
244 72 17 1687 0
69 -259 321 1688 0
229 387 -427 1689 0
289 309 284 1690 0
-299 83 -23 1691 0
-399 159 -382 1692 0
-304 -257 -189 1693 0
-284 -231 -469 1694 0
265 471 -469 1695 0
-16 -21 207 1696 0
-365 100 417 1697 0
-102 -435 -379 1698 0
261 -434 216 1699 0
-275 292 488 1700 0
-264 466 -359 1701 0
248 302 -431 1702 0
373 36 -292 1703 0
80 -238 252 1704 0
-328 35 -7 1705 0
-192 -285 -111 1706 0
496 232 -222 1707 0
-358 267 145 1708 0
401 -311 -324 1709 0
375 154 399 1710 0
-286 -478 477 1711 0
352 -275 195 1712 0
116 456 -315 1713 0
69 167 -99 1714 0
478 -430 235 1715 0
-151 -218 353 1716 0
204 -226 472 1717 0
375 -461 288 1718 0
223 -98 166 1719 0
-362 326 354 1720 0
337 -463 444 1721 0
420 490 497 1722 0
-55 -206 76 1723 0
431 296 237 1724 0
32 99 -369 1725 0
-188 -386 375 1726 0
-427 -51 127 1727 0
-88 456 -228 1728 0
353 138 -262 1729 0
430 -50 34 1730 0
-88 -104 -416 1731 0
81 -269 -450 1732 0
164 45 245 1733 0
326 234 10 1734 0
239 -317 327 1735 0
-15 18 -472 1736 0
141 155 57 1737 0
432 408 -84 1738 0
-163 -231 -175 1739 0
339 464 177 1740 0
-157 481 -289 1741 0
-194 283 -62 1742 0
-458 392 439 1743 0
-405 -416 481 1744 0
360 -441 338 1745 0
-112 130 221 1746 0
297 284 457 1747 0
435 183 240 1748 0
465 -292 429 1749 0
-334 87 -183 1750 0
-330 412 476 1751 0
105 -89 73 1752 0
-364 286 -333 1753 0
119 414 143 1754 0
213 304 421 1755 0
-282 144 312 1756 0
200 51 -190 1757 0
274 -196 -158 1758 0
-128 -50 59 1759 0
-152 -234 91 1760 0
277 -193 -348 1761 0
-215 -402 96 1762 0
-84 460 -224 1763 0
-496 88 12 1764 0
163 201 451 1765 0
-187 -418 257 1766 0
411 134 261 1767 0
-82 -369 49 1768 0
83 -278 420 1769 0
124 427 -167 1770 0
-432 -294 79 1771 0
484 79 43 1772 0
387 39 337 1773 0
-33 429 -371 1774 0
-371 334 -386 1775 0
10 -86 -370 1776 0
-132 289 442 1777 0
-499 -2 -268 1778 0
-274 146 -330 1779 0
177 115 214 1780 0
31 -39 -77 1781 0
-469 211 451 1782 0
-384 87 429 1783 0
-239 114 145 1784 0
-456 348 336 1785 0
219 412 -33 1786 0
167 -402 -237 1787 0
-361 392 266 1788 0
-36 -2 359 1789 0
-10 -401 -51 1790 0
357 -368 -65 1791 0
-214 -241 401 1792 0
-412 -96 -347 1793 0
-131 -460 409 1794 0
-241 -199 348 1795 0
117 -335 147 1796 0
-451 -101 306 1797 0
-91 -366 46 1798 0
6 471 -168 1799 0
-370 423 312 1800 0
-68 445 394 1801 0
-379 -164 -396 1802 0
-319 -328 -19 1803 0
299 -83 -91 1804 0
192 50 -382 1805 0
363 -9 377 1806 0
-159 -477 -368 1807 0
-168 449 -163 1808 0
-122 -102 254 1809 0
-430 -185 -431 1810 0
-33 304 -225 1811 0
-65 181 101 1812 0
356 110 -47 1813 0
421 -143 -442 1814 0
155 -203 311 1815 0
-153 -118 -6 1816 0
-328 250 221 1817 0
53 -441 -279 1818 0
-359 29 -39 1819 0
-204 -36 -424 1820 0
-18 -372 -68 1821 0
347 192 -479 1822 0
-307 -208 260 1823 0
132 103 -139 1824 0
459 473 449 1825 0
408 184 401 1826 0
140 20 -495 1827 0
379 180 -467 1828 0
203 464 -474 1829 0
-111 63 -377 1830 0
-320 291 -482 1831 0
218 -411 159 1832 0
370 101 -452 1833 0
460 166 65 1834 0
167 170 -333 1835 0
-100 260 48 1836 0
-147 -466 73 1837 0
375 -210 -6 1838 0
-119 175 -460 1839 0
-315 33 -200 1840 0
345 -49 128 1841 0
-80 -356 -46 1842 0
-58 298 -270 1843 0
-79 -142 229 1844 0
164 -122 83 1845 0
464 163 -373 1846 0
222 -481 304 1847 0
81 -85 -393 1848 0
-363 109 -124 1849 0
-431 -118 -7 1850 0
-163 194 162 1851 0
297 -377 -159 1852 0
-420 488 -385 1853 0
65 297 -261 1854 0
130 60 -344 1855 0
-262 -191 -352 1856 0
235 9 -154 1857 0
280 155 -445 1858 0
-32 119 452 1859 0
-234 -133 257 1860 0
469 137 392 1861 0
191 346 51 1862 0
45 -470 65 1863 0
-219 -122 -87 1864 0
432 -12 481 1865 0
213 -327 -142 1866 0
315 167 370 1867 0
405 -106 -380 1868 0
-160 -201 -312 1869 0
133 -98 268 1870 0
-11 470 -158 1871 0
15 -441 90 1872 0
-403 -60 363 1873 0
-133 -157 167 1874 0
-253 -403 499 1875 0
-408 452 -479 1876 0
-245 -249 253 1877 0
-471 -200 176 1878 0
105 290 441 1879 0
-172 50 -499 1880 0
142 -262 -243 1881 0
-295 -267 411 1882 0
132 -77 79 1883 0
395 -215 23 1884 0
-333 229 -96 1885 0
313 -74 47 1886 0
-476 -397 -1 1887 0
-47 154 -340 1888 0
297 232 109 1889 0
-495 31 373 1890 0
304 -72 -117 1891 0
173 293 348 1892 0
-289 407 389 1893 0
265 216 -9 1894 0
-223 -321 95 1895 0
-165 239 183 1896 0
-299 151 -215 1897 0
328 -299 270 1898 0
-65 -348 -357 1899 0
346 -142 -377 1900 0
370 -234 -176 1901 0
-93 -176 -335 1902 0
-388 -293 -237 1903 0
-497 -240 460 1904 0
197 462 141 1905 0
-37 221 86 1906 0
-497 -178 -222 1907 0
-32 167 80 1908 0
-332 -179 107 1909 0
-382 317 -239 1910 0
417 -219 384 1911 0
496 94 302 1912 0
265 -80 436 1913 0
78 169 -283 1914 0
385 285 19 1915 0
465 -439 205 1916 0
-426 -461 251 1917 0
138 -9 226 1918 0
-158 -141 491 1919 0
13 285 204 1920 0
174 -292 -371 1921 0
74 -440 396 1922 0
447 -397 -256 1923 0
75 -175 -136 1924 0
234 402 404 1925 0
359 -183 -150 1926 0
-40 364 452 1927 0
-99 20 101 1928 0
-148 -164 -64 1929 0
-234 -192 295 1930 0
-218 254 -1 1931 0
354 419 -284 1932 0
236 -251 -307 1933 0
-89 25 -142 1934 0
-166 437 244 1935 0
421 -28 394 1936 0
284 280 -313 1937 0
-226 -34 -407 1938 0
353 -36 -422 1939 0
-278 -222 -90 1940 0
-85 -310 -69 1941 0
-316 -39 32 1942 0
-6 148 -149 1943 0
404 281 -427 1944 0
-239 262 164 1945 0
406 -273 177 1946 0
-48 111 154 1947 0
-204 86 376 1948 0
180 420 129 1949 0
-268 457 -226 1950 0
369 -397 409 1951 0
-67 193 405 1952 0
32 -346 310 1953 0
-467 217 36 1954 0
-294 415 -475 1955 0
-210 -244 -193 1956 0
-371 349 -139 1957 0
-357 -108 123 1958 0
312 360 -232 1959 0
215 -456 -288 1960 0
236 94 37 1961 0
235 -429 104 1962 0
-423 338 291 1963 0
-264 182 454 1964 0
-6 210 220 1965 0
169 75 -382 1966 0
31 327 -10 1967 0
368 488 181 1968 0
-184 -389 -263 1969 0
221 230 -57 1970 0
-316 81 294 1971 0
-327 -174 268 1972 0
-376 -53 95 1973 0
-218 -293 -103 1974 0
16 327 -458 1975 0
-416 354 -122 1976 0
23 34 -150 1977 0
441 -485 192 1978 0
492 45 420 1979 0
-97 148 -425 1980 0
-265 -375 130 1981 0
-49 -144 313 1982 0
-71 -230 22 1983 0
-50 -141 175 1984 0
-408 -438 -420 1985 0
304 -317 433 1986 0
469 -276 52 1987 0
496 -175 221 1988 0
-432 213 -236 1989 0
-306 136 -199 1990 0
-121 -466 467 1991 0
-20 224 379 1992 0
-277 -363 163 1993 0
-370 -144 -91 1994 0
171 -132 487 1995 0
-342 -196 87 1996 0
-180 -217 -105 1997 0
-435 -412 431 1998 0
28 396 423 1999 0
-36 456 -386 2000 0
-75 -36 -133 2001 0
188 -448 -223 2002 0
-329 -448 23 2003 0
-102 337 -245 2004 0
-127 -417 -351 2005 0
-278 -300 120 2006 0
-309 1 -258 2007 0
-93 231 -457 2008 0
-157 -320 -443 2009 0
-260 -149 -237 2010 0
-104 107 -263 2011 0
215 367 -24 2012 0
411 226 -102 2013 0
-238 111 132 2014 0
450 297 -311 2015 0
-74 -92 -50 2016 0
307 381 268 2017 0
138 16 474 2018 0
448 120 -230 2019 0
67 -49 -237 2020 0
180 -219 372 2021 0
-429 -250 -83 2022 0
73 -162 -206 2023 0
-229 48 90 2024 0
-307 304 -185 2025 0
298 -206 464 2026 0
-196 -171 182 2027 0
34 -202 287 2028 0
-477 -281 434 2029 0
-395 -153 437 2030 0
399 85 -359 2031 0
-192 160 104 2032 0
-132 -200 139 2033 0
297 -53 -146 2034 0
-179 69 -380 2035 0
367 -3 244 2036 0
-155 -129 -182 2037 0
290 185 -381 2038 0
-185 124 -428 2039 0
-490 -323 -448 2040 0
482 -160 310 2041 0
-183 290 24 2042 0
-18 -253 -371 2043 0
341 325 -469 2044 0
-167 218 361 2045 0
274 -441 -445 2046 0
-65 -488 336 2047 0
-33 -452 -49 2048 0
267 218 17 2049 0
-316 -461 35 2050 0
-451 219 167 2051 0
14 395 189 2052 0
-367 -347 -269 2053 0
37 -131 205 2054 0
-186 -290 474 2055 0
-39 -207 466 2056 0
-405 193 223 2057 0
-369 -328 -350 2058 0
-143 255 -493 2059 0
229 -314 328 2060 0
-73 452 126 2061 0
289 -400 184 2062 0
-45 353 -386 2063 0
-5 -491 243 2064 0
105 429 -483 2065 0
-317 211 413 2066 0
-199 220 221 2067 0
-410 -13 -438 2068 0
-318 310 117 2069 0
-404 261 -103 2070 0
122 403 -407 2071 0
-377 96 -321 2072 0
-61 243 -449 2073 0
386 -107 -233 2074 0
-498 -310 -61 2075 0
-476 272 -413 2076 0
-203 -393 122 2077 0
-60 493 438 2078 0
262 -385 70 2079 0
72 -246 64 2080 0
-397 -255 -121 2081 0
461 -179 472 2082 0
308 -470 413 2083 0
55 31 422 2084 0
123 -147 -134 2085 0
114 -19 -121 2086 0
-179 417 347 2087 0
-285 228 259 2088 0
-339 344 -176 2089 0
372 231 -197 2090 0
-217 160 349 2091 0
453 -12 -426 2092 0
-28 255 -315 2093 0
317 -102 -461 2094 0
96 -292 253 2095 0
19 293 -224 2096 0
-193 27 -413 2097 0
425 -221 -115 2098 0
480 -455 -410 2099 0
-380 -50 353 2100 0
27 203 -125 2101 0
-21 148 270 2102 0
405 38 -22 2103 0
-120 462 192 2104 0
290 -229 -241 2105 0
394 372 336 2106 0
127 -409 236 2107 0
480 387 488 2108 0
250 69 193 2109 0
115 322 236 2110 0
121 -54 -252 2111 0
218 -359 373 2112 0
376 185 -460 2113 0
-55 -238 -146 2114 0
-467 96 -406 2115 0
80 336 -492 2116 0
-328 403 -125 2117 0
41 -254 -85 2118 0
115 41 439 2119 0
-168 -263 -230 2120 0
53 -163 384 2121 0
148 -140 -482 2122 0
-56 72 182 2123 0
-328 372 189 2124 0
-194 -386 199 2125 0
364 -241 -71 2126 0
80 -219 413 2127 0
310 -453 -222 2128 0
-304 19 -30 2129 0
-296 -316 483 2130 0
144 -245 -136 2131 0
-327 182 -72 2132 0
-487 212 352 2133 0
-9 86 -130 2134 0
-111 108 -307 2135 0
-41 -484 421 2136 0
-118 -428 -292 2137 0
-386 -498 85 2138 0
-374 428 28 2139 0
95 -37 353 2140 0
317 -171 162 2141 0
307 -57 -35 2142 0
-35 175 -221 2143 0
-101 -232 -194 2144 0
323 -425 368 2145 0
-19 -412 -157 2146 0
-462 344 199 2147 0
282 -179 356 2148 0
-211 -38 476 2149 0
-329 -328 -500 2150 0
103 370 -56 2151 0
188 -24 174 2152 0
459 491 -28 2153 0
275 -286 -2 2154 0
64 -151 -322 2155 0
-234 175 -80 2156 0
-9 352 -12 2157 0
-364 311 413 2158 0
-63 410 51 2159 0
-331 77 -290 2160 0
422 -115 -73 2161 0
500 -493 309 2162 0
491 -41 281 2163 0
-319 1 -244 2164 0
-63 315 -482 2165 0
51 -26 63 2166 0
86 -149 30 2167 0
-56 -38 -338 2168 0
-443 374 -395 2169 0
316 192 83 2170 0
-352 468 -246 2171 0
-450 248 103 2172 0
84 -286 -178 2173 0
383 -200 297 2174 0
391 -171 -299 2175 0
-200 -321 198 2176 0
-41 -194 -208 2177 0
-420 222 134 2178 0
-318 186 -339 2179 0
-34 -370 373 2180 0
-253 -428 -169 2181 0
-408 -36 -300 2182 0
-173 -216 117 2183 0
-410 -40 -401 2184 0
-210 273 310 2185 0
270 -15 328 2186 0
300 -201 -471 2187 0
451 -464 256 2188 0
-33 266 300 2189 0
-343 -149 -218 2190 0
-48 217 -146 2191 0
249 106 116 2192 0
383 -280 -378 2193 0
-149 -123 25 2194 0
456 500 -232 2195 0
-265 172 356 2196 0
-317 378 360 2197 0
-331 144 387 2198 0
290 424 -122 2199 0
-372 41 -126 2200 0
-167 -368 -390 2201 0
-229 57 256 2202 0
99 371 337 2203 0
-84 -353 28 2204 0
490 454 -333 2205 0
-127 443 -483 2206 0
-439 146 -28 2207 0
-304 365 -450 2208 0
-432 -494 -314 2209 0
-374 263 250 2210 0
122 -271 -363 2211 0
390 127 335 2212 0
41 224 -145 2213 0
222 371 -370 2214 0
84 -130 401 2215 0
252 273 -205 2216 0
216 -381 -358 2217 0
46 103 -42 2218 0
499 434 -132 2219 0
-46 50 -120 2220 0
-150 -137 -231 2221 0
274 -260 263 2222 0
413 130 -433 2223 0
-50 49 -140 2224 0
-182 136 -377 2225 0
418 -112 -113 2226 0
417 -157 -415 2227 0
163 140 -290 2228 0
-434 -127 -380 2229 0
117 -118 -181 2230 0
-46 43 384 2231 0
-365 174 314 2232 0
379 443 282 2233 0
408 290 58 2234 0
-118 46 388 2235 0
362 407 401 2236 0
-440 461 -315 2237 0
195 -460 -126 2238 0
165 -175 -198 2239 0
434 203 -196 2240 0
-299 37 -283 2241 0
424 362 216 2242 0
167 -139 -294 2243 0
-377 -62 -163 2244 0
-475 -146 -317 2245 0
-324 -23 -225 2246 0
317 -452 -159 2247 0
-334 -376 -249 2248 0
273 -319 -186 2249 0
-286 -401 398 2250 0
-477 -436 -58 2251 0
138 372 126 2252 0
104 -351 -332 2253 0
-472 -154 244 2254 0
61 107 -398 2255 0
-351 -226 -67 2256 0
430 -253 -313 2257 0
-333 68 -142 2258 0
168 250 -39 2259 0
108 181 337 2260 0
-278 67 -289 2261 0
-438 -104 -2 2262 0
51 60 57 2263 0
391 252 -409 2264 0
333 282 461 2265 0
24 -79 -211 2266 0
320 -310 407 2267 0
258 -214 -379 2268 0
-86 453 -47 2269 0
-93 11 343 2270 0
-363 -310 -204 2271 0
403 -354 70 2272 0
271 24 309 2273 0
127 159 278 2274 0
-174 148 21 2275 0
-167 101 -295 2276 0
-63 53 443 2277 0
-236 199 374 2278 0
296 275 -55 2279 0
-41 -437 139 2280 0
-122 203 -115 2281 0
-209 -142 -372 2282 0
-251 440 72 2283 0
19 -493 -478 2284 0
22 19 -495 2285 0
447 -380 -294 2286 0
198 -102 33 2287 0
-231 392 -258 2288 0
-353 -162 186 2289 0
-51 -481 314 2290 0
418 -243 -72 2291 0
275 -373 5 2292 0
-273 -77 -117 2293 0
-436 254 -188 2294 0
99 -267 -388 2295 0
-332 454 191 2296 0
371 -175 98 2297 0
-425 351 72 2298 0
-305 -367 120 2299 0
485 109 421 2300 0
395 -302 -366 2301 0
162 -64 480 2302 0
-323 412 -381 2303 0
252 -456 379 2304 0
-211 -76 -34 2305 0
-481 139 326 2306 0
320 296 144 2307 0
-183 -432 395 2308 0
-116 365 -82 2309 0
-136 164 417 2310 0
-78 452 367 2311 0
-371 -40 459 2312 0
251 301 -7 2313 0
93 -96 211 2314 0
-497 468 -167 2315 0
154 162 340 2316 0
180 -499 -100 2317 0
-424 234 134 2318 0
-375 -32 -350 2319 0
152 241 -306 2320 0
178 307 354 2321 0
-236 410 285 2322 0
274 -84 -96 2323 0
-326 -322 116 2324 0
283 -387 125 2325 0
35 49 -119 2326 0
-77 -62 303 2327 0
251 400 -368 2328 0
-437 56 457 2329 0
-206 341 -35 2330 0
156 -192 -302 2331 0
-228 -178 441 2332 0
-24 -413 -333 2333 0
211 458 407 2334 0
-245 424 173 2335 0
-230 345 -245 2336 0
-109 -260 -114 2337 0
-100 107 272 2338 0
263 -153 -302 2339 0
-101 49 284 2340 0
134 318 -450 2341 0
-321 473 -425 2342 0
390 -184 -442 2343 0
-201 135 369 2344 0
-447 308 -313 2345 0
-379 -293 -204 2346 0
-346 -169 162 2347 0
-390 -56 -389 2348 0
218 377 72 2349 0
-7 -248 112 2350 0
36 303 32 2351 0
-26 -249 -492 2352 0
-158 479 -34 2353 0
-209 377 92 2354 0
88 208 -215 2355 0
86 -158 281 2356 0
371 236 447 2357 0
405 -335 -494 2358 0
141 -56 -442 2359 0
-226 289 412 2360 0
-192 -436 381 2361 0
143 -314 -64 2362 0
-219 38 216 2363 0
334 -110 212 2364 0
93 12 390 2365 0
472 146 2 2366 0
-221 432 -74 2367 0
239 225 31 2368 0
442 282 123 2369 0
-393 288 -128 2370 0
-269 307 -400 2371 0
296 374 -193 2372 0
360 297 96 2373 0
-311 45 492 2374 0
-327 217 41 2375 0
-270 -125 173 2376 0
175 -208 483 2377 0
40 -301 106 2378 0
200 -489 88 2379 0
142 457 -159 2380 0
-68 229 -123 2381 0
398 -156 -225 2382 0
-486 -454 387 2383 0
413 446 -371 2384 0
-15 445 -322 2385 0
-187 -247 54 2386 0
-468 399 -73 2387 0
265 -279 -371 2388 0
375 -325 91 2389 0
422 146 -427 2390 0
248 445 368 2391 0
-166 126 182 2392 0
-85 110 164 2393 0
324 472 152 2394 0
-438 -457 -192 2395 0
-492 -323 187 2396 0
-121 -250 166 2397 0
79 351 362 2398 0
-114 -312 -308 2399 0
417 -296 480 2400 0
-291 334 -304 2401 0
276 210 324 2402 0
452 225 410 2403 0
-164 351 214 2404 0
-174 -328 416 2405 0
226 82 -182 2406 0
262 41 316 2407 0
275 -254 202 2408 0
-146 -304 421 2409 0
-126 51 -378 2410 0
-98 -199 -190 2411 0
-141 -370 492 2412 0
-471 445 -390 2413 0
332 -403 -455 2414 0
-158 -344 -485 2415 0
-25 -160 -46 2416 0
222 45 432 2417 0
-429 -312 -13 2418 0
-85 342 142 2419 0
-432 -390 190 2420 0
-90 -175 308 2421 0
495 103 259 2422 0
358 258 130 2423 0
-38 -134 -160 2424 0
-245 494 33 2425 0
92 -199 -430 2426 0
-97 294 43 2427 0
335 10 -361 2428 0
-384 -232 -20 2429 0
379 -401 -415 2430 0
-377 -62 297 2431 0
128 471 84 2432 0
265 432 24 2433 0
411 -145 277 2434 0
329 -67 -26 2435 0
-46 -211 263 2436 0
201 495 10 2437 0
-137 -108 -333 2438 0
155 -373 -244 2439 0
-143 -450 104 2440 0
-193 100 -335 2441 0
-51 12 90 2442 0
-77 226 -298 2443 0
-272 158 -456 2444 0
276 9 332 2445 0
-219 -445 48 2446 0
380 -327 -372 2447 0
-260 257 465 2448 0
-84 476 416 2449 0
394 -140 52 2450 0
316 -313 237 2451 0
394 91 354 2452 0
296 258 -388 2453 0
-253 64 -278 2454 0
-340 235 -399 2455 0
162 293 -38 2456 0
168 497 -221 2457 0
-428 -409 311 2458 0
198 -480 15 2459 0
-296 54 37 2460 0
-346 -235 -125 2461 0
-383 32 -320 2462 0
-146 416 -408 2463 0
51 -271 -302 2464 0
-72 -14 298 2465 0
141 -41 230 2466 0
-207 -494 296 2467 0
272 -93 -140 2468 0
282 471 169 2469 0
-78 -239 -37 2470 0
363 -391 -313 2471 0
362 -195 208 2472 0
16 294 286 2473 0
-449 125 -450 2474 0
229 492 93 2475 0
3 -45 363 2476 0
232 -60 -438 2477 0
306 20 151 2478 0
230 436 489 2479 0
-361 -487 307 2480 0
-12 -211 326 2481 0
27 -270 -11 2482 0
-134 433 -38 2483 0
355 390 191 2484 0
275 -78 27 2485 0
151 -103 367 2486 0
-421 -370 -151 2487 0
449 339 434 2488 0
-214 -220 315 2489 0
458 -427 -242 2490 0
481 -9 -63 2491 0
477 -128 -339 2492 0
-39 261 429 2493 0
-412 28 -203 2494 0
-341 215 -232 2495 0
-58 -367 31 2496 0
79 -207 -346 2497 0
223 -229 -204 2498 0
-329 31 -85 2499 0
415 102 436 2500 0
446 -220 272 2501 0
-174 -277 -305 2502 0
-454 -117 319 2503 0
367 263 -209 2504 0
329 -403 478 2505 0
325 95 -242 2506 0
-405 -21 360 2507 0
426 -306 -474 2508 0
55 -364 362 2509 0
-76 -344 -311 2510 0
391 70 19 2511 0
390 -181 -499 2512 0
-59 79 -413 2513 0
-108 462 -117 2514 0
469 211 -162 2515 0
336 -226 206 2516 0
110 -337 -489 2517 0
-293 -369 247 2518 0
-33 -170 450 2519 0
-500 -444 -23 2520 0
-197 -151 240 2521 0
-368 457 -243 2522 0
-191 13 181 2523 0
425 -3 -351 2524 0
126 -314 -295 2525 0
316 -406 -497 2526 0
188 -43 -457 2527 0
-353 -197 -366 2528 0
-194 -415 58 2529 0
341 -241 -434 2530 0
-472 93 143 2531 0
-166 -307 -369 2532 0
-252 467 -26 2533 0
239 373 -104 2534 0
211 459 -439 2535 0
21 -112 326 2536 0
-104 278 -118 2537 0
115 -55 -269 2538 0
-158 -24 -30 2539 0
296 21 -152 2540 0
-443 247 -303 2541 0
-175 71 -135 2542 0
-24 -28 156 2543 0
272 -146 168 2544 0
-14 134 322 2545 0
-189 279 -485 2546 0
355 214 -229 2547 0
116 -238 -306 2548 0
-273 -63 53 2549 0
-247 350 92 2550 0
-41 226 -165 2551 0
-358 350 280 2552 0
190 466 -488 2553 0
153 -380 -118 2554 0
417 -139 -219 2555 0
-477 154 201 2556 0
159 212 -475 2557 0
490 58 57 2558 0
24 70 317 2559 0
464 460 -7 2560 0
353 167 133 2561 0
448 -269 457 2562 0
34 -474 -157 2563 0
437 422 497 2564 0
423 -278 -169 2565 0
327 122 187 2566 0
-232 -86 325 2567 0
269 -416 381 2568 0
-9 21 185 2569 0
126 72 474 2570 0
254 -273 404 2571 0
118 362 457 2572 0
405 257 -328 2573 0
-206 476 194 2574 0
170 -78 192 2575 0
-453 21 -293 2576 0
488 446 383 2577 0
219 367 263 2578 0
-100 4 -30 2579 0
343 15 -439 2580 0
-301 -421 -39 2581 0
221 126 -366 2582 0
-132 -250 -196 2583 0
497 31 176 2584 0
-16 -482 17 2585 0
-118 -245 237 2586 0
197 316 -262 2587 0
94 221 -279 2588 0
-122 -394 -31 2589 0
442 -448 56 2590 0
221 -193 363 2591 0
293 -384 -292 2592 0
-204 29 432 2593 0
-210 446 200 2594 0
-49 163 -472 2595 0
-484 -370 -111 2596 0
-419 -167 -351 2597 0
319 -325 -27 2598 0
492 235 420 2599 0
-459 -367 -488 2600 0
-452 -98 55 2601 0
-55 348 -231 2602 0
-271 3 294 2603 0
271 402 -322 2604 0
121 -215 255 2605 0
-475 -463 104 2606 0
308 10 370 2607 0
244 95 137 2608 0
-400 146 231 2609 0
-104 434 194 2610 0
444 -403 193 2611 0
460 -249 272 2612 0
-183 -422 -494 2613 0
-369 11 -170 2614 0
-449 422 383 2615 0
270 -191 405 2616 0
-455 246 -457 2617 0
-213 197 194 2618 0
417 12 -374 2619 0
344 -205 258 2620 0
-99 330 -385 2621 0
-119 186 -243 2622 0
50 -382 385 2623 0
455 179 -410 2624 0
54 459 246 2625 0
-184 -124 397 2626 0
-18 56 492 2627 0
76 -400 417 2628 0
394 -211 489 2629 0
-400 -242 -226 2630 0
-431 -208 -248 2631 0
-19 440 16 2632 0
461 438 -426 2633 0
-437 -186 95 2634 0
257 -370 -111 2635 0
60 316 -233 2636 0
-477 353 -295 2637 0
-404 205 482 2638 0
-24 113 2 2639 0
465 -154 -224 2640 0
-122 -249 473 2641 0
485 111 389 2642 0
103 -93 41 2643 0
106 79 177 2644 0
-24 389 240 2645 0
358 -232 -132 2646 0
-201 -445 96 2647 0
419 96 453 2648 0
-89 -94 406 2649 0
-232 265 -243 2650 0
