p cnf 2650 2150
409 -80 -359 501 0
160 297 381 502 0
-73 61 295 503 0
354 246 255 504 0
-280 -444 -224 505 0
-68 25 -145 506 0
340 -255 60 507 0
404 46 151 508 0
347 -431 -185 509 0
170 -21 412 510 0
136 259 -208 511 0
125 -368 256 512 0
-290 -354 -68 513 0
-112 -237 -115 514 0
-102 -327 414 515 0
57 10 272 516 0
224 60 -50 517 0
-230 -309 262 518 0
-302 -280 241 519 0
-440 -80 -288 520 0
325 349 -490 521 0
-94 -133 -355 522 0
185 94 122 523 0
-473 394 265 524 0
-143 147 62 525 0
-119 -481 -439 526 0
269 250 -185 527 0
249 -232 97 528 0
-492 79 433 529 0
322 29 259 530 0
-76 338 -161 531 0
156 -253 -383 532 0
72 69 19 533 0
-472 68 371 534 0
-290 -376 223 535 0
-396 241 228 536 0
-42 -10 -83 537 0
280 194 288 538 0
-296 217 -261 539 0
-82 -366 404 540 0
-458 202 -123 541 0
240 -383 -440 542 0
-409 -44 175 543 0
-168 254 197 544 0
301 -439 386 545 0
283 144 398 546 0
-4 -60 401 547 0
-66 -323 45 548 0
-68 -123 -196 549 0
238 -274 -193 550 0
199 -459 249 551 0
-96 -388 -130 552 0
-459 221 -144 553 0
-406 29 -270 554 0
10 -97 420 555 0
133 50 470 556 0
-387 -414 123 557 0
-273 143 -189 558 0
-4 -439 41 559 0
487 -356 -130 560 0
126 -18 -395 561 0
-238 227 366 562 0
-27 -310 424 563 0
-491 -164 282 564 0
209 39 -94 565 0
38 255 -301 566 0
1 -145 -449 567 0
-163 73 261 568 0
-405 -280 359 569 0
-148 -2 314 570 0
-348 496 -128 571 0
235 -219 -378 572 0
-138 123 230 573 0
-114 -468 -449 574 0
-400 -230 -268 575 0
3 159 23 576 0
205 394 -347 577 0
-278 -429 50 578 0
43 431 -406 579 0
-23 5 218 580 0
128 -490 360 581 0
142 497 -71 582 0
247 -103 44 583 0
141 450 292 584 0
55 327 102 585 0
319 -9 387 586 0
241 -311 -411 587 0
445 -463 246 588 0
152 -345 253 589 0
-70 291 -281 590 0
-432 -305 126 591 0
-197 22 416 592 0
-39 96 407 593 0
-375 165 194 594 0
-493 418 100 595 0
-197 156 37 596 0
-87 219 -488 597 0
61 172 361 598 0
375 398 449 599 0
-357 160 110 600 0
-107 372 -240 601 0
7 116 -446 602 0
239 -217 -338 603 0
359 -456 493 604 0
140 -17 -62 605 0
36 -49 -300 606 0
216 23 453 607 0
-204 384 401 608 0
100 327 379 609 0
-268 -413 420 610 0
323 495 141 611 0
229 -119 -261 612 0
262 -395 -154 613 0
-308 313 -32 614 0
-338 45 333 615 0
324 -283 -327 616 0
-141 8 -39 617 0
223 258 410 618 0
314 -96 -484 619 0
65 -301 -116 620 0
228 -235 252 621 0
445 -148 86 622 0
-454 429 -23 623 0
-320 -446 154 624 0
378 324 114 625 0
-390 251 444 626 0
-306 -176 216 627 0
467 116 -122 628 0
-160 310 193 629 0
-489 121 -385 630 0
-1 -317 -171 631 0
71 -45 -80 632 0
404 456 -424 633 0
-196 -434 43 634 0
-285 64 470 635 0
-398 -23 81 636 0
124 366 421 637 0
49 51 397 638 0
-328 -144 -437 639 0
-265 350 -480 640 0
391 482 -475 641 0
438 -182 -211 642 0
-255 217 -325 643 0
-371 494 -251 644 0
233 395 299 645 0
-307 -132 -456 646 0
314 -346 -257 647 0
-257 416 -404 648 0
9 -99 75 649 0
412 265 -463 650 0
208 280 -438 651 0
-321 303 -495 652 0
464 -38 -179 653 0
-247 -59 274 654 0
-270 316 -14 655 0
-325 484 -464 656 0
-366 174 393 657 0
-264 185 251 658 0
-237 -385 -116 659 0
206 -117 -167 660 0
173 -411 470 661 0
95 -118 -190 662 0
-285 -345 465 663 0
-482 -259 -109 664 0
-468 367 6 665 0
201 -113 454 666 0
421 -1 -243 667 0
430 -259 53 668 0
210 -356 312 669 0
162 -270 79 670 0
-289 -106 139 671 0
-129 178 -261 672 0
-365 -458 -187 673 0
-418 467 -156 674 0
337 -70 -75 675 0
-27 281 260 676 0
244 368 58 677 0
-81 -498 -101 678 0
353 -114 208 679 0
151 288 -481 680 0
-155 343 -142 681 0
-346 -291 -411 682 0
-465 205 -154 683 0
142 -19 -352 684 0
-426 -272 -158 685 0
398 -118 -270 686 0
-302 249 281 687 0
-258 229 -231 688 0
-343 49 -477 689 0
-293 229 285 690 0
-388 86 297 691 0
-466 -416 -81 692 0
190 -442 159 693 0
267 -361 288 694 0
-189 414 -317 695 0
214 -198 -63 696 0
-372 -251 471 697 0
-418 333 163 698 0
-408 497 358 699 0
-377 -110 181 700 0
54 26 -350 701 0
35 12 -162 702 0
-164 306 296 703 0
13 486 120 704 0
139 -482 -64 705 0
-62 108 76 706 0
489 199 267 707 0
103 -215 -258 708 0
14 -407 -451 709 0
413 360 -391 710 0
-332 257 482 711 0
-134 -265 -89 712 0
-13 -305 334 713 0
-407 -31 -58 714 0
412 384 -89 715 0
-357 -294 436 716 0
-464 -205 -175 717 0
184 85 -149 718 0
-311 -76 -456 719 0
187 296 -433 720 0
-40 330 164 721 0
447 278 159 722 0
307 -257 362 723 0
-330 -36 74 724 0
-285 -226 -237 725 0
-1 -19 -302 726 0
491 -349 353 727 0
86 287 209 728 0
366 -79 8 729 0
-292 -496 -337 730 0
-445 5 -395 731 0
-137 139 61 732 0
495 53 96 733 0
279 436 -142 734 0
-153 18 346 735 0
377 -492 10 736 0
243 -30 91 737 0
-223 386 -261 738 0
326 -458 277 739 0
329 393 153 740 0
353 428 -35 741 0
-294 60 -420 742 0
-279 467 -186 743 0
389 144 385 744 0
178 -385 367 745 0
-232 401 130 746 0
107 -197 -99 747 0
-294 -115 430 748 0
160 400 13 749 0
73 -173 233 750 0
-348 22 396 751 0
-301 1 184 752 0
76 -203 -108 753 0
-88 -131 183 754 0
355 -332 178 755 0
-306 116 482 756 0
240 -324 -344 757 0
184 247 173 758 0
-251 -102 425 759 0
16 297 -219 760 0
-394 -270 147 761 0
-313 -162 279 762 0
475 -381 411 763 0
-133 90 79 764 0
-219 -112 275 765 0
-81 439 -307 766 0
-154 -209 -110 767 0
-279 -491 256 768 0
-460 77 -207 769 0
-231 -374 153 770 0
-210 268 492 771 0
24 -481 -300 772 0
-199 148 255 773 0
-262 197 -52 774 0
30 134 -295 775 0
475 43 -13 776 0
290 475 -46 777 0
-1 -57 323 778 0
165 -232 -436 779 0
46 -372 -82 780 0
-69 49 282 781 0
-365 -20 53 782 0
63 296 434 783 0
-367 324 61 784 0
23 162 -320 785 0
254 301 182 786 0
15 267 -227 787 0
-191 -67 143 788 0
56 -323 -274 789 0
-335 179 147 790 0
-492 -346 -483 791 0
156 -349 9 792 0
172 -291 -104 793 0
-407 -76 209 794 0
376 -431 76 795 0
-354 -462 -346 796 0
488 -472 208 797 0
448 197 -111 798 0
-123 340 -233 799 0
438 62 -261 800 0
-54 188 -240 801 0
495 201 -452 802 0
344 -19 -210 803 0
-103 -62 -403 804 0
75 60 318 805 0
109 -307 -49 806 0
-472 -26 283 807 0
239 169 432 808 0
-398 -143 397 809 0
-375 74 234 810 0
137 332 102 811 0
-467 338 445 812 0
92 -62 -44 813 0
398 80 263 814 0
-395 -169 459 815 0
44 -370 228 816 0
445 314 381 817 0
443 257 -72 818 0
-170 -465 274 819 0
5 -116 -73 820 0
413 211 -217 821 0
-351 310 -102 822 0
-286 341 -106 823 0
77 387 15 824 0
54 -320 376 825 0
-91 -391 -77 826 0
-378 -363 164 827 0
8 -381 60 828 0
-112 451 -327 829 0
-287 201 -59 830 0
-202 240 -262 831 0
176 -499 330 832 0
375 -209 116 833 0
370 279 -48 834 0
336 379 84 835 0
-253 -119 -245 836 0
342 -102 340 837 0
-46 -74 62 838 0
-375 -428 451 839 0
-221 -153 425 840 0
-139 -475 -183 841 0
-68 395 369 842 0
481 -441 23 843 0
326 -40 484 844 0
110 -200 -252 845 0
449 -222 -152 846 0
-8 241 -204 847 0
-486 256 67 848 0
256 356 10 849 0
-280 110 60 850 0
-43 -414 375 851 0
-2 -135 -14 852 0
165 259 269 853 0
-19 -229 8 854 0
-59 -263 -89 855 0
246 -258 377 856 0
257 -57 410 857 0
-6 13 -388 858 0
272 -440 -118 859 0
32 -209 -313 860 0
321 127 188 861 0
-467 427 -243 862 0
-281 -211 -109 863 0
-65 -256 5 864 0
-136 210 159 865 0
293 94 -160 866 0
-375 447 -399 867 0
-194 -209 -338 868 0
-379 13 53 869 0
-329 -213 -191 870 0
-57 288 -309 871 0
147 220 322 872 0
81 375 124 873 0
477 391 418 874 0
312 -433 -106 875 0
-345 -48 443 876 0
103 38 -400 877 0
-408 -286 -193 878 0
258 466 479 879 0
333 -456 -341 880 0
188 16 -58 881 0
-152 -70 29 882 0
-162 -377 91 883 0
-382 -345 -39 884 0
13 -11 146 885 0
33 -417 41 886 0
-469 -110 227 887 0
-471 -497 130 888 0
-179 -252 -73 889 0
103 -425 64 890 0
-316 297 145 891 0
113 -305 -123 892 0
331 50 182 893 0
119 -1 -182 894 0
15 -203 -21 895 0
-450 459 212 896 0
287 47 283 897 0
112 -143 -160 898 0
432 -336 147 899 0
311 -281 -420 900 0
400 110 -53 901 0
-53 -254 457 902 0
-59 130 -174 903 0
217 -54 -125 904 0
-209 -215 9 905 0
183 -280 -297 906 0
-99 -161 -25 907 0
196 -188 -19 908 0
240 369 35 909 0
303 -34 -288 910 0
-304 289 191 911 0
-264 -497 -84 912 0
14 -146 -470 913 0
-2 385 -446 914 0
-300 -29 497 915 0
174 -38 100 916 0
-144 -463 270 917 0
-172 246 421 918 0
2 53 -440 919 0
201 245 -423 920 0
222 43 -439 921 0
354 60 -44 922 0
-42 -101 212 923 0
106 69 172 924 0
-493 294 -325 925 0
-351 254 -26 926 0
124 360 -105 927 0
381 -225 -307 928 0
-327 -19 96 929 0
352 383 454 930 0
-91 324 -187 931 0
472 -463 210 932 0
391 -66 410 933 0
-7 -471 -93 934 0
92 273 -294 935 0
-492 56 -28 936 0
114 -205 -53 937 0
-346 -404 143 938 0
-430 -235 459 939 0
431 172 414 940 0
-208 151 405 941 0
279 335 -198 942 0
451 -160 -321 943 0
-47 -499 328 944 0
311 142 -369 945 0
-236 -408 -445 946 0
398 28 108 947 0
224 -438 33 948 0
79 217 -128 949 0
77 -147 319 950 0
173 339 -328 951 0
294 89 -382 952 0
246 -23 313 953 0
382 -128 262 954 0
51 -367 -230 955 0
-464 146 334 956 0
54 -158 -208 957 0
-500 -266 -397 958 0
-478 -60 -205 959 0
-481 261 269 960 0
-53 422 210 961 0
-257 -367 350 962 0
-349 -293 395 963 0
138 213 -22 964 0
120 101 160 965 0
286 -384 -371 966 0
-299 -183 474 967 0
57 350 -89 968 0
404 179 -350 969 0
404 -256 -97 970 0
200 273 379 971 0
496 -85 -250 972 0
-144 477 497 973 0
-252 316 326 974 0
498 274 381 975 0
329 95 15 976 0
-299 -3 -404 977 0
-48 178 -173 978 0
416 -92 -426 979 0
-82 365 182 980 0
262 186 -147 981 0
30 -265 86 982 0
427 -457 466 983 0
350 -444 63 984 0
376 30 -43 985 0
309 -129 269 986 0
216 439 334 987 0
-413 -35 456 988 0
-404 436 71 989 0
372 -178 -3 990 0
142 307 -488 991 0
10 -244 -407 992 0
131 -123 -224 993 0
147 377 -230 994 0
-464 -32 402 995 0
-155 -63 153 996 0
-262 500 154 997 0
376 246 -346 998 0
341 -138 -127 999 0
-493 423 -380 1000 0
393 -144 -367 1001 0
-304 -198 -437 1002 0
239 -182 -77 1003 0
55 83 -1 1004 0
-253 125 -355 1005 0
-324 -76 -109 1006 0
399 -275 96 1007 0
-187 -298 347 1008 0
471 52 -172 1009 0
140 -256 -500 1010 0
-149 -493 43 1011 0
-214 105 49 1012 0
-74 -289 142 1013 0
-377 -7 -421 1014 0
55 -66 -429 1015 0
290 468 364 1016 0
422 -440 -483 1017 0
299 -469 117 1018 0
-203 383 -427 1019 0
-41 219 -244 1020 0
208 415 -297 1021 0
-160 204 -108 1022 0
322 -484 -375 1023 0
-176 -211 35 1024 0
399 139 301 1025 0
-227 -401 -467 1026 0
-120 493 65 1027 0
104 -367 -333 1028 0
479 -215 -483 1029 0
14 476 391 1030 0
-336 -81 299 1031 0
-240 -6 184 1032 0
473 -277 -198 1033 0
-234 -154 -60 1034 0
264 -351 -166 1035 0
69 308 -317 1036 0
185 162 -266 1037 0
-443 266 436 1038 0
4 -11 -145 1039 0
101 -237 -358 1040 0
443 -431 433 1041 0
-472 157 -471 1042 0
426 -414 78 1043 0
324 274 286 1044 0
21 83 -73 1045 0
156 334 223 1046 0
418 271 -260 1047 0
97 82 115 1048 0
346 -410 441 1049 0
6 318 184 1050 0
-123 -312 -351 1051 0
-365 -322 30 1052 0
62 44 -113 1053 0
-189 66 221 1054 0
240 184 291 1055 0
338 261 158 1056 0
-329 -126 40 1057 0
311 -242 -79 1058 0
7 -282 -191 1059 0
293 414 41 1060 0
-479 -351 -294 1061 0
439 -458 229 1062 0
-163 466 88 1063 0
-190 351 138 1064 0
370 424 -383 1065 0
257 132 -347 1066 0
42 -415 -236 1067 0
-65 245 -113 1068 0
-297 44 143 1069 0
-228 440 -315 1070 0
-34 256 267 1071 0
-403 -353 -197 1072 0
-48 245 65 1073 0
-421 254 -40 1074 0
-400 270 -334 1075 0
414 -362 -204 1076 0
144 -436 -241 1077 0
296 37 127 1078 0
-271 65 464 1079 0
92 -224 369 1080 0
-156 76 330 1081 0
-61 -313 471 1082 0
311 -225 -4 1083 0
343 -189 -278 1084 0
-317 -192 486 1085 0
-383 390 -429 1086 0
225 134 -431 1087 0
-286 306 2 1088 0
5 -87 -223 1089 0
327 -127 366 1090 0
-283 183 466 1091 0
374 -401 -190 1092 0
-326 30 -130 1093 0
-68 -321 -287 1094 0
176 379 -128 1095 0
38 -106 103 1096 0
134 -297 -94 1097 0
417 244 306 1098 0
-403 276 73 1099 0
-99 272 -412 1100 0
125 32 108 1101 0
-151 197 -189 1102 0
-415 -38 -261 1103 0
-225 -291 -313 1104 0
292 -92 299 1105 0
234 494 365 1106 0
2 -404 88 1107 0
421 489 357 1108 0
59 -93 306 1109 0
102 -295 -470 1110 0
-19 -219 -107 1111 0
43 -434 486 1112 0
-184 -271 248 1113 0
-12 -65 481 1114 0
498 -262 -493 1115 0
499 364 -117 1116 0
-163 347 12 1117 0
-487 -136 -119 1118 0
148 345 -426 1119 0
102 259 -202 1120 0
281 56 344 1121 0
-262 70 -362 1122 0
-396 105 -86 1123 0
59 102 -384 1124 0
330 -174 385 1125 0
182 470 -87 1126 0
103 52 -462 1127 0
484 179 2 1128 0
-178 236 -316 1129 0
464 -219 349 1130 0
133 -411 102 1131 0
-182 213 125 1132 0
166 -217 394 1133 0
-315 -200 -496 1134 0
408 -500 193 1135 0
182 -289 -8 1136 0
-309 131 80 1137 0
-380 170 -479 1138 0
-205 -277 63 1139 0
-243 -19 -126 1140 0
-235 -288 124 1141 0
370 -365 43 1142 0
349 -12 65 1143 0
-213 276 -448 1144 0
426 498 -242 1145 0
229 -240 443 1146 0
-365 -296 122 1147 0
-185 202 -380 1148 0
-23 -16 -228 1149 0
-330 -222 275 1150 0
341 66 -415 1151 0
129 230 326 1152 0
18 371 -181 1153 0
-436 246 404 1154 0
477 498 358 1155 0
455 310 365 1156 0
-277 353 -166 1157 0
-277 457 -462 1158 0
347 220 -70 1159 0
199 91 -341 1160 0
-52 124 -228 1161 0
283 218 -277 1162 0
-33 449 -458 1163 0
-400 78 51 1164 0
-342 -98 -307 1165 0
236 -313 497 1166 0
234 67 499 1167 0
-252 6 -29 1168 0
2 402 -318 1169 0
466 59 184 1170 0
-49 410 293 1171 0
35 475 406 1172 0
-66 -312 -98 1173 0
305 -47 279 1174 0
-470 -349 414 1175 0
-282 452 350 1176 0
13 407 154 1177 0
259 283 -217 1178 0
117 288 322 1179 0
-193 -394 -400 1180 0
-479 311 -303 1181 0
127 149 32 1182 0
85 -295 -42 1183 0
499 241 364 1184 0
206 -153 -495 1185 0
-151 47 413 1186 0
-114 148 325 1187 0
-7 -81 -238 1188 0
229 -461 -135 1189 0
71 -383 -378 1190 0
354 237 205 1191 0
-249 485 18 1192 0
-124 361 -261 1193 0
10 -500 87 1194 0
43 -253 -131 1195 0
-305 318 293 1196 0
179 -381 -107 1197 0
-366 -413 -175 1198 0
-93 141 293 1199 0
-391 -139 67 1200 0
438 304 -364 1201 0
490 376 412 1202 0
133 70 365 1203 0
-364 -434 -103 1204 0
227 426 348 1205 0
-398 455 -292 1206 0
237 4 -240 1207 0
-7 135 275 1208 0
120 171 -134 1209 0
276 -221 -125 1210 0
431 292 -386 1211 0
-404 -344 312 1212 0
-412 314 299 1213 0
423 -169 -188 1214 0
467 -156 -396 1215 0
465 310 -435 1216 0
284 -366 -295 1217 0
-25 -246 178 1218 0
-44 -85 -330 1219 0
-426 -334 -292 1220 0
202 -330 -485 1221 0
-241 -359 305 1222 0
164 19 81 1223 0
240 327 298 1224 0
127 237 -90 1225 0
-239 -194 229 1226 0
-69 -205 -169 1227 0
-488 487 -151 1228 0
-408 381 -364 1229 0
-455 -146 -406 1230 0
-133 198 321 1231 0
-423 -127 -247 1232 0
113 -172 -79 1233 0
116 154 228 1234 0
174 -123 352 1235 0
-78 -349 -370 1236 0
-313 -156 43 1237 0
-106 -198 -105 1238 0
-443 403 82 1239 0
-8 447 14 1240 0
-235 141 289 1241 0
-426 -351 -360 1242 0
477 245 281 1243 0
403 -475 -274 1244 0
-74 -40 -200 1245 0
387 99 478 1246 0
4 -65 137 1247 0
-57 161 299 1248 0
379 -127 -40 1249 0
60 404 108 1250 0
283 -497 296 1251 0
-477 168 -395 1252 0
-265 -472 477 1253 0
-343 355 455 1254 0
253 -330 38 1255 0
63 -146 70 1256 0
-45 -359 -488 1257 0
-281 -62 -96 1258 0
212 464 359 1259 0
159 -297 -209 1260 0
342 29 -444 1261 0
-156 29 -95 1262 0
-168 -123 450 1263 0
49 -32 -412 1264 0
-270 -225 66 1265 0
-143 -157 68 1266 0
-121 18 63 1267 0
-436 71 265 1268 0
84 -141 -336 1269 0
125 -180 184 1270 0
298 45 74 1271 0
-214 -228 -383 1272 0
-14 364 101 1273 0
305 -368 346 1274 0
115 -140 442 1275 0
338 -479 -131 1276 0
174 -239 -63 1277 0
418 -4 343 1278 0
16 292 218 1279 0
423 9 -153 1280 0
475 424 -138 1281 0
-208 145 138 1282 0
90 208 -483 1283 0
-302 -344 487 1284 0
-450 -276 155 1285 0
-464 -179 172 1286 0
-440 -282 190 1287 0
349 84 -351 1288 0
-264 474 -398 1289 0
67 -312 -360 1290 0
-342 -149 29 1291 0
-202 59 426 1292 0
490 -38 32 1293 0
-173 243 302 1294 0
-15 -383 249 1295 0
254 351 432 1296 0
490 -467 284 1297 0
-324 -60 72 1298 0
250 42 290 1299 0
-157 291 -328 1300 0
-471 -286 308 1301 0
299 389 348 1302 0
80 -486 340 1303 0
-61 331 -56 1304 0
339 -98 344 1305 0
-364 131 -224 1306 0
27 -334 114 1307 0
307 -321 442 1308 0
-248 414 441 1309 0
-242 -71 -448 1310 0
174 -285 13 1311 0
-269 129 422 1312 0
-172 403 3 1313 0
-202 -301 30 1314 0
-6 496 346 1315 0
396 -129 188 1316 0
323 461 114 1317 0
448 -165 -82 1318 0
104 -309 -237 1319 0
-456 -18 446 1320 0
34 229 223 1321 0
414 198 6 1322 0
98 212 -235 1323 0
267 177 -296 1324 0
-372 -316 -359 1325 0
328 -398 -382 1326 0
-340 -206 64 1327 0
-55 66 17 1328 0
469 224 -344 1329 0
-233 -310 -273 1330 0
-36 -321 88 1331 0
-491 -107 -498 1332 0
5 -187 44 1333 0
-383 -474 83 1334 0
414 462 -65 1335 0
-229 -284 -397 1336 0
-316 -363 408 1337 0
-292 -134 295 1338 0
-62 191 67 1339 0
-312 237 -98 1340 0
-6 -341 -86 1341 0
-210 369 -254 1342 0
-295 -38 320 1343 0
204 428 -121 1344 0
-423 -205 75 1345 0
-173 -80 313 1346 0
76 242 96 1347 0
-465 -38 -337 1348 0
388 -381 376 1349 0
374 -411 -159 1350 0
-196 490 -495 1351 0
135 99 120 1352 0
436 112 -57 1353 0
330 -395 160 1354 0
-247 351 407 1355 0
-6 342 -180 1356 0
-464 -394 -341 1357 0
-343 117 -98 1358 0
311 -418 -359 1359 0
183 -397 237 1360 0
-189 -360 -73 1361 0
382 91 -337 1362 0
241 360 -183 1363 0
481 165 -374 1364 0
284 -208 -249 1365 0
364 28 -221 1366 0
-35 188 -190 1367 0
-77 -185 476 1368 0
347 315 242 1369 0
-407 -21 350 1370 0
267 -111 -201 1371 0
301 66 -118 1372 0
248 123 377 1373 0
420 250 293 1374 0
427 121 363 1375 0
212 -445 154 1376 0
347 362 337 1377 0
-35 301 -448 1378 0
-121 277 79 1379 0
39 407 422 1380 0
423 81 378 1381 0
166 -368 -432 1382 0
464 -67 -489 1383 0
-40 -121 -408 1384 0
-430 -3 457 1385 0
414 260 26 1386 0
95 125 344 1387 0
90 451 264 1388 0
65 -263 -131 1389 0
-291 -404 -84 1390 0
-139 -427 -415 1391 0
-415 257 250 1392 0
377 -255 -13 1393 0
-151 -117 380 1394 0
275 445 -147 1395 0
56 -184 -93 1396 0
434 142 -125 1397 0
191 185 306 1398 0
431 -15 152 1399 0
-304 -108 243 1400 0
-110 -374 64 1401 0
-172 388 308 1402 0
332 272 -86 1403 0
100 -215 58 1404 0
-101 304 -225 1405 0
-85 280 -418 1406 0
-498 434 198 1407 0
303 -222 -106 1408 0
-17 -451 267 1409 0
454 -194 243 1410 0
-165 -443 308 1411 0
195 402 -405 1412 0
-384 -453 -102 1413 0
-426 248 -246 1414 0
-180 125 258 1415 0
166 448 343 1416 0
-214 170 -308 1417 0
-459 -394 465 1418 0
-151 -417 164 1419 0
437 88 -58 1420 0
-25 371 -266 1421 0
72 112 244 1422 0
-105 110 328 1423 0
-332 408 25 1424 0
247 405 -319 1425 0
-112 -98 20 1426 0
-248 -80 58 1427 0
470 -365 -229 1428 0
-143 -174 -373 1429 0
-104 -253 497 1430 0
-299 -500 335 1431 0
-497 -329 332 1432 0
-150 362 -292 1433 0
177 26 157 1434 0
-92 242 120 1435 0
-79 330 221 1436 0
161 -433 -430 1437 0
99 -222 486 1438 0
-211 329 137 1439 0
290 -337 186 1440 0
403 -477 125 1441 0
-198 -253 -53 1442 0
201 -384 -261 1443 0
-396 -257 -134 1444 0
87 301 88 1445 0
438 271 50 1446 0
211 -365 63 1447 0
-58 -422 329 1448 0
271 497 103 1449 0
102 -264 238 1450 0
-120 186 -302 1451 0
243 -372 5 1452 0
-215 310 -64 1453 0
-163 -396 -258 1454 0
-64 -230 339 1455 0
289 475 -225 1456 0
489 64 -104 1457 0
384 -100 -329 1458 0
-168 -369 -143 1459 0
-259 -326 368 1460 0
-93 -143 -308 1461 0
307 -309 2 1462 0
-339 473 -154 1463 0
21 331 -321 1464 0
-173 379 174 1465 0
-295 437 -100 1466 0
442 498 182 1467 0
397 -410 401 1468 0
-191 -144 -300 1469 0
379 -15 330 1470 0
-328 439 277 1471 0
-39 -138 133 1472 0
43 -368 165 1473 0
397 95 -348 1474 0
433 -188 177 1475 0
-126 -162 -8 1476 0
56 463 381 1477 0
382 122 263 1478 0
-101 365 254 1479 0
-482 48 215 1480 0
-468 321 245 1481 0
-437 -296 295 1482 0
153 422 -198 1483 0
124 -107 -177 1484 0
-441 -60 -204 1485 0
192 -50 -423 1486 0
-2 -362 364 1487 0
343 -165 -422 1488 0
156 160 -92 1489 0
76 342 -248 1490 0
348 114 158 1491 0
232 456 -497 1492 0
102 -407 156 1493 0
-423 126 364 1494 0
11 -351 -196 1495 0
-222 -37 -110 1496 0
423 -440 8 1497 0
6 -219 -383 1498 0
-324 -357 -408 1499 0
-133 399 158 1500 0
27 -148 256 1501 0
483 -254 117 1502 0
-221 264 -216 1503 0
-393 212 -308 1504 0
-401 343 -471 1505 0
212 -283 -314 1506 0
483 -485 412 1507 0
-477 254 -143 1508 0
78 75 446 1509 0
-289 -74 -211 1510 0
-406 -393 -170 1511 0
-380 249 -189 1512 0
-66 -352 -218 1513 0
-477 299 -489 1514 0
469 398 192 1515 0
-448 327 277 1516 0
217 -83 -132 1517 0
-49 408 -321 1518 0
404 -59 -464 1519 0
-405 -140 -386 1520 0
32 450 258 1521 0
-194 81 -385 1522 0
280 22 177 1523 0
172 337 -431 1524 0
51 -25 -208 1525 0
184 415 -265 1526 0
-265 -159 -10 1527 0
191 47 -316 1528 0
417 481 83 1529 0
-348 -491 -150 1530 0
-44 -106 233 1531 0
410 32 -197 1532 0
162 154 -161 1533 0
133 424 109 1534 0
151 -271 221 1535 0
-164 477 -368 1536 0
448 14 465 1537 0
255 223 315 1538 0
180 492 8 1539 0
-262 196 391 1540 0
-241 -36 109 1541 0
88 -481 24 1542 0
59 52 344 1543 0
-355 -311 63 1544 0
256 369 26 1545 0
201 -327 211 1546 0
-423 -229 20 1547 0
-364 -485 -392 1548 0
-320 -366 369 1549 0
-173 -200 -30 1550 0
290 449 -310 1551 0
-62 339 -368 1552 0
178 -338 -174 1553 0
-30 297 -159 1554 0
-54 259 265 1555 0
398 200 -379 1556 0
177 -464 290 1557 0
425 355 6 1558 0
-312 470 -437 1559 0
129 419 244 1560 0
428 -24 -233 1561 0
335 -60 -57 1562 0
-276 -474 184 1563 0
-476 135 -461 1564 0
258 -170 215 1565 0
-373 418 402 1566 0
-29 -150 28 1567 0
489 294 315 1568 0
405 243 409 1569 0
80 -412 -245 1570 0
266 -22 -399 1571 0
-210 478 256 1572 0
-272 42 134 1573 0
294 101 284 1574 0
-450 274 6 1575 0
-444 30 132 1576 0
-227 -309 260 1577 0
18 -399 -286 1578 0
148 16 -397 1579 0
220 -24 458 1580 0
32 463 494 1581 0
466 372 253 1582 0
-319 -325 -268 1583 0
321 -45 90 1584 0
496 -467 -238 1585 0
205 -426 12 1586 0
-292 -326 -57 1587 0
-272 -453 422 1588 0
388 390 448 1589 0
-433 -103 -295 1590 0
358 -336 -240 1591 0
-209 303 35 1592 0
424 -92 -430 1593 0
-4 -478 -479 1594 0
-359 436 -256 1595 0
85 -19 -11 1596 0
206 45 -154 1597 0
-113 259 -104 1598 0
124 -267 -450 1599 0
-472 -361 155 1600 0
-254 -89 152 1601 0
-86 -423 -447 1602 0
-300 213 -32 1603 0
-362 367 -139 1604 0
35 265 -354 1605 0
176 -293 220 1606 0
117 -422 96 1607 0
-64 451 -433 1608 0
-8 -275 402 1609 0
210 326 377 1610 0
105 323 -348 1611 0
331 -325 -41 1612 0
-18 -340 -246 1613 0
-419 -298 -443 1614 0
-274 -463 -427 1615 0
-161 347 -271 1616 0
200 133 431 1617 0
-232 423 -348 1618 0
48 33 487 1619 0
-103 -239 -299 1620 0
-39 -211 -341 1621 0
-58 79 423 1622 0
-499 -113 91 1623 0
413 -151 -219 1624 0
300 -267 -133 1625 0
-261 -461 -54 1626 0
-154 457 -88 1627 0
307 -43 21 1628 0
103 419 -10 1629 0
-205 334 -111 1630 0
444 -168 -238 1631 0
244 344 -103 1632 0
15 -85 402 1633 0
-100 222 -98 1634 0
-464 -452 -227 1635 0
476 68 292 1636 0
133 -146 477 1637 0
356 -494 -232 1638 0
194 189 -224 1639 0
-33 -232 286 1640 0
187 -177 232 1641 0
215 92 91 1642 0
67 -177 76 1643 0
-391 -191 -310 1644 0
-358 174 408 1645 0
321 70 10 1646 0
183 -332 73 1647 0
-364 184 210 1648 0
-60 147 178 1649 0
203 267 -218 1650 0
142 94 38 1651 0
299 420 22 1652 0
313 93 -264 1653 0
446 157 -271 1654 0
-189 375 -207 1655 0
406 121 268 1656 0
253 -59 298 1657 0
-260 -115 56 1658 0
19 -475 -126 1659 0
114 195 91 1660 0
-285 216 323 1661 0
412 -92 -286 1662 0
-421 494 -195 1663 0
372 283 208 1664 0
119 -473 456 1665 0
-336 190 387 1666 0
-235 347 241 1667 0
197 -110 47 1668 0
-186 233 -379 1669 0
192 -297 409 1670 0
-285 -333 -234 1671 0
54 -487 -374 1672 0
-263 -195 -480 1673 0
494 -212 72 1674 0
424 437 -40 1675 0
-276 -31 277 1676 0
145 272 -127 1677 0
-239 128 -472 1678 0
-58 -192 247 1679 0
-247 296 -313 1680 0
264 -124 -71 1681 0
62 54 64 1682 0
-341 -394 -240 1683 0
278 -6 258 1684 0
-232 202 419 1685 0
-314 -376 69 1686 0
136 157 305 1687 0
-122 87 200 1688 0
-497 320 207 1689 0
-190 -114 420 1690 0
424 -311 31 1691 0
105 435 433 1692 0
467 -465 -270 1693 0
219 -109 105 1694 0
326 -163 -296 1695 0
461 -95 -101 1696 0
-28 -363 37 1697 0
-151 272 -18 1698 0
94 -81 -339 1699 0
61 457 -184 1700 0
217 -468 113 1701 0
371 -76 170 1702 0
414 -245 -104 1703 0
129 -234 332 1704 0
71 -229 243 1705 0
-488 -19 -499 1706 0
167 -47 -478 1707 0
-191 355 316 1708 0
-241 467 483 1709 0
228 -199 -135 1710 0
-440 -149 130 1711 0
7 29 324 1712 0
128 -19 179 1713 0
-426 -196 414 1714 0
331 -189 5 1715 0
446 367 -393 1716 0
-355 -339 -329 1717 0
147 391 -427 1718 0
169 170 314 1719 0
-345 117 -237 1720 0
198 116 -286 1721 0
-416 56 385 1722 0
-77 362 347 1723 0
-372 274 142 1724 0
76 -24 356 1725 0
-284 -267 -107 1726 0
123 156 -155 1727 0
14 311 332 1728 0
-336 -150 -223 1729 0
-79 433 -181 1730 0
185 38 10 1731 0
362 317 268 1732 0
-429 -288 361 1733 0
251 -205 -130 1734 0
-410 493 383 1735 0
-74 -388 123 1736 0
-279 395 -491 1737 0
-40 -357 457 1738 0
265 -95 -374 1739 0
86 287 -154 1740 0
31 13 124 1741 0
26 -154 -260 1742 0
-414 -97 -196 1743 0
-414 452 186 1744 0
18 81 -276 1745 0
494 437 25 1746 0
175 -142 4 1747 0
313 434 -414 1748 0
158 288 -11 1749 0
-141 98 -479 1750 0
-60 440 393 1751 0
-65 -54 138 1752 0
485 -147 -387 1753 0
-65 -383 451 1754 0
22 366 -81 1755 0
-295 206 -375 1756 0
-83 -404 80 1757 0
295 -333 -325 1758 0
165 -83 -313 1759 0
-493 -127 -200 1760 0
-79 -273 -53 1761 0
167 -461 100 1762 0
339 475 -492 1763 0
-178 -477 223 1764 0
-103 -309 -94 1765 0
273 227 -263 1766 0
410 -136 430 1767 0
-348 -77 211 1768 0
-66 -112 272 1769 0
-216 -398 46 1770 0
102 -440 29 1771 0
-146 -477 330 1772 0
-10 104 344 1773 0
-131 45 474 1774 0
51 415 205 1775 0
395 452 -80 1776 0
-76 278 151 1777 0
191 245 253 1778 0
326 -302 -12 1779 0
-234 -24 268 1780 0
357 83 99 1781 0
112 -184 381 1782 0
-158 -292 348 1783 0
324 489 -70 1784 0
92 79 90 1785 0
431 355 -447 1786 0
439 -145 127 1787 0
-19 -136 158 1788 0
485 -260 -286 1789 0
303 -371 204 1790 0
179 114 263 1791 0
148 -330 -216 1792 0
-428 -121 389 1793 0
-478 -467 -74 1794 0
-168 -9 -182 1795 0
-399 -118 259 1796 0
-196 97 394 1797 0
5 -258 189 1798 0
52 -102 -374 1799 0
82 -85 325 1800 0
358 71 298 1801 0
-226 -466 -433 1802 0
-20 -476 54 1803 0
-488 489 472 1804 0
-389 -373 193 1805 0
296 403 384 1806 0
14 456 -55 1807 0
73 -313 212 1808 0
122 -127 385 1809 0
381 -320 -163 1810 0
-268 -321 236 1811 0
-20 236 73 1812 0
-241 90 173 1813 0
-108 -181 -142 1814 0
-200 345 493 1815 0
-479 -104 -62 1816 0
-424 -499 -340 1817 0
-47 -94 -318 1818 0
-474 -109 240 1819 0
94 128 283 1820 0
-266 -425 -399 1821 0
458 286 -58 1822 0
250 469 -457 1823 0
166 -428 -270 1824 0
393 335 -325 1825 0
360 -148 -328 1826 0
-77 73 -300 1827 0
220 -342 350 1828 0
312 -306 -483 1829 0
113 -314 -186 1830 0
-18 -226 -352 1831 0
412 170 52 1832 0
2 73 279 1833 0
-69 -473 318 1834 0
128 -81 -56 1835 0
-230 -105 -176 1836 0
416 206 -333 1837 0
-155 448 -486 1838 0
415 -390 313 1839 0
-74 457 -7 1840 0
-487 -374 -8 1841 0
-397 324 -212 1842 0
-415 -203 92 1843 0
-157 -336 -22 1844 0
-167 -468 331 1845 0
-351 421 309 1846 0
175 -371 71 1847 0
61 -83 75 1848 0
239 -482 -306 1849 0
458 332 -410 1850 0
233 -306 1 1851 0
-247 -52 -243 1852 0
-77 443 -384 1853 0
306 128 360 1854 0
-329 212 405 1855 0
54 -197 -453 1856 0
271 73 136 1857 0
76 -40 287 1858 0
-310 298 -74 1859 0
-4 -492 -112 1860 0
-406 -203 113 1861 0
-89 -306 -126 1862 0
225 -313 -311 1863 0
-136 -426 68 1864 0
-52 231 -130 1865 0
443 418 -50 1866 0
51 -115 214 1867 0
431 29 363 1868 0
375 362 346 1869 0
124 -293 337 1870 0
391 386 337 1871 0
-200 -314 440 1872 0
-1 10 -237 1873 0
-480 473 -245 1874 0
478 -341 24 1875 0
287 29 121 1876 0
-67 345 -283 1877 0
-20 224 -108 1878 0
315 -192 -300 1879 0
-89 256 230 1880 0
-157 193 289 1881 0
246 86 219 1882 0
-197 7 -87 1883 0
469 68 -282 1884 0
-198 115 -280 1885 0
278 196 -384 1886 0
448 410 93 1887 0
308 64 -408 1888 0
180 10 -77 1889 0
99 -474 -132 1890 0
-221 55 -244 1891 0
-256 224 -214 1892 0
-69 -181 466 1893 0
67 163 25 1894 0
-406 408 -250 1895 0
-145 327 -135 1896 0
-354 193 -400 1897 0
-371 -42 -99 1898 0
-338 -263 488 1899 0
76 -421 -441 1900 0
451 -468 -32 1901 0
246 -102 -112 1902 0
186 -269 65 1903 0
203 -387 -317 1904 0
160 21 -348 1905 0
480 -399 -325 1906 0
475 -342 291 1907 0
-331 485 342 1908 0
426 152 10 1909 0
-162 306 -20 1910 0
459 -438 230 1911 0
202 311 -264 1912 0
302 195 -481 1913 0
-31 195 -109 1914 0
248 -108 -385 1915 0
-288 234 -309 1916 0
78 92 -204 1917 0
181 -391 287 1918 0
389 -169 295 1919 0
99 452 -16 1920 0
-179 -169 -194 1921 0
123 -315 136 1922 0
-63 465 -185 1923 0
158 271 379 1924 0
344 160 374 1925 0
329 186 -491 1926 0
247 479 335 1927 0
17 -293 388 1928 0
489 -482 57 1929 0
-291 -56 270 1930 0
485 -355 105 1931 0
-374 -425 435 1932 0
418 -309 -484 1933 0
-271 -273 189 1934 0
157 66 -251 1935 0
260 9 -74 1936 0
284 300 368 1937 0
-95 210 -214 1938 0
-193 35 -359 1939 0
-193 294 -421 1940 0
-84 -351 -492 1941 0
343 -360 -275 1942 0
226 421 2 1943 0
133 324 -250 1944 0
-165 -405 396 1945 0
218 200 -40 1946 0
-487 204 80 1947 0
259 216 -27 1948 0
-234 -73 41 1949 0
256 -302 -320 1950 0
332 -428 -359 1951 0
-83 328 130 1952 0
429 -60 -391 1953 0
-342 -397 302 1954 0
438 139 339 1955 0
-40 123 -338 1956 0
-385 -267 -428 1957 0
196 60 161 1958 0
16 424 -259 1959 0
255 -497 -29 1960 0
132 383 227 1961 0
-79 305 165 1962 0
-48 150 217 1963 0
-309 341 48 1964 0
264 -258 -259 1965 0
-200 382 -414 1966 0
135 481 -13 1967 0
-395 -155 60 1968 0
-124 -62 296 1969 0
-208 -135 367 1970 0
-6 337 -167 1971 0
-109 45 417 1972 0
-328 -462 -201 1973 0
-22 452 95 1974 0
-271 -412 322 1975 0
-406 -107 -248 1976 0
266 -493 -338 1977 0
-462 -212 197 1978 0
171 -252 -427 1979 0
-139 -216 -89 1980 0
470 490 395 1981 0
268 -55 -485 1982 0
-203 -483 492 1983 0
363 -400 305 1984 0
420 479 -27 1985 0
-486 306 5 1986 0
-498 -200 101 1987 0
-245 -232 426 1988 0
255 364 25 1989 0
-48 345 -352 1990 0
-247 99 -7 1991 0
54 -46 -471 1992 0
-367 455 -300 1993 0
-121 -210 86 1994 0
256 432 366 1995 0
-47 -30 149 1996 0
50 -4 -233 1997 0
-339 269 -105 1998 0
-425 334 226 1999 0
53 367 156 2000 0
-455 -223 -119 2001 0
-475 -80 492 2002 0
308 464 -66 2003 0
-59 108 -236 2004 0
236 -372 -308 2005 0
110 436 -387 2006 0
449 -110 -202 2007 0
340 -332 -156 2008 0
236 -125 -28 2009 0
7 -42 -315 2010 0
-262 -214 -342 2011 0
153 26 443 2012 0
293 -206 214 2013 0
-252 164 -487 2014 0
132 142 -39 2015 0
55 -496 -331 2016 0
500 414 425 2017 0
139 -329 -374 2018 0
-429 334 -446 2019 0
345 169 294 2020 0
344 416 62 2021 0
184 -15 -238 2022 0
-90 89 -411 2023 0
-216 -190 -309 2024 0
397 440 -281 2025 0
-362 -125 -466 2026 0
369 -69 195 2027 0
-107 -120 101 2028 0
337 307 -50 2029 0
24 -251 272 2030 0
396 390 -169 2031 0
169 292 -379 2032 0
-120 193 -215 2033 0
-399 292 -249 2034 0
335 -179 -8 2035 0
-464 78 -164 2036 0
-402 115 -236 2037 0
375 -491 -333 2038 0
298 -9 -39 2039 0
496 -374 -88 2040 0
-320 -262 479 2041 0
147 -270 427 2042 0
-281 214 325 2043 0
401 292 -409 2044 0
-418 93 192 2045 0
370 -142 -313 2046 0
-422 -133 -110 2047 0
432 -30 138 2048 0
-485 46 491 2049 0
84 95 -254 2050 0
142 118 -392 2051 0
-347 7 -167 2052 0
-202 -107 160 2053 0
-112 -255 -188 2054 0
-45 368 -117 2055 0
-126 57 -217 2056 0
-259 -500 -408 2057 0
169 143 -252 2058 0
325 169 22 2059 0
314 -476 221 2060 0
-215 -30 -484 2061 0
152 -199 -79 2062 0
147 -92 -123 2063 0
437 -281 -459 2064 0
-213 125 404 2065 0
-443 288 497 2066 0
-200 -307 357 2067 0
-466 498 205 2068 0
-303 196 -236 2069 0
65 68 339 2070 0
254 -133 -384 2071 0
132 64 158 2072 0
333 146 228 2073 0
-224 -467 273 2074 0
196 373 101 2075 0
-65 -466 -164 2076 0
454 256 -152 2077 0
25 -290 272 2078 0
318 108 85 2079 0
416 -209 -445 2080 0
317 426 -162 2081 0
-294 -344 210 2082 0
167 38 295 2083 0
358 112 153 2084 0
14 135 134 2085 0
-214 -80 -304 2086 0
112 393 296 2087 0
207 -121 -419 2088 0
380 92 -320 2089 0
-176 300 437 2090 0
-495 294 379 2091 0
293 -358 75 2092 0
315 -106 -499 2093 0
183 -11 -184 2094 0
8 -114 334 2095 0
360 192 -39 2096 0
479 -165 -285 2097 0
312 405 498 2098 0
295 126 -100 2099 0
379 -249 -365 2100 0
-330 -193 -459 2101 0
-226 70 103 2102 0
76 53 151 2103 0
-232 157 -286 2104 0
241 -432 -495 2105 0
-172 -351 89 2106 0
15 -347 -469 2107 0
-491 -62 -68 2108 0
284 409 303 2109 0
297 -495 183 2110 0
454 -41 495 2111 0
190 -466 230 2112 0
345 240 -79 2113 0
248 -68 -45 2114 0
201 -420 206 2115 0
-162 -298 -242 2116 0
288 -17 219 2117 0
-327 -189 -86 2118 0
-110 -19 -38 2119 0
-377 130 186 2120 0
166 -125 45 2121 0
261 -78 300 2122 0
-50 -68 382 2123 0
-12 -23 -426 2124 0
42 -155 146 2125 0
-103 152 223 2126 0
-484 177 255 2127 0
315 282 243 2128 0
-391 -149 339 2129 0
59 -265 358 2130 0
-231 168 335 2131 0
-181 235 -450 2132 0
179 79 278 2133 0
-42 479 -150 2134 0
-94 -88 -384 2135 0
-66 103 386 2136 0
116 87 305 2137 0
408 427 -395 2138 0
66 372 409 2139 0
-32 415 297 2140 0
-166 426 -127 2141 0
343 413 217 2142 0
-201 208 -476 2143 0
462 158 -362 2144 0
399 -254 -430 2145 0
497 383 472 2146 0
-474 164 -53 2147 0
418 -42 292 2148 0
-206 472 373 2149 0
419 -452 -179 2150 0
381 49 -488 2151 0
471 454 -35 2152 0
-349 454 416 2153 0
221 233 199 2154 0
-80 -188 171 2155 0
188 -427 395 2156 0
459 -29 320 2157 0
87 471 347 2158 0
228 204 -184 2159 0
142 78 435 2160 0
-118 99 -408 2161 0
83 204 -175 2162 0
391 241 -480 2163 0
-340 464 -210 2164 0
29 -21 -55 2165 0
-165 -21 12 2166 0
-383 349 12 2167 0
-187 273 -322 2168 0
-1 -106 -288 2169 0
69 417 126 2170 0
-436 28 -486 2171 0
310 -122 272 2172 0
405 -234 -412 2173 0
134 392 -339 2174 0
-16 -246 188 2175 0
82 398 363 2176 0
4 274 459 2177 0
491 108 271 2178 0
495 -65 -348 2179 0
345 260 -477 2180 0
345 73 -25 2181 0
-448 28 -472 2182 0
-326 -190 60 2183 0
-358 98 417 2184 0
-350 -441 -6 2185 0
457 403 105 2186 0
-463 157 -11 2187 0
449 7 -181 2188 0
95 454 72 2189 0
355 -419 476 2190 0
447 450 437 2191 0
-355 371 -320 2192 0
494 383 287 2193 0
155 -132 -242 2194 0
-180 358 14 2195 0
410 312 84 2196 0
-70 -216 148 2197 0
240 445 -66 2198 0
30 -309 452 2199 0
430 -411 -6 2200 0
378 11 61 2201 0
348 305 -266 2202 0
473 406 -462 2203 0
196 -493 237 2204 0
152 -111 -126 2205 0
-376 184 321 2206 0
-358 458 228 2207 0
-482 266 185 2208 0
448 -12 -68 2209 0
-371 271 498 2210 0
-475 58 -115 2211 0
-348 106 165 2212 0
-185 299 -7 2213 0
-92 26 -342 2214 0
179 -373 78 2215 0
-349 -384 -128 2216 0
223 436 235 2217 0
-444 202 75 2218 0
499 481 132 2219 0
364 134 -248 2220 0
-143 272 -452 2221 0
133 469 390 2222 0
84 313 476 2223 0
-166 401 384 2224 0
-90 45 -17 2225 0
-254 -304 365 2226 0
-492 -402 11 2227 0
470 437 80 2228 0
55 -36 160 2229 0
-119 -354 -468 2230 0
-487 282 -79 2231 0
-449 -189 -476 2232 0
115 68 240 2233 0
144 135 -7 2234 0
121 263 -196 2235 0
-290 -157 264 2236 0
-354 463 -155 2237 0
-109 -473 81 2238 0
-293 113 114 2239 0
283 -152 -113 2240 0
-151 -47 -106 2241 0
352 434 -53 2242 0
331 314 -178 2243 0
-293 251 -269 2244 0
326 -342 -57 2245 0
117 -365 111 2246 0
353 -349 -1 2247 0
461 449 -306 2248 0
-190 432 -77 2249 0
243 315 -458 2250 0
-275 491 180 2251 0
-474 321 359 2252 0
484 -498 413 2253 0
187 -251 226 2254 0
-386 224 -51 2255 0
-65 -126 -81 2256 0
315 -318 -339 2257 0
-365 375 179 2258 0
-268 240 494 2259 0
211 273 171 2260 0
-182 458 -488 2261 0
-21 -439 -84 2262 0
215 56 -67 2263 0
22 51 -45 2264 0
-58 -239 -232 2265 0
166 18 444 2266 0
263 -77 266 2267 0
-109 -435 214 2268 0
-484 223 49 2269 0
-400 -18 72 2270 0
159 -278 305 2271 0
-7 1 -17 2272 0
-486 -444 -96 2273 0
119 -377 183 2274 0
223 119 365 2275 0
495 -462 -158 2276 0
217 194 -150 2277 0
424 -345 -448 2278 0
-447 -349 -203 2279 0
-37 -423 -350 2280 0
-382 -154 82 2281 0
374 -137 -485 2282 0
-168 -173 452 2283 0
242 -297 59 2284 0
20 382 379 2285 0
-294 -227 -218 2286 0
148 -285 -291 2287 0
149 -308 260 2288 0
-446 242 405 2289 0
-160 -336 -229 2290 0
-117 225 73 2291 0
396 -439 83 2292 0
463 -190 -306 2293 0
306 -357 99 2294 0
372 480 -462 2295 0
145 482 -282 2296 0
290 116 -21 2297 0
142 -429 260 2298 0
-175 -408 -16 2299 0
406 -59 -267 2300 0
-189 7 -493 2301 0
-284 -200 396 2302 0
361 -196 -398 2303 0
-32 -354 217 2304 0
157 -140 -158 2305 0
-135 486 -443 2306 0
-445 101 161 2307 0
-254 -118 -232 2308 0
338 377 -252 2309 0
-47 -309 -75 2310 0
-496 183 59 2311 0
86 245 403 2312 0
-450 -59 -5 2313 0
-469 -267 233 2314 0
-120 -454 -375 2315 0
325 -387 56 2316 0
-266 -41 -12 2317 0
-55 326 342 2318 0
-84 90 478 2319 0
-180 -418 -221 2320 0
356 204 -228 2321 0
-57 168 -258 2322 0
154 -59 287 2323 0
-483 -245 255 2324 0
-272 365 75 2325 0
88 -236 -314 2326 0
405 -56 -108 2327 0
296 111 75 2328 0
-87 -382 375 2329 0
-107 277 -474 2330 0
15 -479 208 2331 0
-42 239 -74 2332 0
-106 275 53 2333 0
384 268 -32 2334 0
-306 -127 406 2335 0
-123 53 -473 2336 0
8 -102 -276 2337 0
-402 369 104 2338 0
-85 -18 -333 2339 0
466 265 -472 2340 0
-496 -375 -419 2341 0
214 -60 365 2342 0
-481 26 159 2343 0
-237 188 -318 2344 0
221 337 357 2345 0
220 -81 150 2346 0
-16 200 -335 2347 0
179 -330 63 2348 0
-297 -407 -495 2349 0
18 -95 -154 2350 0
-310 -232 -156 2351 0
-392 445 111 2352 0
301 280 -139 2353 0
-141 -82 -414 2354 0
45 373 346 2355 0
196 -398 -306 2356 0
433 -451 -132 2357 0
-409 -145 62 2358 0
-412 323 -490 2359 0
434 -342 375 2360 0
206 467 253 2361 0
-409 -118 -131 2362 0
-300 -279 -428 2363 0
-378 -255 -198 2364 0
-286 182 380 2365 0
82 94 59 2366 0
-372 405 23 2367 0
127 -242 396 2368 0
-355 108 -255 2369 0
70 -55 431 2370 0
329 -206 303 2371 0
-86 320 486 2372 0
-107 -73 438 2373 0
436 241 123 2374 0
-272 302 -234 2375 0
-121 -79 -400 2376 0
-465 163 -322 2377 0
100 162 -355 2378 0
-307 -14 470 2379 0
370 221 -27 2380 0
-330 -393 -51 2381 0
-300 85 -430 2382 0
26 235 -164 2383 0
-39 -16 20 2384 0
488 318 -329 2385 0
27 193 467 2386 0
56 -421 -102 2387 0
-146 21 446 2388 0
-196 -85 -113 2389 0
191 248 -165 2390 0
-67 463 -398 2391 0
-78 490 -200 2392 0
-176 -429 366 2393 0
5 118 119 2394 0
482 -161 60 2395 0
-247 -316 383 2396 0
44 164 118 2397 0
309 360 -71 2398 0
375 -116 -212 2399 0
95 -397 132 2400 0
100 -197 259 2401 0
226 -417 31 2402 0
-80 193 -52 2403 0
-233 -112 -194 2404 0
299 317 -307 2405 0
-293 237 430 2406 0
360 -118 106 2407 0
334 -162 369 2408 0
400 189 -423 2409 0
240 264 494 2410 0
326 76 114 2411 0
-255 -386 333 2412 0
146 -333 51 2413 0
271 265 -307 2414 0
-382 195 -143 2415 0
215 347 -35 2416 0
-183 228 -387 2417 0
279 398 -393 2418 0
-51 82 333 2419 0
-364 -267 -340 2420 0
219 69 -404 2421 0
450 173 -133 2422 0
274 62 478 2423 0
205 10 -310 2424 0
-337 145 148 2425 0
68 222 -282 2426 0
59 -452 423 2427 0
-441 104 -26 2428 0
266 -276 493 2429 0
-391 -454 63 2430 0
-39 403 184 2431 0
-271 380 -249 2432 0
205 22 -109 2433 0
217 12 -439 2434 0
-75 -53 30 2435 0
-245 297 -8 2436 0
-38 -393 413 2437 0
160 27 298 2438 0
-384 -254 -143 2439 0
-395 -487 477 2440 0
70 56 -51 2441 0
15 127 -373 2442 0
76 -224 22 2443 0
-413 -454 65 2444 0
303 -334 -184 2445 0
-381 -195 -374 2446 0
-67 102 -151 2447 0
60 297 123 2448 0
201 -174 -177 2449 0
175 272 469 2450 0
-197 -262 -358 2451 0
-431 -16 3 2452 0
-115 -440 219 2453 0
-461 172 450 2454 0
-300 447 -325 2455 0
-316 259 -298 2456 0
364 -91 -415 2457 0
335 -112 463 2458 0
286 29 321 2459 0
291 205 -359 2460 0
178 367 -171 2461 0
424 -315 -160 2462 0
176 -469 257 2463 0
-154 463 -72 2464 0
317 454 489 2465 0
-284 299 -97 2466 0
215 302 -380 2467 0
411 -93 289 2468 0
-47 320 34 2469 0
126 -94 -372 2470 0
273 -194 186 2471 0
-209 -55 -496 2472 0
273 -198 411 2473 0
-492 325 -270 2474 0
-96 -463 376 2475 0
-40 498 -181 2476 0
274 387 14 2477 0
-488 -370 454 2478 0
-310 -431 423 2479 0
-498 149 179 2480 0
-182 -228 61 2481 0
-126 -59 98 2482 0
164 334 -356 2483 0
-366 123 75 2484 0
402 -100 -498 2485 0
50 172 234 2486 0
335 -416 322 2487 0
-117 321 -164 2488 0
-263 -204 -27 2489 0
189 -385 268 2490 0
102 -224 -444 2491 0
5 9 -484 2492 0
-152 108 120 2493 0
-417 253 218 2494 0
382 -320 -249 2495 0
-261 -463 -91 2496 0
-203 -154 461 2497 0
-412 -480 13 2498 0
-107 -215 -31 2499 0
367 -272 -142 2500 0
-335 148 290 2501 0
70 -82 -229 2502 0
204 -227 439 2503 0
-106 -306 88 2504 0
96 451 -5 2505 0
403 19 167 2506 0
-96 -443 -490 2507 0
264 49 27 2508 0
466 137 -180 2509 0
-140 -33 -463 2510 0
-291 -58 -338 2511 0
-309 337 -167 2512 0
286 162 15 2513 0
-43 -363 302 2514 0
-88 409 257 2515 0
233 -169 105 2516 0
148 -91 -191 2517 0
163 102 -376 2518 0
197 -201 465 2519 0
-428 6 -16 2520 0
273 75 -195 2521 0
429 -254 154 2522 0
150 196 470 2523 0
451 473 -85 2524 0
146 -426 414 2525 0
4 -455 -72 2526 0
-72 -353 257 2527 0
139 257 484 2528 0
-33 -143 124 2529 0
-364 377 -413 2530 0
-467 -89 -232 2531 0
-467 -1 -191 2532 0
-419 -148 -125 2533 0
-295 56 100 2534 0
-164 -31 208 2535 0
-189 4 311 2536 0
57 262 210 2537 0
253 -451 94 2538 0
-286 -359 318 2539 0
-15 -99 -173 2540 0
-69 -227 171 2541 0
-435 392 -224 2542 0
133 249 427 2543 0
85 -496 -117 2544 0
-168 -15 -55 2545 0
-233 -237 -250 2546 0
-106 392 261 2547 0
251 -399 -30 2548 0
-62 212 -134 2549 0
355 398 -406 2550 0
-70 12 22 2551 0
-355 118 -145 2552 0
152 -448 487 2553 0
170 -50 -161 2554 0
468 -462 -424 2555 0
-370 -392 204 2556 0
135 -48 154 2557 0
157 -78 -375 2558 0
-223 -83 33 2559 0
-114 -469 254 2560 0
-221 -416 -322 2561 0
-270 93 391 2562 0
224 -343 -2 2563 0
52 236 -254 2564 0
-18 4 -312 2565 0
203 227 268 2566 0
-371 78 -249 2567 0
299 -176 402 2568 0
376 233 473 2569 0
-145 440 -192 2570 0
125 194 -148 2571 0
-365 -284 -471 2572 0
-286 59 124 2573 0
-224 381 -83 2574 0
295 92 -162 2575 0
450 399 -226 2576 0
121 366 400 2577 0
-191 440 51 2578 0
-430 -24 -378 2579 0
-428 281 7 2580 0
363 44 286 2581 0
34 -47 -101 2582 0
-52 241 -337 2583 0
-75 -290 375 2584 0
223 106 -417 2585 0
-357 -138 -225 2586 0
221 -423 -435 2587 0
40 -81 -168 2588 0
126 -460 -224 2589 0
375 124 390 2590 0
217 399 -107 2591 0
-283 -171 361 2592 0
240 327 -328 2593 0
89 491 91 2594 0
-436 -349 55 2595 0
-206 347 472 2596 0
15 426 -160 2597 0
210 140 -171 2598 0
-354 389 162 2599 0
-257 383 16 2600 0
408 55 228 2601 0
209 5 495 2602 0
427 397 209 2603 0
-65 139 -151 2604 0
111 248 -377 2605 0
292 -487 -73 2606 0
-7 -271 32 2607 0
-191 -112 -154 2608 0
490 -102 -480 2609 0
156 118 281 2610 0
-154 454 357 2611 0
236 -60 -186 2612 0
368 19 -406 2613 0
389 -32 48 2614 0
-171 -49 -371 2615 0
124 -409 -281 2616 0
-254 8 -189 2617 0
-95 330 -246 2618 0
398 132 -322 2619 0
-55 -99 -274 2620 0
-296 -429 316 2621 0
-390 -344 -414 2622 0
-198 -370 424 2623 0
-365 420 50 2624 0
469 468 423 2625 0
263 -137 -14 2626 0
-238 268 -143 2627 0
-217 -471 -490 2628 0
371 217 427 2629 0
131 -164 -190 2630 0
-22 -81 421 2631 0
335 -163 -193 2632 0
290 -490 112 2633 0
-439 -254 423 2634 0
-297 359 352 2635 0
-118 -52 427 2636 0
39 -292 437 2637 0
-201 43 147 2638 0
387 229 183 2639 0
-59 -105 142 2640 0
29 -219 453 2641 0
158 210 270 2642 0
185 -266 -293 2643 0
187 -486 -77 2644 0
-332 -297 394 2645 0
-178 157 -88 2646 0
-359 -295 -460 2647 0
402 -15 -141 2648 0
-138 26 59 2649 0
-428 356 22 2650 0
