p cnf 2650 2150
-350 -88 -316 501 0
257 335 -216 502 0
-385 -458 58 503 0
54 127 -360 504 0
480 385 364 505 0
-151 -321 166 506 0
68 -432 460 507 0
33 -298 52 508 0
3 279 428 509 0
-385 83 -238 510 0
47 -204 -48 511 0
196 321 -64 512 0
-154 15 453 513 0
112 -226 182 514 0
306 258 -141 515 0
-187 172 -481 516 0
193 92 -485 517 0
263 225 156 518 0
-131 -227 -303 519 0
210 -470 249 520 0
371 481 320 521 0
-336 234 23 522 0
66 133 150 523 0
234 -277 -401 524 0
-230 -112 -42 525 0
-146 246 -279 526 0
284 -1 -210 527 0
-455 338 108 528 0
389 -135 243 529 0
294 329 360 530 0
-95 36 91 531 0
157 -464 241 532 0
253 -466 -234 533 0
-92 3 -5 534 0
37 -402 -79 535 0
-136 203 -361 536 0
240 176 -279 537 0
-237 -101 170 538 0
-193 52 239 539 0
-140 160 -442 540 0
-163 92 -62 541 0
283 -436 297 542 0
409 -93 180 543 0
-219 -450 -153 544 0
241 -487 57 545 0
-203 198 -462 546 0
215 175 376 547 0
396 -455 -472 548 0
-187 161 -417 549 0
-373 -429 -346 550 0
-140 -75 240 551 0
-98 21 261 552 0
125 332 433 553 0
-129 38 -344 554 0
173 181 177 555 0
305 120 441 556 0
-393 377 300 557 0
345 -94 -31 558 0
98 289 -4 559 0
466 -30 9 560 0
-67 -278 -56 561 0
369 4 416 562 0
428 102 432 563 0
236 -470 -242 564 0
377 -52 89 565 0
287 -134 -494 566 0
106 227 -243 567 0
380 -341 62 568 0
242 81 372 569 0
-435 30 -100 570 0
499 -160 319 571 0
-320 497 272 572 0
442 291 -135 573 0
-243 -39 -417 574 0
-10 250 -290 575 0
58 -467 393 576 0
283 451 -2 577 0
339 -393 -114 578 0
371 -404 494 579 0
335 -416 254 580 0
103 204 500 581 0
341 345 104 582 0
-388 479 -117 583 0
-347 -359 -245 584 0
-500 130 141 585 0
-8 -84 -457 586 0
-262 -207 67 587 0
-366 281 -203 588 0
-275 288 195 589 0
279 252 363 590 0
488 148 93 591 0
333 -192 496 592 0
134 258 168 593 0
305 -7 -266 594 0
-32 134 430 595 0
121 134 -191 596 0
43 345 39 597 0
310 90 151 598 0
-272 -45 79 599 0
-453 414 -21 600 0
334 -244 -63 601 0
304 -197 141 602 0
-158 31 32 603 0
38 385 192 604 0
-100 -165 351 605 0
140 275 401 606 0
60 -391 220 607 0
-25 -212 -338 608 0
305 -285 -496 609 0
-66 159 168 610 0
228 -183 480 611 0
103 -28 35 612 0
-414 283 -455 613 0
165 98 -365 614 0
-296 37 366 615 0
-469 429 -391 616 0
283 390 127 617 0
23 498 -346 618 0
255 -333 -84 619 0
-189 -96 -250 620 0
-292 185 188 621 0
22 476 63 622 0
-443 -123 14 623 0
163 73 81 624 0
191 481 -267 625 0
-154 64 422 626 0
-233 -42 -425 627 0
-333 -424 -349 628 0
-284 -223 -404 629 0
236 203 275 630 0
-286 482 -245 631 0
-82 331 -211 632 0
-196 367 -376 633 0
-29 421 161 634 0
-314 -106 -422 635 0
476 165 349 636 0
305 202 -24 637 0
329 -404 -11 638 0
263 209 -74 639 0
200 449 -26 640 0
442 263 -1 641 0
418 458 -373 642 0
-243 16 -88 643 0
-100 -154 54 644 0
281 336 -11 645 0
157 419 -470 646 0
-75 -374 452 647 0
-423 338 263 648 0
42 310 351 649 0
317 -69 -3 650 0
309 -400 483 651 0
-414 -435 475 652 0
-16 435 386 653 0
373 -271 316 654 0
-346 -271 -35 655 0
195 -103 -453 656 0
-24 163 258 657 0
280 283 -34 658 0
-304 188 -474 659 0
420 -434 55 660 0
126 220 -256 661 0
437 67 132 662 0
223 322 -78 663 0
175 296 427 664 0
151 89 226 665 0
-135 100 107 666 0
-177 376 -156 667 0
417 45 274 668 0
-6 224 472 669 0
425 -298 -281 670 0
-1 -74 94 671 0
-333 -400 -341 672 0
224 331 192 673 0
205 -484 -338 674 0
157 295 -328 675 0
-335 -415 -20 676 0
-181 -478 -221 677 0
2 -425 -485 678 0
33 70 -437 679 0
-144 -415 324 680 0
-5 155 -477 681 0
-458 474 10 682 0
14 392 -415 683 0
388 174 -111 684 0
491 -348 -487 685 0
-29 -12 40 686 0
-131 387 418 687 0
138 -488 -100 688 0
-402 353 -172 689 0
-375 300 96 690 0
-459 -161 -312 691 0
-158 39 464 692 0
-138 122 206 693 0
-170 -250 110 694 0
-123 -80 -85 695 0
441 -44 267 696 0
32 -145 353 697 0
444 191 -408 698 0
-9 333 379 699 0
-479 115 73 700 0
459 458 -395 701 0
51 -439 109 702 0
448 -450 -118 703 0
-227 -161 212 704 0
-236 -365 -368 705 0
-130 313 35 706 0
228 -169 467 707 0
-236 -497 359 708 0
-453 497 -153 709 0
-227 493 206 710 0
187 -273 -121 711 0
-68 -225 -146 712 0
-321 -366 -379 713 0
403 -489 -450 714 0
-497 -208 371 715 0
-457 401 97 716 0
-381 12 -437 717 0
303 480 -181 718 0
324 122 -79 719 0
388 114 -129 720 0
-244 194 226 721 0
-496 199 150 722 0
273 97 434 723 0
404 323 -232 724 0
294 -39 -252 725 0
-355 -53 -467 726 0
140 259 154 727 0
-257 413 266 728 0
-463 334 474 729 0
-424 -432 -337 730 0
-300 -77 291 731 0
-490 78 110 732 0
382 -101 358 733 0
-89 188 -389 734 0
-187 -333 158 735 0
-361 179 -368 736 0
-7 458 -160 737 0
-288 465 348 738 0
182 336 160 739 0
-328 -314 -426 740 0
56 91 -114 741 0
-66 356 -466 742 0
67 -436 468 743 0
2 464 205 744 0
-404 -112 291 745 0
-474 248 184 746 0
172 -491 442 747 0
38 353 -199 748 0
-216 -148 -242 749 0
-194 -440 317 750 0
-240 -193 139 751 0
-291 305 -182 752 0
-177 -480 323 753 0
139 343 109 754 0
121 486 -492 755 0
250 439 -77 756 0
-284 -283 -225 757 0
-42 -440 356 758 0
-306 -276 472 759 0
-259 -120 263 760 0
224 -369 305 761 0
-52 42 -353 762 0
293 -135 389 763 0
-462 66 -32 764 0
-164 225 216 765 0
70 413 -144 766 0
96 -380 -460 767 0
-306 -373 319 768 0
380 422 -90 769 0
239 -329 -291 770 0
222 -152 422 771 0
314 367 -4 772 0
431 174 -453 773 0
-362 -472 134 774 0
23 243 323 775 0
207 -478 278 776 0
-204 -472 53 777 0
112 -8 51 778 0
472 -471 -431 779 0
-255 375 324 780 0
-358 -77 -68 781 0
132 288 13 782 0
196 162 -249 783 0
357 86 282 784 0
488 480 496 785 0
292 -365 154 786 0
290 74 19 787 0
106 358 -104 788 0
-91 -272 -93 789 0
-478 104 -83 790 0
251 -176 351 791 0
414 330 66 792 0
200 -87 -381 793 0
88 393 220 794 0
196 -482 302 795 0
322 486 -400 796 0
319 453 -442 797 0
200 -146 145 798 0
-365 418 169 799 0
84 -25 30 800 0
-152 321 199 801 0
-162 -287 284 802 0
352 348 -98 803 0
-278 -395 469 804 0
386 -7 -298 805 0
146 179 -187 806 0
-321 468 22 807 0
178 440 392 808 0
288 446 227 809 0
-226 -63 55 810 0
-202 -268 -459 811 0
109 -169 -168 812 0
103 -337 -499 813 0
90 -231 65 814 0
-357 260 127 815 0
-391 88 443 816 0
-476 -129 193 817 0
-143 -220 461 818 0
338 -434 195 819 0
-207 -275 -68 820 0
-359 451 -256 821 0
444 -400 -451 822 0
-386 23 -480 823 0
113 -390 244 824 0
-118 210 -209 825 0
414 -54 -469 826 0
477 380 437 827 0
-322 -468 460 828 0
-161 -494 -474 829 0
-265 291 177 830 0
-195 481 57 831 0
135 -351 -391 832 0
-200 268 -280 833 0
-409 -236 119 834 0
143 -25 87 835 0
110 461 -369 836 0
327 485 314 837 0
-269 -236 -415 838 0
-468 -219 444 839 0
303 155 -151 840 0
-130 356 314 841 0
-240 -248 -500 842 0
-469 -308 -109 843 0
369 -135 -394 844 0
-421 46 484 845 0
-370 -210 -290 846 0
451 -20 -290 847 0
417 -455 -142 848 0
330 -439 5 849 0
109 -289 412 850 0
-269 216 375 851 0
197 250 -34 852 0
90 -109 -40 853 0
170 -69 -51 854 0
-373 15 -318 855 0
334 199 -437 856 0
286 29 -46 857 0
204 -395 -423 858 0
145 224 158 859 0
-406 372 155 860 0
-54 -479 -395 861 0
-23 -9 -195 862 0
206 -259 -33 863 0
36 -341 44 864 0
106 485 -458 865 0
-460 168 -233 866 0
234 -289 73 867 0
-290 -246 180 868 0
-460 -418 234 869 0
108 -91 -4 870 0
316 354 419 871 0
484 303 40 872 0
452 389 58 873 0
41 48 475 874 0
456 -96 -160 875 0
-474 -419 -5 876 0
-14 376 -57 877 0
-197 -209 -265 878 0
-417 -364 311 879 0
-316 451 374 880 0
-277 -343 -320 881 0
438 75 41 882 0
170 -392 -277 883 0
379 383 -55 884 0
430 272 -332 885 0
-137 372 -90 886 0
439 283 251 887 0
430 482 242 888 0
-436 119 310 889 0
-28 176 6 890 0
-303 -427 -456 891 0
-396 288 -464 892 0
-246 495 99 893 0
-286 -336 -427 894 0
44 213 379 895 0
146 -463 -370 896 0
-158 -178 -500 897 0
-215 -442 -119 898 0
15 -318 -69 899 0
407 -17 420 900 0
249 -105 124 901 0
121 -482 -209 902 0
-35 440 495 903 0
-337 -68 39 904 0
-184 -346 -461 905 0
487 122 225 906 0
301 149 -141 907 0
-30 331 -207 908 0
-5 173 230 909 0
296 -137 -451 910 0
140 -470 55 911 0
-286 417 -456 912 0
246 251 -418 913 0
-327 437 257 914 0
259 26 304 915 0
194 331 489 916 0
97 -412 462 917 0
34 46 -408 918 0
-353 258 -104 919 0
-267 -293 -58 920 0
-5 -8 158 921 0
-223 36 -391 922 0
-275 293 14 923 0
282 203 -280 924 0
-158 104 -81 925 0
-75 31 110 926 0
-180 45 171 927 0
11 396 -176 928 0
-150 292 436 929 0
-350 80 -124 930 0
341 254 -315 931 0
-332 307 -267 932 0
234 7 -23 933 0
-253 -454 -340 934 0
205 -13 -49 935 0
42 -166 -118 936 0
-380 -26 466 937 0
338 -265 -395 938 0
-382 221 -423 939 0
-92 -130 -193 940 0
-288 -227 -254 941 0
51 -261 157 942 0
235 -252 -70 943 0
-414 -365 102 944 0
-243 51 401 945 0
306 -472 -254 946 0
14 376 13 947 0
249 -175 444 948 0
193 -450 -387 949 0
-325 360 -12 950 0
-122 176 334 951 0
-346 190 -329 952 0
-388 -338 -21 953 0
-352 253 -138 954 0
-279 -128 249 955 0
-404 -380 339 956 0
339 237 55 957 0
194 -237 -459 958 0
-496 -467 -379 959 0
-190 300 370 960 0
256 297 -367 961 0
298 -176 186 962 0
385 -396 431 963 0
-128 -53 -438 964 0
-283 232 -466 965 0
-325 444 405 966 0
356 233 -38 967 0
387 -402 32 968 0
-308 256 -176 969 0
-107 181 473 970 0
-105 436 -23 971 0
-146 267 348 972 0
-480 -106 -484 973 0
158 421 -355 974 0
75 -409 480 975 0
-271 -16 -19 976 0
415 445 323 977 0
6 -408 -192 978 0
15 -62 141 979 0
171 334 382 980 0
-314 -41 -172 981 0
12 -262 -425 982 0
143 316 -223 983 0
484 -239 -354 984 0
-172 348 334 985 0
-396 223 -349 986 0
15 -158 86 987 0
480 -347 109 988 0
305 -283 19 989 0
469 -66 -209 990 0
-82 -427 -237 991 0
-249 339 492 992 0
-149 -373 28 993 0
339 -31 -472 994 0
228 -26 278 995 0
-122 131 314 996 0
22 369 133 997 0
445 379 -118 998 0
411 386 -445 999 0
-304 474 473 1000 0
-308 -91 253 1001 0
246 133 -48 1002 0
-243 25 -183 1003 0
-324 327 -115 1004 0
233 -396 -14 1005 0
-373 305 213 1006 0
-293 431 -139 1007 0
455 430 348 1008 0
143 -456 -22 1009 0
-425 -382 379 1010 0
-444 219 120 1011 0
-405 318 -90 1012 0
163 443 157 1013 0
-269 447 -216 1014 0
66 -326 -483 1015 0
356 334 164 1016 0
-95 -214 373 1017 0
-129 436 -454 1018 0
423 498 -53 1019 0
239 465 -420 1020 0
216 -54 -235 1021 0
460 320 -124 1022 0
-348 -214 -276 1023 0
-172 -246 94 1024 0
-5 -265 -73 1025 0
142 97 -183 1026 0
-325 176 54 1027 0
128 -302 478 1028 0
382 22 440 1029 0
267 -32 112 1030 0
482 -391 470 1031 0
182 372 -294 1032 0
161 93 -207 1033 0
227 -253 405 1034 0
392 -463 39 1035 0
198 483 -209 1036 0
299 -164 431 1037 0
277 294 -341 1038 0
-436 -6 -256 1039 0
63 350 6 1040 0
-222 -287 -436 1041 0
-186 -147 202 1042 0
271 -265 -85 1043 0
355 -167 318 1044 0
-145 146 425 1045 0
153 378 494 1046 0
105 -392 -173 1047 0
181 -492 -42 1048 0
375 -139 77 1049 0
-391 34 -217 1050 0
-76 219 239 1051 0
427 251 -208 1052 0
-231 -275 -460 1053 0
397 255 -390 1054 0
121 -394 145 1055 0
-181 49 249 1056 0
-256 66 -378 1057 0
-483 -17 -120 1058 0
-281 -197 -381 1059 0
-259 -381 -137 1060 0
-41 76 313 1061 0
-161 332 -196 1062 0
203 76 298 1063 0
121 259 234 1064 0
110 -340 -81 1065 0
-269 -120 84 1066 0
-194 -458 201 1067 0
-205 -270 76 1068 0
251 10 386 1069 0
-146 -301 471 1070 0
150 -401 288 1071 0
-194 -259 -360 1072 0
-431 436 -42 1073 0
-389 -342 390 1074 0
333 -467 140 1075 0
384 138 -246 1076 0
272 307 -464 1077 0
-392 142 383 1078 0
-417 480 11 1079 0
368 481 -114 1080 0
74 -243 218 1081 0
-133 -139 -242 1082 0
-101 -374 462 1083 0
244 -258 -335 1084 0
-331 337 -15 1085 0
133 385 -493 1086 0
24 484 -295 1087 0
275 -53 241 1088 0
-395 243 207 1089 0
91 -277 214 1090 0
-9 332 -55 1091 0
493 -390 -404 1092 0
-314 -72 419 1093 0
-300 -420 193 1094 0
458 293 253 1095 0
100 -369 -194 1096 0
-97 453 -44 1097 0
257 373 310 1098 0
-10 -46 288 1099 0
82 288 -23 1100 0
-302 -198 -11 1101 0
162 -218 170 1102 0
-167 484 445 1103 0
-49 192 299 1104 0
-500 -72 147 1105 0
-408 -109 188 1106 0
-408 281 187 1107 0
279 384 -248 1108 0
-383 -456 371 1109 0
128 -465 441 1110 0
300 453 215 1111 0
237 386 444 1112 0
-87 125 312 1113 0
48 123 478 1114 0
253 116 -382 1115 0
-251 241 324 1116 0
-298 -214 -172 1117 0
287 -332 465 1118 0
244 497 100 1119 0
241 -34 89 1120 0
188 -290 -76 1121 0
55 230 244 1122 0
231 -39 -131 1123 0
286 -217 68 1124 0
186 414 164 1125 0
308 -128 47 1126 0
469 238 169 1127 0
-431 260 -453 1128 0
-99 -261 424 1129 0
-494 -183 459 1130 0
-153 442 204 1131 0
-206 180 -88 1132 0
-145 209 -400 1133 0
-262 -460 -221 1134 0
-448 359 364 1135 0
193 427 76 1136 0
288 -174 -368 1137 0
47 333 6 1138 0
-14 -254 -272 1139 0
207 275 -209 1140 0
-67 -312 -228 1141 0
-65 425 53 1142 0
-256 -428 -172 1143 0
156 80 493 1144 0
-267 -176 -231 1145 0
-168 -437 -127 1146 0
373 213 481 1147 0
-54 -209 -112 1148 0
-492 -496 22 1149 0
-84 -485 -229 1150 0
287 392 316 1151 0
-194 325 -372 1152 0
298 206 -299 1153 0
-426 181 245 1154 0
-141 427 -39 1155 0
171 -136 464 1156 0
92 -135 435 1157 0
92 -483 261 1158 0
-77 -26 286 1159 0
-279 210 -204 1160 0
352 196 186 1161 0
-176 107 243 1162 0
-131 -450 -300 1163 0
441 221 391 1164 0
84 -310 -309 1165 0
473 16 259 1166 0
433 -141 -270 1167 0
-369 480 424 1168 0
80 461 -440 1169 0
213 -176 500 1170 0
202 -65 233 1171 0
447 -124 -109 1172 0
-6 -241 -93 1173 0
273 300 -296 1174 0
-453 -157 256 1175 0
293 -412 -393 1176 0
113 196 461 1177 0
-309 41 424 1178 0
131 -469 -411 1179 0
-422 -391 410 1180 0
-461 32 -97 1181 0
205 -65 -385 1182 0
-471 -251 -301 1183 0
292 262 -481 1184 0
278 -415 -264 1185 0
166 -371 23 1186 0
473 -158 326 1187 0
-211 308 -217 1188 0
-112 325 154 1189 0
-209 20 66 1190 0
201 478 16 1191 0
113 -107 -332 1192 0
-302 241 234 1193 0
343 -494 -140 1194 0
35 -75 387 1195 0
-250 -397 -106 1196 0
-123 456 -109 1197 0
207 -54 -408 1198 0
-445 289 335 1199 0
-329 31 -34 1200 0
-150 -62 474 1201 0
369 112 479 1202 0
-45 -39 220 1203 0
-101 -433 -315 1204 0
330 112 -88 1205 0
254 -77 193 1206 0
384 81 181 1207 0
-34 299 227 1208 0
-19 -184 -164 1209 0
-194 369 269 1210 0
379 -144 115 1211 0
-276 494 52 1212 0
-21 -215 112 1213 0
429 141 418 1214 0
-220 -65 -25 1215 0
46 -438 129 1216 0
-160 -471 134 1217 0
463 -20 -428 1218 0
189 -128 172 1219 0
206 -205 -352 1220 0
-315 -335 -378 1221 0
-71 -88 201 1222 0
127 -429 -336 1223 0
-154 -225 -93 1224 0
436 -242 174 1225 0
-435 -461 380 1226 0
283 -391 -227 1227 0
78 -309 -314 1228 0
210 446 489 1229 0
260 -58 254 1230 0
385 227 410 1231 0
-460 174 418 1232 0
46 -44 -49 1233 0
-66 -297 -89 1234 0
418 397 -263 1235 0
428 25 -165 1236 0
-387 -278 189 1237 0
-97 79 483 1238 0
57 -231 -39 1239 0
125 89 424 1240 0
-337 325 -232 1241 0
129 -224 385 1242 0
115 -247 -290 1243 0
31 230 -374 1244 0
134 59 447 1245 0
-234 -239 33 1246 0
-245 -370 170 1247 0
-59 287 -359 1248 0
273 330 440 1249 0
375 359 -444 1250 0
226 380 487 1251 0
-378 -342 210 1252 0
482 188 -489 1253 0
321 401 409 1254 0
-207 362 -368 1255 0
-74 -114 -361 1256 0
389 -373 -186 1257 0
319 142 -81 1258 0
19 -326 -160 1259 0
-178 392 57 1260 0
194 -400 -429 1261 0
290 339 152 1262 0
173 320 462 1263 0
254 420 -166 1264 0
458 337 -411 1265 0
-407 320 221 1266 0
17 80 93 1267 0
124 100 -314 1268 0
378 -421 65 1269 0
-351 468 -175 1270 0
-21 -188 -185 1271 0
-497 132 457 1272 0
-231 370 -246 1273 0
349 191 203 1274 0
-133 43 494 1275 0
-261 101 -276 1276 0
130 -129 -476 1277 0
-29 348 24 1278 0
449 -86 137 1279 0
-186 118 -352 1280 0
185 -90 -279 1281 0
-415 -322 340 1282 0
-117 -275 252 1283 0
-77 -280 -236 1284 0
-442 387 -310 1285 0
473 305 8 1286 0
-224 196 493 1287 0
-176 -167 -146 1288 0
-354 35 483 1289 0
-54 263 301 1290 0
352 -311 16 1291 0
409 488 291 1292 0
452 -89 253 1293 0
-74 500 -82 1294 0
-77 -70 -309 1295 0
110 -303 -191 1296 0
-391 383 -235 1297 0
382 99 -155 1298 0
377 122 139 1299 0
301 165 -305 1300 0
106 286 150 1301 0
-74 -44 -366 1302 0
-155 -228 -375 1303 0
-1 407 464 1304 0
74 -418 -219 1305 0
69 155 403 1306 0
460 -24 177 1307 0
392 -134 -395 1308 0
-191 238 360 1309 0
-485 -306 309 1310 0
440 79 -323 1311 0
90 457 -438 1312 0
242 -102 -86 1313 0
-451 468 -316 1314 0
264 442 -18 1315 0
-319 -457 -73 1316 0
-97 260 -62 1317 0
-458 -198 288 1318 0
-215 -259 -379 1319 0
65 110 -213 1320 0
-222 306 -161 1321 0
-136 39 420 1322 0
197 255 -61 1323 0
490 363 -5 1324 0
271 372 81 1325 0
118 209 -343 1326 0
259 211 455 1327 0
-179 5 -483 1328 0
189 -213 -260 1329 0
274 -207 -100 1330 0
-398 485 -311 1331 0
-53 373 -252 1332 0
96 -268 -271 1333 0
-208 -118 224 1334 0
-204 -390 476 1335 0
495 -433 -126 1336 0
-206 334 499 1337 0
-112 -493 -496 1338 0
60 -403 -363 1339 0
429 -225 -348 1340 0
157 -294 351 1341 0
158 -106 -51 1342 0
-228 -352 251 1343 0
156 127 -407 1344 0
335 322 90 1345 0
122 433 69 1346 0
355 -88 -446 1347 0
-263 138 -160 1348 0
-184 -252 121 1349 0
-458 -291 -27 1350 0
-312 12 292 1351 0
-105 467 104 1352 0
111 -450 57 1353 0
448 -489 -18 1354 0
-227 92 63 1355 0
289 -210 -180 1356 0
163 -240 204 1357 0
-245 86 120 1358 0
-76 -321 -479 1359 0
40 -417 -74 1360 0
-102 -164 -145 1361 0
28 330 -220 1362 0
185 -480 -379 1363 0
-292 -490 86 1364 0
326 293 -494 1365 0
-28 88 437 1366 0
476 29 -35 1367 0
-329 -326 -181 1368 0
-473 310 -370 1369 0
-414 -9 -16 1370 0
361 -33 172 1371 0
79 438 -216 1372 0
-199 -492 366 1373 0
-478 -411 -239 1374 0
256 189 -59 1375 0
-336 463 281 1376 0
63 217 497 1377 0
-419 500 199 1378 0
216 -75 -315 1379 0
-131 -198 -56 1380 0
-1 261 -447 1381 0
-111 216 -138 1382 0
90 -229 108 1383 0
-201 172 1 1384 0
-250 -455 162 1385 0
-206 325 -186 1386 0
203 218 -116 1387 0
54 -96 -194 1388 0
378 -162 279 1389 0
-189 -430 287 1390 0
498 -212 -484 1391 0
164 -169 -132 1392 0
500 487 199 1393 0
-327 475 119 1394 0
-133 -165 288 1395 0
95 -373 -271 1396 0
-143 -490 259 1397 0
264 66 -154 1398 0
9 457 -238 1399 0
255 399 -144 1400 0
264 268 -98 1401 0
-75 212 224 1402 0
380 -14 -390 1403 0
276 -198 -267 1404 0
245 -71 418 1405 0
446 -295 -405 1406 0
-422 -434 177 1407 0
-464 484 18 1408 0
287 -412 -374 1409 0
-340 -188 -465 1410 0
-389 233 -281 1411 0
-114 358 -379 1412 0
390 -369 -129 1413 0
-260 298 21 1414 0
125 -199 -53 1415 0
-197 18 104 1416 0
407 404 -202 1417 0
490 245 173 1418 0
-28 -372 67 1419 0
-432 355 179 1420 0
-390 117 -253 1421 0
71 252 59 1422 0
-209 214 458 1423 0
-280 -328 265 1424 0
-459 -380 -410 1425 0
-337 -437 -347 1426 0
-409 267 -358 1427 0
428 71 322 1428 0
393 74 -13 1429 0
-93 50 -264 1430 0
-91 364 -74 1431 0
-269 180 204 1432 0
-414 55 -468 1433 0
77 138 -113 1434 0
300 296 257 1435 0
365 -448 -164 1436 0
-231 -409 -78 1437 0
-253 494 -308 1438 0
-355 -469 497 1439 0
333 302 167 1440 0
11 -405 -328 1441 0
-139 -298 -219 1442 0
13 -16 308 1443 0
106 301 -209 1444 0
130 86 -134 1445 0
-125 467 -84 1446 0
57 344 -350 1447 0
311 -73 -196 1448 0
-288 402 -46 1449 0
-357 -71 -444 1450 0
343 -199 64 1451 0
293 327 54 1452 0
-387 -407 -281 1453 0
469 447 -419 1454 0
-419 -9 -420 1455 0
-442 -364 -150 1456 0
-211 -118 -161 1457 0
271 -220 -55 1458 0
290 -448 364 1459 0
-95 71 130 1460 0
284 -84 298 1461 0
-387 206 -74 1462 0
-141 361 -164 1463 0
436 267 -133 1464 0
140 128 459 1465 0
-336 -182 306 1466 0
365 53 312 1467 0
219 461 -294 1468 0
-293 -318 -50 1469 0
-159 -272 -76 1470 0
481 -168 330 1471 0
-309 146 487 1472 0
3 -179 410 1473 0
-454 -67 291 1474 0
-134 -219 -408 1475 0
26 68 319 1476 0
-296 249 -242 1477 0
-121 98 -207 1478 0
473 206 -71 1479 0
-391 98 491 1480 0
298 -498 -59 1481 0
-166 -54 6 1482 0
123 198 71 1483 0
-51 282 -350 1484 0
-390 -134 365 1485 0
-148 -225 165 1486 0
-101 343 492 1487 0
-235 -6 127 1488 0
-160 -152 269 1489 0
-86 -41 399 1490 0
257 -441 192 1491 0
452 472 394 1492 0
-125 391 496 1493 0
-281 -211 138 1494 0
367 -129 -361 1495 0
268 -88 -141 1496 0
-221 -434 -295 1497 0
-152 -10 13 1498 0
-391 484 -74 1499 0
79 362 149 1500 0
-494 276 -480 1501 0
-432 242 -415 1502 0
-398 148 -424 1503 0
315 283 476 1504 0
453 -82 346 1505 0
62 459 -136 1506 0
375 -459 -80 1507 0
326 128 -178 1508 0
75 -66 -64 1509 0
226 335 -184 1510 0
-339 347 -33 1511 0
287 446 -256 1512 0
-464 -9 -10 1513 0
476 365 -427 1514 0
-388 343 203 1515 0
73 100 98 1516 0
333 -353 -108 1517 0
-152 41 168 1518 0
-241 -500 -188 1519 0
31 5 116 1520 0
-60 262 288 1521 0
184 -341 -356 1522 0
-490 175 58 1523 0
-177 -124 141 1524 0
374 -388 -489 1525 0
-33 -150 -228 1526 0
143 -216 -494 1527 0
497 400 -363 1528 0
116 -12 -350 1529 0
25 40 -474 1530 0
-499 225 -233 1531 0
-452 -328 18 1532 0
206 -380 133 1533 0
-170 -179 365 1534 0
-186 147 -88 1535 0
142 -498 263 1536 0
15 2 -342 1537 0
84 393 337 1538 0
229 -224 -131 1539 0
322 -98 461 1540 0
134 -290 434 1541 0
337 -469 -62 1542 0
80 167 232 1543 0
258 -382 152 1544 0
-431 -184 268 1545 0
-242 -448 -264 1546 0
328 -409 273 1547 0
264 -453 -107 1548 0
-282 -482 380 1549 0
-249 405 -157 1550 0
-108 80 -124 1551 0
-22 262 376 1552 0
55 -51 -76 1553 0
-193 198 268 1554 0
-384 326 142 1555 0
393 195 146 1556 0
-315 -83 -439 1557 0
469 -398 -78 1558 0
277 123 43 1559 0
-67 338 -204 1560 0
-262 -362 -195 1561 0
-164 -343 -62 1562 0
-500 -456 -146 1563 0
-469 237 20 1564 0
450 326 274 1565 0
-445 -78 130 1566 0
303 220 41 1567 0
-255 134 428 1568 0
-114 213 36 1569 0
-73 -449 -307 1570 0
167 -115 -273 1571 0
-72 -473 184 1572 0
-147 -442 210 1573 0
155 87 130 1574 0
96 418 72 1575 0
-158 -26 235 1576 0
180 -204 -104 1577 0
466 -421 26 1578 0
-146 121 -255 1579 0
75 482 -287 1580 0
-151 -327 -198 1581 0
-292 -18 -165 1582 0
-340 492 -386 1583 0
102 373 -152 1584 0
396 -134 -256 1585 0
-239 328 300 1586 0
-493 496 275 1587 0
-19 463 -377 1588 0
-382 496 119 1589 0
-356 219 -329 1590 0
-496 371 164 1591 0
-212 36 -421 1592 0
433 -111 200 1593 0
288 371 491 1594 0
243 -311 54 1595 0
-217 451 46 1596 0
-282 -383 -440 1597 0
250 -366 -412 1598 0
327 -371 -181 1599 0
107 190 -444 1600 0
470 -300 434 1601 0
-285 20 129 1602 0
139 305 266 1603 0
-365 -68 495 1604 0
-147 -28 -167 1605 0
-467 361 -493 1606 0
-30 -478 -93 1607 0
-443 -107 -161 1608 0
-315 -380 -43 1609 0
-23 -64 -438 1610 0
69 -337 -236 1611 0
-112 -175 23 1612 0
-147 495 212 1613 0
254 326 -52 1614 0
-89 -152 20 1615 0
-284 -128 -267 1616 0
-466 42 -11 1617 0
201 -470 -332 1618 0
-216 -223 487 1619 0
-154 -198 -27 1620 0
294 -25 -19 1621 0
-429 376 -31 1622 0
-113 -355 -311 1623 0
372 -38 -176 1624 0
484 -271 123 1625 0
402 -187 436 1626 0
340 232 -82 1627 0
238 -453 -309 1628 0
-158 454 386 1629 0
134 276 -488 1630 0
-271 -350 -393 1631 0
446 -59 -112 1632 0
57 420 -447 1633 0
-303 -48 -460 1634 0
-334 -370 -77 1635 0
-125 492 216 1636 0
-93 -469 -493 1637 0
486 -309 237 1638 0
-450 39 485 1639 0
-125 244 -109 1640 0
377 -40 -200 1641 0
-484 414 280 1642 0
-58 -48 -55 1643 0
-157 -215 371 1644 0
205 342 -452 1645 0
-403 473 -57 1646 0
352 265 -317 1647 0
311 -329 39 1648 0
127 -318 -116 1649 0
-392 211 64 1650 0
158 422 -28 1651 0
-18 -468 363 1652 0
99 -218 14 1653 0
44 -137 -355 1654 0
-276 -113 373 1655 0
-1 -173 83 1656 0
375 -116 -351 1657 0
-71 212 1 1658 0
-416 54 -46 1659 0
-237 87 162 1660 0
25 -224 -214 1661 0
98 428 269 1662 0
-80 147 -257 1663 0
-481 -56 400 1664 0
495 -411 -204 1665 0
430 -231 466 1666 0
457 -310 -294 1667 0
427 -422 -475 1668 0
247 164 -26 1669 0
-4 -47 -201 1670 0
52 -126 148 1671 0
293 -35 131 1672 0
176 -64 -196 1673 0
-422 218 11 1674 0
-198 -82 -418 1675 0
-403 -336 236 1676 0
279 -268 -328 1677 0
40 -43 -333 1678 0
282 -384 -319 1679 0
-29 -129 -195 1680 0
-484 -119 -107 1681 0
85 -87 112 1682 0
109 349 -133 1683 0
-229 86 12 1684 0
375 38 -105 1685 0
75 411 -109 1686 0
-186 -437 167 1687 0
156 -70 -429 1688 0
112 -166 -291 1689 0
6 -155 36 1690 0
-158 -180 366 1691 0
9 368 -362 1692 0
103 -8 102 1693 0
27 -25 358 1694 0
-197 239 144 1695 0
130 375 -11 1696 0
-214 475 387 1697 0
391 304 311 1698 0
-301 -367 173 1699 0
-214 -48 -296 1700 0
-32 -17 -326 1701 0
-40 190 152 1702 0
406 442 230 1703 0
226 90 42 1704 0
462 444 254 1705 0
259 280 -315 1706 0
-323 122 388 1707 0
-212 203 -110 1708 0
-123 463 46 1709 0
7 -443 94 1710 0
395 -465 340 1711 0
92 -155 -141 1712 0
-62 -192 444 1713 0
438 -2 150 1714 0
-54 -132 467 1715 0
-352 72 -149 1716 0
-319 -240 410 1717 0
-33 21 82 1718 0
-71 -411 36 1719 0
307 -489 -15 1720 0
276 -487 -41 1721 0
-211 -177 6 1722 0
-376 171 -366 1723 0
-439 228 -306 1724 0
-191 136 400 1725 0
192 56 -208 1726 0
348 -254 151 1727 0
163 121 -191 1728 0
-375 -112 -184 1729 0
-463 -357 451 1730 0
-40 -411 188 1731 0
487 344 84 1732 0
192 377 357 1733 0
-247 457 -71 1734 0
327 300 214 1735 0
-387 81 -326 1736 0
-214 -406 292 1737 0
224 -401 132 1738 0
148 -265 226 1739 0
99 184 263 1740 0
74 101 7 1741 0
-313 -15 455 1742 0
-79 180 -369 1743 0
-432 64 -482 1744 0
-6 216 290 1745 0
-282 -5 -253 1746 0
391 46 171 1747 0
-35 -77 463 1748 0
-9 230 226 1749 0
-398 -101 156 1750 0
-445 292 -367 1751 0
-404 172 -448 1752 0
499 -271 -13 1753 0
-333 -232 -416 1754 0
28 -204 -253 1755 0
-309 183 220 1756 0
-43 -328 86 1757 0
395 252 -195 1758 0
-259 -254 362 1759 0
-381 -415 296 1760 0
-94 292 -216 1761 0
-30 -329 -462 1762 0
253 172 -183 1763 0
-245 420 -446 1764 0
-330 -333 386 1765 0
114 128 -174 1766 0
-334 463 -332 1767 0
-224 -304 318 1768 0
146 399 422 1769 0
-400 -67 165 1770 0
-188 -445 123 1771 0
-305 -349 380 1772 0
-296 -82 273 1773 0
-173 -405 -406 1774 0
-119 -178 338 1775 0
-425 -20 -315 1776 0
-108 232 397 1777 0
183 -335 91 1778 0
-469 -199 476 1779 0
-341 95 90 1780 0
-422 -417 486 1781 0
-132 -492 203 1782 0
-208 -46 213 1783 0
-406 -163 -81 1784 0
181 337 -45 1785 0
428 -18 358 1786 0
437 35 299 1787 0
139 -434 86 1788 0
-181 -402 -435 1789 0
86 -101 304 1790 0
385 -216 186 1791 0
-359 382 -306 1792 0
-287 309 302 1793 0
-123 129 -267 1794 0
14 -72 -66 1795 0
428 452 -366 1796 0
183 408 22 1797 0
282 335 70 1798 0
196 -2 77 1799 0
-481 -405 -389 1800 0
187 383 -248 1801 0
-390 120 -432 1802 0
-490 325 296 1803 0
330 38 335 1804 0
73 373 -481 1805 0
100 58 -455 1806 0
-53 23 372 1807 0
102 -243 328 1808 0
-493 -360 349 1809 0
-308 187 409 1810 0
460 -432 -406 1811 0
388 -495 -214 1812 0
-160 -394 -430 1813 0
172 199 -290 1814 0
-465 -140 59 1815 0
303 249 7 1816 0
-347 -302 376 1817 0
177 274 -297 1818 0
227 -299 91 1819 0
310 291 -312 1820 0
-386 -479 468 1821 0
-191 -439 -225 1822 0
407 -491 414 1823 0
-272 491 -165 1824 0
438 28 -163 1825 0
-260 215 -474 1826 0
-77 -140 474 1827 0
416 104 -108 1828 0
-24 18 215 1829 0
277 -372 23 1830 0
-356 -208 -476 1831 0
458 -378 -223 1832 0
101 -251 -461 1833 0
-377 76 -214 1834 0
184 351 336 1835 0
272 213 -45 1836 0
-476 -34 -382 1837 0
104 126 -291 1838 0
232 -31 444 1839 0
-92 95 332 1840 0
414 439 -317 1841 0
366 89 -219 1842 0
-316 461 -53 1843 0
-288 -324 -374 1844 0
362 -318 -321 1845 0
315 484 -371 1846 0
389 63 283 1847 0
320 -90 -150 1848 0
-278 499 39 1849 0
398 -55 415 1850 0
260 -22 107 1851 0
-167 -384 -87 1852 0
-59 174 -200 1853 0
400 -295 -399 1854 0
-207 488 192 1855 0
-177 -335 282 1856 0
416 -493 -130 1857 0
140 106 -222 1858 0
379 -67 464 1859 0
149 7 -202 1860 0
-479 -214 -230 1861 0
11 46 444 1862 0
139 -484 -53 1863 0
226 -288 499 1864 0
273 116 447 1865 0
-300 -55 35 1866 0
-293 393 -162 1867 0
239 -90 -192 1868 0
172 252 -106 1869 0
-296 -404 496 1870 0
-300 224 -400 1871 0
363 -295 126 1872 0
494 109 -337 1873 0
373 372 -238 1874 0
437 -354 63 1875 0
-420 487 470 1876 0
-262 -440 340 1877 0
404 -419 303 1878 0
81 155 -106 1879 0
263 483 394 1880 0
-206 -382 -302 1881 0
-408 -143 378 1882 0
195 -446 326 1883 0
-281 455 376 1884 0
-128 -388 -29 1885 0
-144 -184 473 1886 0
-188 224 -294 1887 0
397 -497 188 1888 0
24 368 -357 1889 0
318 -383 -426 1890 0
-114 109 -132 1891 0
-176 334 -433 1892 0
442 247 252 1893 0
414 -267 -329 1894 0
-460 468 -274 1895 0
-379 479 137 1896 0
109 154 -44 1897 0
-467 434 274 1898 0
171 -215 471 1899 0
-451 -250 374 1900 0
-142 -99 3 1901 0
129 190 -405 1902 0
407 327 307 1903 0
124 407 -67 1904 0
-347 418 435 1905 0
440 -464 -75 1906 0
357 -98 -358 1907 0
-124 123 -80 1908 0
-15 99 -252 1909 0
-19 38 -496 1910 0
186 279 95 1911 0
357 -462 233 1912 0
-54 -374 -130 1913 0
253 -140 210 1914 0
-443 -69 -406 1915 0
258 285 -2 1916 0
-418 -366 104 1917 0
-91 312 -33 1918 0
-163 39 -383 1919 0
-390 -140 164 1920 0
-491 391 -168 1921 0
105 12 -96 1922 0
182 -16 299 1923 0
333 109 23 1924 0
-417 -100 -389 1925 0
325 66 -46 1926 0
151 156 383 1927 0
100 26 400 1928 0
-293 -442 76 1929 0
19 -167 24 1930 0
51 -190 176 1931 0
-55 -339 474 1932 0
334 488 13 1933 0
107 71 -103 1934 0
-224 -412 -231 1935 0
-161 -388 294 1936 0
64 -341 -195 1937 0
-430 440 358 1938 0
-399 -282 -355 1939 0
463 -326 4 1940 0
-342 483 228 1941 0
320 286 334 1942 0
-193 91 480 1943 0
-432 430 212 1944 0
42 -391 169 1945 0
-458 -238 174 1946 0
317 21 -449 1947 0
-356 386 -203 1948 0
-271 414 487 1949 0
220 55 -466 1950 0
-208 -430 -67 1951 0
30 -260 364 1952 0
-91 -108 -198 1953 0
-263 366 -374 1954 0
222 47 -240 1955 0
407 179 -420 1956 0
128 -457 265 1957 0
422 341 371 1958 0
248 -330 -240 1959 0
-359 469 260 1960 0
36 206 -98 1961 0
207 56 97 1962 0
123 -131 418 1963 0
-4 324 -218 1964 0
-376 40 102 1965 0
-277 -351 -168 1966 0
364 -198 -174 1967 0
215 -463 -78 1968 0
232 -65 -342 1969 0
6 -462 -446 1970 0
307 -228 388 1971 0
-390 119 334 1972 0
-470 -7 234 1973 0
-319 97 -109 1974 0
-449 -70 325 1975 0
-147 129 -24 1976 0
5 223 -118 1977 0
-420 188 -215 1978 0
361 137 334 1979 0
-60 -419 -269 1980 0
-387 105 391 1981 0
288 74 -389 1982 0
-209 131 382 1983 0
-386 -465 310 1984 0
472 358 435 1985 0
69 -350 94 1986 0
-271 -9 367 1987 0
436 -104 472 1988 0
204 -388 322 1989 0
-441 -445 143 1990 0
335 -380 -478 1991 0
-205 -409 490 1992 0
-242 307 291 1993 0
488 -83 -312 1994 0
-332 -331 158 1995 0
-240 -393 247 1996 0
-411 244 -326 1997 0
-227 -263 -81 1998 0
24 104 453 1999 0
-82 -226 271 2000 0
-113 483 -94 2001 0
-95 -283 -359 2002 0
-482 -153 -73 2003 0
-275 234 -439 2004 0
471 -313 -426 2005 0
109 -353 -121 2006 0
376 65 134 2007 0
44 -386 1 2008 0
59 235 418 2009 0
-169 -286 -107 2010 0
352 -364 -461 2011 0
383 -73 -63 2012 0
-495 474 -414 2013 0
-226 268 390 2014 0
196 -412 -345 2015 0
11 -254 395 2016 0
-308 81 498 2017 0
280 -188 272 2018 0
-318 -29 419 2019 0
169 222 456 2020 0
-149 -383 -43 2021 0
-88 216 -89 2022 0
-473 -326 -9 2023 0
326 -477 281 2024 0
10 -265 352 2025 0
-135 241 -110 2026 0
-121 499 320 2027 0
-53 1 436 2028 0
92 499 -449 2029 0
-289 -293 -58 2030 0
-439 354 -247 2031 0
-326 105 466 2032 0
-370 -107 285 2033 0
116 30 -400 2034 0
304 -276 95 2035 0
-71 397 205 2036 0
235 457 -135 2037 0
-88 -229 352 2038 0
-146 -258 249 2039 0
261 466 201 2040 0
335 443 139 2041 0
202 -103 -416 2042 0
272 370 231 2043 0
480 -348 -397 2044 0
-169 -430 -408 2045 0
497 -470 -48 2046 0
253 6 324 2047 0
-229 416 339 2048 0
372 54 85 2049 0
216 -452 -241 2050 0
-348 423 353 2051 0
-126 -275 -300 2052 0
-283 85 179 2053 0
281 -375 -330 2054 0
112 -217 308 2055 0
-154 -174 99 2056 0
-148 495 -251 2057 0
319 -29 -299 2058 0
-133 -397 285 2059 0
312 170 -115 2060 0
-431 -198 97 2061 0
-176 27 64 2062 0
-268 202 135 2063 0
-80 405 432 2064 0
-43 -104 -281 2065 0
-261 309 -338 2066 0
-276 -348 -79 2067 0
-74 19 -214 2068 0
493 -96 -348 2069 0
51 -343 237 2070 0
247 236 -484 2071 0
-357 -73 -199 2072 0
149 -464 65 2073 0
-349 21 -270 2074 0
-238 22 128 2075 0
349 395 -369 2076 0
400 -204 -57 2077 0
-260 -453 462 2078 0
-335 -120 -238 2079 0
-391 -417 57 2080 0
-228 352 -260 2081 0
71 -263 300 2082 0
133 301 -465 2083 0
376 118 -57 2084 0
-125 331 -158 2085 0
256 392 -298 2086 0
404 203 69 2087 0
-328 433 -34 2088 0
42 -323 -273 2089 0
-248 -183 -165 2090 0
385 140 90 2091 0
244 47 180 2092 0
296 193 -155 2093 0
-124 -425 -458 2094 0
121 -272 -434 2095 0
-77 251 -399 2096 0
196 221 -11 2097 0
451 386 161 2098 0
-451 -98 224 2099 0
143 -463 -63 2100 0
-45 13 309 2101 0
169 -339 8 2102 0
401 391 -81 2103 0
411 -88 -114 2104 0
-246 -105 -168 2105 0
-304 179 -329 2106 0
-134 -46 298 2107 0
-331 455 -23 2108 0
171 162 256 2109 0
203 466 -299 2110 0
-329 245 406 2111 0
167 89 449 2112 0
197 -105 161 2113 0
-151 242 -88 2114 0
56 174 -435 2115 0
-159 450 38 2116 0
457 -390 -493 2117 0
190 131 -118 2118 0
-94 -426 -469 2119 0
260 -154 23 2120 0
-65 -188 336 2121 0
-436 353 491 2122 0
442 -51 -102 2123 0
132 -283 -268 2124 0
-301 52 -68 2125 0
-259 402 349 2126 0
-44 -245 287 2127 0
-440 -11 -222 2128 0
-263 -209 95 2129 0
-410 460 205 2130 0
-274 -270 -205 2131 0
-356 -481 -396 2132 0
382 294 288 2133 0
375 243 223 2134 0
69 332 -392 2135 0
-397 34 -99 2136 0
418 -23 -312 2137 0
-325 2 310 2138 0
92 -151 -495 2139 0
-130 363 -288 2140 0
39 208 -101 2141 0
-325 -407 226 2142 0
177 371 -168 2143 0
-421 -337 56 2144 0
122 443 281 2145 0
-5 167 -147 2146 0
86 -199 296 2147 0
-329 247 104 2148 0
333 194 405 2149 0
391 466 64 2150 0
-192 -467 -307 2151 0
493 56 -145 2152 0
209 268 -270 2153 0
150 57 -143 2154 0
336 341 479 2155 0
404 104 -288 2156 0
-6 -151 -354 2157 0
-179 -402 190 2158 0
-320 46 467 2159 0
374 -292 -293 2160 0
-327 383 -174 2161 0
475 184 -388 2162 0
112 97 -285 2163 0
-377 -232 -66 2164 0
333 -490 419 2165 0
228 -69 420 2166 0
35 38 328 2167 0
-236 -10 471 2168 0
376 63 -156 2169 0
162 143 404 2170 0
198 240 86 2171 0
101 -354 188 2172 0
-173 -315 -269 2173 0
-439 -81 -312 2174 0
372 162 480 2175 0
-222 -385 -468 2176 0
-151 -493 -491 2177 0
-185 118 485 2178 0
307 263 382 2179 0
-127 -380 -180 2180 0
-253 116 256 2181 0
227 -75 -458 2182 0
-216 420 160 2183 0
115 242 -389 2184 0
131 -188 377 2185 0
-238 -109 170 2186 0
11 -26 242 2187 0
-355 -158 132 2188 0
-101 154 29 2189 0
-54 -239 14 2190 0
-210 495 -182 2191 0
489 142 -235 2192 0
-391 -402 107 2193 0
2 66 38 2194 0
-84 -315 -276 2195 0
451 -411 -397 2196 0
412 -185 70 2197 0
358 -191 399 2198 0
14 114 249 2199 0
-39 -47 6 2200 0
350 472 -68 2201 0
-358 -246 151 2202 0
158 -208 -133 2203 0
-284 -91 222 2204 0
469 -186 162 2205 0
-148 -354 332 2206 0
-467 23 355 2207 0
348 -146 -117 2208 0
-202 261 139 2209 0
-35 304 -242 2210 0
-334 -123 61 2211 0
-107 154 53 2212 0
-186 62 -404 2213 0
-362 -117 453 2214 0
-372 -195 271 2215 0
-305 -48 465 2216 0
152 -327 -270 2217 0
304 461 -242 2218 0
-295 -15 154 2219 0
60 69 372 2220 0
215 -250 -258 2221 0
427 322 -124 2222 0
38 285 -470 2223 0
-323 -376 -182 2224 0
34 -101 -408 2225 0
-116 102 -488 2226 0
-26 -99 -61 2227 0
221 353 -188 2228 0
-237 -284 406 2229 0
425 245 -458 2230 0
448 -83 -59 2231 0
-357 129 -322 2232 0
-100 37 83 2233 0
-350 268 -325 2234 0
85 208 -478 2235 0
463 -377 136 2236 0
-358 223 448 2237 0
-98 -268 40 2238 0
-493 -207 98 2239 0
324 417 -360 2240 0
288 -384 -74 2241 0
-331 441 -282 2242 0
-249 239 -300 2243 0
331 482 -211 2244 0
250 199 34 2245 0
-78 124 -437 2246 0
-92 20 -118 2247 0
-173 -5 -20 2248 0
412 -120 461 2249 0
-410 -491 232 2250 0
-428 -260 481 2251 0
383 489 147 2252 0
367 -348 34 2253 0
-487 -244 386 2254 0
-59 28 -199 2255 0
259 149 447 2256 0
-428 181 -358 2257 0
-124 215 231 2258 0
359 210 66 2259 0
450 -363 -141 2260 0
-14 -240 291 2261 0
-416 490 -146 2262 0
-110 106 -442 2263 0
-400 111 226 2264 0
-232 -156 -431 2265 0
480 86 -223 2266 0
144 -4 -127 2267 0
311 83 244 2268 0
-242 -326 40 2269 0
310 447 -358 2270 0
288 360 -464 2271 0
-358 42 -9 2272 0
-495 118 334 2273 0
-417 -426 419 2274 0
189 378 126 2275 0
316 -260 364 2276 0
86 275 -62 2277 0
274 490 497 2278 0
-253 424 125 2279 0
164 -229 393 2280 0
-119 237 217 2281 0
50 158 113 2282 0
70 -372 -475 2283 0
28 -498 366 2284 0
450 106 -453 2285 0
-234 328 -320 2286 0
250 434 346 2287 0
302 -187 304 2288 0
-87 73 375 2289 0
189 -290 318 2290 0
104 -235 18 2291 0
64 -368 60 2292 0
305 -287 170 2293 0
-193 -117 -2 2294 0
400 -244 255 2295 0
207 -4 92 2296 0
359 -219 306 2297 0
-365 421 311 2298 0
289 481 263 2299 0
-20 199 -47 2300 0
11 319 -260 2301 0
-118 -156 426 2302 0
-239 201 331 2303 0
334 461 -373 2304 0
99 247 -138 2305 0
-340 143 -262 2306 0
-41 127 458 2307 0
-101 495 -287 2308 0
175 376 -444 2309 0
-29 -376 -184 2310 0
-307 202 271 2311 0
474 -48 -96 2312 0
-466 88 -305 2313 0
-252 -141 383 2314 0
192 426 16 2315 0
110 -388 -189 2316 0
462 443 -367 2317 0
-5 465 22 2318 0
366 -109 283 2319 0
-206 47 -366 2320 0
-144 -208 393 2321 0
248 131 -324 2322 0
-274 -400 34 2323 0
-354 39 -236 2324 0
-38 -438 386 2325 0
-33 -52 244 2326 0
-279 351 373 2327 0
186 -81 399 2328 0
195 -336 -258 2329 0
-400 -335 272 2330 0
-197 -407 442 2331 0
156 -381 398 2332 0
-148 159 -269 2333 0
-169 325 -473 2334 0
-98 -395 371 2335 0
405 350 -22 2336 0
109 433 53 2337 0
-351 100 88 2338 0
-130 161 -439 2339 0
-453 -60 -144 2340 0
-397 -392 -137 2341 0
-398 409 124 2342 0
323 291 -64 2343 0
-359 -91 488 2344 0
81 19 145 2345 0
-477 63 15 2346 0
298 -308 -132 2347 0
-486 -337 63 2348 0
-481 -475 156 2349 0
143 -153 -114 2350 0
324 -127 -489 2351 0
306 -439 498 2352 0
-400 171 -19 2353 0
-335 324 -173 2354 0
358 -208 84 2355 0
-270 -83 303 2356 0
-122 177 52 2357 0
66 106 -417 2358 0
-234 -7 404 2359 0
427 281 156 2360 0
-86 -121 -373 2361 0
328 106 -157 2362 0
-103 -64 105 2363 0
139 51 -235 2364 0
189 -333 295 2365 0
81 408 -320 2366 0
443 365 -66 2367 0
-163 206 -25 2368 0
-382 -188 379 2369 0
30 -283 140 2370 0
327 -396 34 2371 0
-42 387 478 2372 0
-15 244 276 2373 0
-323 -363 -161 2374 0
426 275 -39 2375 0
-124 -128 82 2376 0
-488 -293 53 2377 0
249 -47 104 2378 0
-421 -355 411 2379 0
-344 471 208 2380 0
85 204 -191 2381 0
-234 448 -27 2382 0
267 110 -338 2383 0
270 -398 314 2384 0
72 -366 432 2385 0
-356 -481 -443 2386 0
-160 102 -246 2387 0
18 261 20 2388 0
307 -411 -243 2389 0
-482 134 173 2390 0
-163 25 407 2391 0
-480 400 -128 2392 0
-249 -396 217 2393 0
346 296 -20 2394 0
394 -312 483 2395 0
191 210 -356 2396 0
137 260 213 2397 0
-83 107 -19 2398 0
323 486 96 2399 0
244 -334 -40 2400 0
45 60 280 2401 0
350 -180 -379 2402 0
-357 418 480 2403 0
-122 295 398 2404 0
-259 -255 294 2405 0
37 -12 -465 2406 0
-238 434 -224 2407 0
408 -121 493 2408 0
139 355 -445 2409 0
265 470 -5 2410 0
495 -45 -75 2411 0
-376 -421 369 2412 0
152 273 -127 2413 0
9 -188 -366 2414 0
-412 71 -486 2415 0
-390 451 239 2416 0
-367 473 88 2417 0
-449 434 122 2418 0
254 440 -61 2419 0
-251 -100 -52 2420 0
-146 157 -421 2421 0
-143 -223 -39 2422 0
-426 87 245 2423 0
492 -204 -191 2424 0
38 426 377 2425 0
76 132 -145 2426 0
-435 284 342 2427 0
36 -211 201 2428 0
135 -481 472 2429 0
-380 118 405 2430 0
130 45 143 2431 0
-36 50 -325 2432 0
474 -71 289 2433 0
113 489 -265 2434 0
-344 406 -138 2435 0
-493 -34 -469 2436 0
-66 -325 337 2437 0
-81 -38 134 2438 0
-91 -226 103 2439 0
450 53 407 2440 0
-351 -332 79 2441 0
-400 470 436 2442 0
-464 455 -471 2443 0
238 -370 -498 2444 0
453 115 -153 2445 0
72 411 -143 2446 0
-119 390 -385 2447 0
-60 -337 -335 2448 0
-335 -410 481 2449 0
-373 6 395 2450 0
-92 -18 -346 2451 0
-467 -313 336 2452 0
269 -423 197 2453 0
-288 218 19 2454 0
-251 108 -328 2455 0
135 258 -387 2456 0
325 264 62 2457 0
210 284 174 2458 0
-245 308 -110 2459 0
-379 -337 367 2460 0
-83 87 193 2461 0
-83 -119 -449 2462 0
62 51 -138 2463 0
28 -113 16 2464 0
-437 -375 95 2465 0
-237 343 -156 2466 0
-264 399 10 2467 0
-117 159 -92 2468 0
-323 182 192 2469 0
279 -20 107 2470 0
-356 -383 346 2471 0
-286 71 -38 2472 0
-127 259 -142 2473 0
-362 485 -433 2474 0
-413 55 -151 2475 0
71 76 -13 2476 0
-273 181 261 2477 0
279 -452 108 2478 0
-304 -294 -172 2479 0
379 124 -389 2480 0
73 415 496 2481 0
-349 283 253 2482 0
338 -207 -184 2483 0
194 -406 -240 2484 0
474 172 142 2485 0
-200 -89 -148 2486 0
52 241 406 2487 0
355 184 -208 2488 0
272 -402 -172 2489 0
403 -464 482 2490 0
187 424 167 2491 0
205 44 249 2492 0
162 274 456 2493 0
338 -189 -116 2494 0
-125 323 119 2495 0
462 262 -2 2496 0
139 62 -271 2497 0
-64 351 442 2498 0
-120 150 457 2499 0
-203 -321 -357 2500 0
301 -23 -37 2501 0
-305 153 -294 2502 0
478 239 101 2503 0
-123 362 319 2504 0
-157 296 -329 2505 0
106 174 335 2506 0
-452 60 142 2507 0
354 132 -341 2508 0
-431 367 398 2509 0
279 -276 400 2510 0
-320 361 -191 2511 0
-118 -342 335 2512 0
467 -32 -472 2513 0
-219 246 446 2514 0
-217 -49 411 2515 0
-119 -413 -321 2516 0
-224 415 157 2517 0
-373 -112 114 2518 0
-196 312 476 2519 0
-241 133 -374 2520 0
-127 -379 157 2521 0
-277 -200 246 2522 0
-309 -322 398 2523 0
221 308 -172 2524 0
163 471 -464 2525 0
165 408 -46 2526 0
-374 -314 207 2527 0
-113 -187 -362 2528 0
-354 447 317 2529 0
179 -344 269 2530 0
-117 -16 20 2531 0
-265 351 256 2532 0
-300 -8 -160 2533 0
-270 -275 295 2534 0
112 432 63 2535 0
434 46 -314 2536 0
-60 -459 22 2537 0
-158 -178 -130 2538 0
312 -161 137 2539 0
74 -138 -183 2540 0
14 95 -335 2541 0
153 457 -17 2542 0
381 -169 52 2543 0
410 250 47 2544 0
-137 -39 -199 2545 0
-268 -425 260 2546 0
310 218 -412 2547 0
-218 -47 -45 2548 0
179 -326 19 2549 0
94 -31 -414 2550 0
399 -345 72 2551 0
495 93 458 2552 0
311 -43 -439 2553 0
-2 377 -419 2554 0
-449 485 163 2555 0
-448 -69 -31 2556 0
353 388 -206 2557 0
-485 -401 218 2558 0
-286 31 36 2559 0
-50 -235 -296 2560 0
-415 291 18 2561 0
92 -477 -449 2562 0
-205 373 -425 2563 0
454 -419 328 2564 0
99 -371 363 2565 0
-162 339 -258 2566 0
-98 -253 -4 2567 0
-464 492 377 2568 0
-283 327 245 2569 0
19 -173 284 2570 0
281 -81 -387 2571 0
120 326 459 2572 0
96 226 371 2573 0
-128 370 -84 2574 0
43 -194 -235 2575 0
-482 -392 -224 2576 0
-286 457 -263 2577 0
-125 -329 11 2578 0
102 58 34 2579 0
359 -149 -175 2580 0
-249 452 103 2581 0
250 -289 473 2582 0
158 84 255 2583 0
137 -71 -483 2584 0
-325 -470 -136 2585 0
483 337 -436 2586 0
450 -215 209 2587 0
446 -68 -13 2588 0
182 -231 -486 2589 0
-103 -127 -423 2590 0
441 310 -50 2591 0
-191 -371 377 2592 0
311 -438 135 2593 0
-253 -19 -313 2594 0
-421 339 -72 2595 0
-430 -346 -497 2596 0
434 15 -8 2597 0
-230 -368 -122 2598 0
312 287 8 2599 0
22 -142 262 2600 0
-16 73 -120 2601 0
463 -427 -143 2602 0
9 -455 66 2603 0
94 -453 133 2604 0
52 -362 -391 2605 0
-143 -198 -53 2606 0
-182 -192 -432 2607 0
148 -69 -255 2608 0
227 358 124 2609 0
-414 199 -212 2610 0
168 -41 -269 2611 0
242 13 198 2612 0
-486 83 -285 2613 0
-14 -263 -69 2614 0
-160 -227 -154 2615 0
146 185 344 2616 0
-374 -435 122 2617 0
-483 45 -402 2618 0
337 261 409 2619 0
355 471 -145 2620 0
50 -143 347 2621 0
41 -471 -122 2622 0
283 -194 185 2623 0
245 29 226 2624 0
288 274 -108 2625 0
-433 -252 12 2626 0
310 209 291 2627 0
433 -90 -73 2628 0
113 413 202 2629 0
49 69 383 2630 0
353 -356 -239 2631 0
-79 370 488 2632 0
152 448 -158 2633 0
360 -190 -107 2634 0
174 37 366 2635 0
422 -80 63 2636 0
166 140 443 2637 0
-192 -75 -409 2638 0
-208 476 -174 2639 0
157 -37 350 2640 0
33 28 204 2641 0
421 427 -228 2642 0
-208 198 50 2643 0
-27 -222 -128 2644 0
155 24 422 2645 0
290 116 461 2646 0
-395 -91 -145 2647 0
219 326 -264 2648 0
413 -254 -271 2649 0
57 333 430 2650 0
