p cnf 2650 2150
319 -164 -125 501 0
-23 442 -333 502 0
-168 -76 -97 503 0
-232 253 468 504 0
433 -400 -105 505 0
-357 -449 -114 506 0
-21 96 -407 507 0
420 49 -238 508 0
-393 302 464 509 0
-388 -222 115 510 0
-325 278 195 511 0
-280 48 -14 512 0
452 -473 44 513 0
-452 137 415 514 0
459 483 -232 515 0
17 -114 216 516 0
-358 -325 -481 517 0
-81 494 -256 518 0
301 -5 -35 519 0
-499 419 -26 520 0
-90 233 -467 521 0
64 -58 329 522 0
176 -488 427 523 0
192 -315 -451 524 0
-233 -428 -273 525 0
497 -485 394 526 0
162 -41 -401 527 0
-437 297 185 528 0
-77 332 172 529 0
246 58 478 530 0
-417 -266 -339 531 0
386 409 -307 532 0
397 -337 86 533 0
92 -122 -326 534 0
30 281 206 535 0
-58 432 144 536 0
-341 -366 130 537 0
152 391 -440 538 0
-461 -140 -208 539 0
-4 -263 340 540 0
-42 378 271 541 0
-208 88 327 542 0
-436 289 -425 543 0
16 -443 425 544 0
-391 -399 -478 545 0
-372 -248 -77 546 0
79 208 -174 547 0
259 224 260 548 0
-263 -264 -463 549 0
-494 66 -87 550 0
-204 15 198 551 0
-350 122 364 552 0
-489 131 435 553 0
10 -284 -415 554 0
2 420 242 555 0
59 -342 -242 556 0
-40 87 362 557 0
4 90 -387 558 0
338 110 35 559 0
-194 -146 -454 560 0
-149 114 -135 561 0
169 -296 299 562 0
-319 -443 65 563 0
-152 341 489 564 0
-223 8 118 565 0
-134 414 265 566 0
-452 -184 428 567 0
-114 -202 173 568 0
-107 -431 462 569 0
-457 -128 202 570 0
-16 201 70 571 0
-251 380 131 572 0
-346 -129 17 573 0
312 331 -376 574 0
-385 -47 355 575 0
311 386 284 576 0
-285 442 162 577 0
202 100 -361 578 0
179 -398 460 579 0
152 -203 19 580 0
-373 -162 37 581 0
-138 335 -61 582 0
-476 238 -218 583 0
-410 -489 182 584 0
-24 273 225 585 0
-137 458 75 586 0
-126 -276 291 587 0
9 -266 174 588 0
-196 25 -310 589 0
137 65 479 590 0
-63 -421 420 591 0
-483 -308 394 592 0
419 207 -435 593 0
-338 279 -191 594 0
-312 473 -477 595 0
-467 428 -131 596 0
-473 -367 339 597 0
-246 -131 365 598 0
105 201 -106 599 0
157 -64 -399 600 0
-472 -450 28 601 0
-479 454 357 602 0
353 249 341 603 0
-126 25 297 604 0
34 219 132 605 0
178 -99 196 606 0
99 -270 -204 607 0
-268 315 167 608 0
-320 383 -290 609 0
-251 -95 -121 610 0
-237 -19 292 611 0
-217 -471 -339 612 0
214 330 297 613 0
260 46 393 614 0
-462 308 -468 615 0
281 -58 435 616 0
416 52 -102 617 0
-60 -176 -55 618 0
109 -212 -48 619 0
305 208 9 620 0
109 461 111 621 0
-209 -427 -153 622 0
348 -124 243 623 0
491 494 197 624 0
339 -160 -259 625 0
409 -51 63 626 0
-106 166 -92 627 0
-126 -328 318 628 0
-77 -172 229 629 0
-454 -225 429 630 0
281 -121 -207 631 0
-13 -171 361 632 0
-76 -65 251 633 0
-101 -262 -118 634 0
-232 -437 72 635 0
213 82 -319 636 0
-9 -227 -417 637 0
-25 -117 -259 638 0
207 58 251 639 0
286 467 36 640 0
27 -200 398 641 0
273 283 251 642 0
-473 -211 -429 643 0
365 432 -138 644 0
201 116 -272 645 0
-425 -206 -134 646 0
123 134 -293 647 0
-197 -206 401 648 0
486 100 420 649 0
-149 289 -226 650 0
135 228 339 651 0
-155 227 416 652 0
230 88 232 653 0
-14 -297 65 654 0
-44 434 227 655 0
-454 219 124 656 0
415 -196 84 657 0
-216 484 -1 658 0
-310 100 349 659 0
-210 70 -88 660 0
-24 98 404 661 0
-340 144 479 662 0
-150 -381 42 663 0
-148 -407 -71 664 0
-335 286 -442 665 0
228 25 -146 666 0
463 392 -8 667 0
-411 224 278 668 0
-451 -22 206 669 0
-402 364 341 670 0
138 87 -160 671 0
133 86 -246 672 0
-163 -128 -291 673 0
-452 481 362 674 0
454 418 474 675 0
354 -93 117 676 0
-25 -65 -127 677 0
-14 -61 -115 678 0
-448 172 -142 679 0
-234 427 -43 680 0
450 -79 -386 681 0
280 -380 345 682 0
70 15 -351 683 0
-160 145 -336 684 0
-368 124 -131 685 0
287 -180 444 686 0
-428 494 -88 687 0
188 406 359 688 0
107 -82 112 689 0
-235 -364 -201 690 0
-337 -371 -21 691 0
-85 431 8 692 0
299 -361 84 693 0
353 -253 -466 694 0
498 385 29 695 0
323 242 -33 696 0
-146 304 -244 697 0
-362 -332 499 698 0
-58 175 -374 699 0
-359 477 -387 700 0
127 214 -350 701 0
214 -323 -219 702 0
377 -168 -117 703 0
312 442 -140 704 0
438 -315 -41 705 0
-74 473 172 706 0
-369 -344 -37 707 0
-158 38 -150 708 0
28 390 -249 709 0
-39 -453 -318 710 0
-221 -30 -195 711 0
191 164 192 712 0
117 195 308 713 0
-377 -90 38 714 0
159 15 397 715 0
165 -159 211 716 0
57 133 108 717 0
201 -147 99 718 0
368 -283 125 719 0
-378 -358 -244 720 0
-212 -139 202 721 0
148 -487 -352 722 0
-172 229 -71 723 0
-296 415 211 724 0
-482 273 191 725 0
-56 384 85 726 0
365 -330 -9 727 0
-79 -220 -252 728 0
-283 -176 349 729 0
6 -172 44 730 0
192 -196 -271 731 0
-121 -223 -168 732 0
340 19 -167 733 0
75 483 54 734 0
154 383 -137 735 0
-159 157 110 736 0
7 -28 53 737 0
412 32 376 738 0
-244 -9 -375 739 0
86 -185 -17 740 0
-264 -100 -3 741 0
-393 132 -106 742 0
-189 -55 -337 743 0
299 -227 487 744 0
377 -108 -125 745 0
-331 -295 357 746 0
-479 66 82 747 0
53 248 -84 748 0
490 259 -301 749 0
-322 -332 385 750 0
-182 267 204 751 0
205 -345 450 752 0
-124 -131 315 753 0
481 -143 377 754 0
-429 -128 -259 755 0
200 -106 118 756 0
235 -31 -175 757 0
-463 256 308 758 0
219 224 30 759 0
-309 270 -29 760 0
-439 -92 -144 761 0
454 145 423 762 0
-353 -2 -487 763 0
340 105 -39 764 0
491 195 -4 765 0
-358 356 23 766 0
325 -211 -355 767 0
-307 165 -155 768 0
-454 -387 94 769 0
267 -153 -127 770 0
260 168 104 771 0
92 -14 -7 772 0
465 -207 -299 773 0
-50 -231 -257 774 0
-431 324 -3 775 0
-397 52 -337 776 0
-229 -333 -190 777 0
197 132 -155 778 0
89 391 -496 779 0
-468 223 -460 780 0
59 191 173 781 0
414 420 48 782 0
-107 -265 330 783 0
-328 23 112 784 0
-208 481 -412 785 0
-384 129 -58 786 0
-291 -394 -132 787 0
36 -250 -387 788 0
376 163 -469 789 0
4 -265 278 790 0
-489 -363 395 791 0
113 -155 -16 792 0
-297 52 83 793 0
-116 -80 -294 794 0
-393 -287 295 795 0
-275 -124 496 796 0
-329 -482 -206 797 0
-453 -105 -135 798 0
438 488 66 799 0
230 -16 45 800 0
-364 -264 -246 801 0
-416 -194 42 802 0
-15 -29 470 803 0
-483 306 160 804 0
323 -47 -443 805 0
-96 139 125 806 0
-490 134 -437 807 0
-165 -379 -178 808 0
-213 -306 259 809 0
474 -473 440 810 0
-390 375 -232 811 0
317 -320 -287 812 0
449 61 -198 813 0
360 -311 -51 814 0
-63 307 -346 815 0
404 182 273 816 0
148 -178 138 817 0
348 23 341 818 0
40 -469 -115 819 0
14 106 46 820 0
-279 -442 -21 821 0
397 -453 214 822 0
273 -14 -327 823 0
-102 -487 85 824 0
242 -69 -260 825 0
389 109 -382 826 0
81 -131 478 827 0
-400 -300 -27 828 0
-245 352 -353 829 0
-324 -384 -120 830 0
435 196 -109 831 0
260 200 -85 832 0
-324 -459 -108 833 0
-297 332 -24 834 0
310 25 -224 835 0
-266 252 325 836 0
372 -16 339 837 0
-449 374 84 838 0
355 83 -35 839 0
59 212 -28 840 0
130 454 -231 841 0
111 119 160 842 0
-344 462 -31 843 0
-479 -422 -456 844 0
141 139 -111 845 0
348 172 -203 846 0
256 -357 -270 847 0
385 -18 337 848 0
-153 -239 157 849 0
363 -126 459 850 0
306 -271 120 851 0
-209 428 -10 852 0
-57 119 227 853 0
-439 -44 -320 854 0
-482 -67 454 855 0
-282 -55 479 856 0
498 365 195 857 0
31 -393 -452 858 0
467 108 -247 859 0
-358 470 329 860 0
-378 424 -217 861 0
-58 -426 222 862 0
-172 334 -286 863 0
-483 -47 408 864 0
303 229 -171 865 0
248 -371 183 866 0
-472 279 -92 867 0
130 199 373 868 0
100 -1 275 869 0
322 -238 -477 870 0
-380 -136 432 871 0
-155 315 142 872 0
306 -24 -241 873 0
231 206 -246 874 0
464 200 471 875 0
-208 45 25 876 0
-221 -199 -59 877 0
274 -12 485 878 0
-49 466 170 879 0
-71 219 -74 880 0
-307 483 -376 881 0
-4 -284 -383 882 0
-247 352 -445 883 0
-423 -303 37 884 0
-365 166 -449 885 0
172 -195 -233 886 0
-337 -480 481 887 0
-118 -62 194 888 0
68 -10 -61 889 0
-167 -365 351 890 0
-299 -295 107 891 0
68 93 22 892 0
201 429 -68 893 0
-353 493 475 894 0
47 -311 -239 895 0
165 -305 -489 896 0
-198 461 -11 897 0
150 4 54 898 0
225 136 159 899 0
-306 -105 456 900 0
285 -385 71 901 0
-14 329 -456 902 0
-201 193 254 903 0
14 101 118 904 0
-413 -490 -455 905 0
454 -439 489 906 0
-253 471 -240 907 0
-280 370 -110 908 0
393 28 -224 909 0
23 -264 -144 910 0
-115 -159 -481 911 0
457 85 21 912 0
25 -69 -383 913 0
137 352 466 914 0
114 168 -150 915 0
240 262 -441 916 0
191 304 433 917 0
229 214 468 918 0
-373 18 217 919 0
-483 -407 448 920 0
-105 -159 450 921 0
-475 -94 -277 922 0
-40 -316 253 923 0
-491 340 193 924 0
-457 108 305 925 0
142 -288 452 926 0
-133 -350 372 927 0
-40 -246 -66 928 0
416 394 171 929 0
263 -385 1 930 0
265 -447 35 931 0
-245 -360 -412 932 0
-454 -284 219 933 0
454 -144 -314 934 0
-291 -130 360 935 0
-142 87 -100 936 0
-372 -146 286 937 0
-244 -198 84 938 0
245 356 192 939 0
60 160 493 940 0
281 2 216 941 0
145 39 448 942 0
84 -56 -333 943 0
-101 -308 -222 944 0
-438 171 -91 945 0
338 20 227 946 0
-91 -69 -237 947 0
341 500 133 948 0
499 -157 -111 949 0
220 342 42 950 0
192 -176 188 951 0
457 417 -331 952 0
242 -250 379 953 0
-36 -140 -405 954 0
42 266 45 955 0
-109 229 170 956 0
-120 -99 143 957 0
-439 218 70 958 0
-208 -306 -126 959 0
-265 -84 376 960 0
-434 -373 -73 961 0
-277 -397 210 962 0
219 -144 -465 963 0
-367 254 -458 964 0
192 103 -375 965 0
-371 57 75 966 0
46 160 -99 967 0
339 -22 25 968 0
-240 -47 415 969 0
22 -328 139 970 0
436 -27 -40 971 0
-106 -359 317 972 0
-202 -282 -76 973 0
-425 -104 -494 974 0
-179 475 267 975 0
-47 7 136 976 0
-232 -233 -409 977 0
416 -64 497 978 0
-232 -33 -98 979 0
312 60 106 980 0
-175 476 170 981 0
-179 -423 18 982 0
430 184 -40 983 0
334 217 193 984 0
214 -118 61 985 0
-174 -361 106 986 0
71 307 -306 987 0
471 487 -416 988 0
-211 47 -5 989 0
-13 -180 -129 990 0
249 127 -21 991 0
27 -51 -107 992 0
-319 -464 -98 993 0
-336 108 -415 994 0
-124 418 -204 995 0
-406 -351 -486 996 0
312 -409 -470 997 0
-472 -359 -176 998 0
448 -432 495 999 0
11 -178 -493 1000 0
215 375 246 1001 0
-404 -286 199 1002 0
479 -455 -108 1003 0
142 311 320 1004 0
-252 -112 337 1005 0
7 437 -241 1006 0
-407 107 -409 1007 0
267 155 -302 1008 0
-235 448 35 1009 0
114 478 -27 1010 0
248 -409 477 1011 0
32 -358 -177 1012 0
-379 -107 152 1013 0
-32 47 -183 1014 0
33 -487 237 1015 0
-241 -307 170 1016 0
-238 223 302 1017 0
-401 288 -63 1018 0
-127 393 134 1019 0
-353 478 445 1020 0
83 -120 56 1021 0
-224 -412 -89 1022 0
-289 -296 -181 1023 0
-378 -355 -170 1024 0
8 -498 57 1025 0
-127 72 -486 1026 0
68 250 288 1027 0
303 295 -280 1028 0
85 -426 177 1029 0
150 227 -294 1030 0
-364 -43 153 1031 0
-395 372 146 1032 0
-57 32 -243 1033 0
-376 -494 470 1034 0
-316 -349 -484 1035 0
138 167 295 1036 0
423 -16 -216 1037 0
-156 -141 -274 1038 0
172 -208 177 1039 0
-394 278 -49 1040 0
17 -26 -455 1041 0
-191 158 -234 1042 0
388 247 355 1043 0
184 175 483 1044 0
401 -129 -201 1045 0
-379 -368 440 1046 0
-79 -148 253 1047 0
105 -404 478 1048 0
242 258 -106 1049 0
242 454 -61 1050 0
-360 393 -454 1051 0
-173 -500 54 1052 0
85 122 -62 1053 0
-120 -77 -199 1054 0
-159 151 -59 1055 0
449 328 -242 1056 0
498 87 59 1057 0
-432 59 489 1058 0
349 3 45 1059 0
304 285 486 1060 0
80 -208 107 1061 0
-352 -85 57 1062 0
400 178 -51 1063 0
269 450 -47 1064 0
-271 367 108 1065 0
-36 167 -297 1066 0
16 493 36 1067 0
-116 -417 -470 1068 0
191 -107 -228 1069 0
11 194 -389 1070 0
-192 -364 -231 1071 0
259 199 -333 1072 0
-276 -245 -465 1073 0
232 -466 -381 1074 0
197 203 -362 1075 0
229 -363 -144 1076 0
292 -417 -424 1077 0
130 149 -153 1078 0
-304 9 -105 1079 0
103 275 369 1080 0
-367 164 -27 1081 0
27 -405 273 1082 0
-141 262 252 1083 0
-22 323 94 1084 0
239 178 37 1085 0
370 122 357 1086 0
212 -102 499 1087 0
159 -360 458 1088 0
304 -16 127 1089 0
436 -337 496 1090 0
203 -278 348 1091 0
-69 -209 450 1092 0
11 -477 284 1093 0
90 64 289 1094 0
-31 170 203 1095 0
97 -138 181 1096 0
-448 382 -272 1097 0
18 165 430 1098 0
197 336 -2 1099 0
-282 -448 -1 1100 0
12 -313 -346 1101 0
-317 12 7 1102 0
-408 470 -275 1103 0
305 144 78 1104 0
99 -18 -484 1105 0
336 -83 65 1106 0
446 -209 380 1107 0
-270 -477 365 1108 0
-89 -477 -118 1109 0
264 -375 -163 1110 0
356 370 -476 1111 0
98 -368 25 1112 0
470 191 441 1113 0
-366 -357 274 1114 0
-485 -247 -279 1115 0
481 144 -95 1116 0
364 159 -194 1117 0
-135 -352 -30 1118 0
-131 184 498 1119 0
19 430 -218 1120 0
38 -90 153 1121 0
405 -358 152 1122 0
-58 310 330 1123 0
255 -258 74 1124 0
-180 370 -390 1125 0
34 436 -489 1126 0
-74 -447 330 1127 0
429 376 -493 1128 0
-268 -152 232 1129 0
-305 -238 -433 1130 0
-24 -467 109 1131 0
64 -176 364 1132 0
-226 -443 28 1133 0
244 -196 -303 1134 0
27 -428 -243 1135 0
233 384 460 1136 0
-218 -37 -70 1137 0
145 406 340 1138 0
68 132 -405 1139 0
-18 404 291 1140 0
-106 222 -401 1141 0
180 -328 -424 1142 0
-220 375 112 1143 0
20 -279 45 1144 0
-335 493 -434 1145 0
202 -17 -56 1146 0
453 -216 -325 1147 0
-114 110 -280 1148 0
396 -41 -261 1149 0
287 -331 -39 1150 0
-231 461 -283 1151 0
-303 -208 -446 1152 0
-254 -488 415 1153 0
-191 -222 137 1154 0
79 169 216 1155 0
-351 -78 96 1156 0
-349 -234 -221 1157 0
359 102 341 1158 0
-58 -5 217 1159 0
419 -182 -179 1160 0
228 -382 -397 1161 0
-183 -37 -72 1162 0
175 -286 -122 1163 0
-490 437 121 1164 0
398 -452 -490 1165 0
-426 155 -355 1166 0
-146 -149 411 1167 0
-79 -35 -72 1168 0
-68 132 444 1169 0
-329 332 253 1170 0
-319 64 -111 1171 0
-158 -35 -269 1172 0
-126 239 -4 1173 0
104 -263 345 1174 0
63 53 416 1175 0
122 -87 111 1176 0
-431 -138 132 1177 0
-470 281 123 1178 0
-177 -219 217 1179 0
105 398 314 1180 0
-367 -104 -228 1181 0
150 -189 194 1182 0
376 -315 -53 1183 0
166 -473 339 1184 0
-434 -196 -293 1185 0
-498 372 335 1186 0
-259 -133 121 1187 0
467 150 -417 1188 0
-174 -256 -214 1189 0
-227 140 -79 1190 0
86 -149 -253 1191 0
113 484 347 1192 0
-90 369 64 1193 0
-449 302 -113 1194 0
409 116 -47 1195 0
-110 241 -212 1196 0
-173 260 -201 1197 0
99 -467 404 1198 0
-108 -259 120 1199 0
-1 279 380 1200 0
182 363 -369 1201 0
-272 71 354 1202 0
262 47 -119 1203 0
-450 -244 -482 1204 0
-80 -310 -288 1205 0
-399 92 -288 1206 0
-39 416 97 1207 0
-233 364 -92 1208 0
178 334 -473 1209 0
112 260 -324 1210 0
407 208 195 1211 0
-131 -84 -284 1212 0
292 -105 -184 1213 0
-324 302 -84 1214 0
454 486 358 1215 0
-169 -375 -402 1216 0
-485 -343 -160 1217 0
300 18 -123 1218 0
13 -276 483 1219 0
297 72 -418 1220 0
237 381 -58 1221 0
-372 94 -331 1222 0
-275 483 -232 1223 0
65 354 -167 1224 0
-3 -173 310 1225 0
-167 157 -244 1226 0
-255 -398 55 1227 0
468 -434 59 1228 0
-444 -382 480 1229 0
330 446 297 1230 0
345 -458 -434 1231 0
437 130 -91 1232 0
-39 -222 206 1233 0
434 -338 -88 1234 0
-220 132 -121 1235 0
258 194 261 1236 0
-274 -338 -36 1237 0
206 437 -319 1238 0
234 461 143 1239 0
-67 -388 -210 1240 0
-256 -35 -250 1241 0
114 -377 -401 1242 0
291 96 -449 1243 0
-387 471 447 1244 0
139 92 -378 1245 0
79 -164 499 1246 0
-375 171 207 1247 0
151 -128 -222 1248 0
159 71 -30 1249 0
210 -225 216 1250 0
-79 -174 -13 1251 0
-101 -458 471 1252 0
47 53 -181 1253 0
-403 -323 270 1254 0
296 -458 449 1255 0
-159 -420 85 1256 0
-216 -167 168 1257 0
63 450 -403 1258 0
-407 211 -258 1259 0
361 50 81 1260 0
224 -455 -241 1261 0
414 -331 -356 1262 0
-437 -277 63 1263 0
77 450 426 1264 0
197 -135 68 1265 0
58 -376 283 1266 0
-419 -312 -235 1267 0
271 268 1 1268 0
29 -230 423 1269 0
-203 46 69 1270 0
277 458 233 1271 0
488 365 -176 1272 0
-362 289 420 1273 0
-419 -478 292 1274 0
208 -50 -370 1275 0
395 -215 90 1276 0
132 488 -333 1277 0
-92 193 359 1278 0
-279 -291 -351 1279 0
284 -164 -226 1280 0
-255 -467 -104 1281 0
-302 271 -343 1282 0
-364 -18 -8 1283 0
286 271 410 1284 0
-428 451 39 1285 0
-390 164 104 1286 0
-341 -245 154 1287 0
266 -44 -425 1288 0
129 -217 136 1289 0
385 253 142 1290 0
-154 402 -138 1291 0
-473 390 -14 1292 0
-397 -184 201 1293 0
-7 -45 81 1294 0
434 -300 355 1295 0
-475 48 -205 1296 0
335 268 -243 1297 0
376 -322 86 1298 0
-423 -169 -336 1299 0
234 142 -88 1300 0
326 -82 -213 1301 0
-439 -376 144 1302 0
41 82 -481 1303 0
92 429 5 1304 0
-316 45 42 1305 0
107 -105 -343 1306 0
430 196 -489 1307 0
241 291 60 1308 0
429 -333 -437 1309 0
-355 449 -294 1310 0
320 -378 283 1311 0
366 362 63 1312 0
408 -271 -211 1313 0
295 491 -237 1314 0
-201 48 145 1315 0
-418 -222 276 1316 0
-104 381 190 1317 0
-421 -180 -78 1318 0
-81 -206 -136 1319 0
151 -43 -480 1320 0
-3 454 266 1321 0
-45 -236 165 1322 0
-168 -182 -185 1323 0
256 245 -441 1324 0
236 -195 403 1325 0
-121 -358 57 1326 0
-37 324 129 1327 0
469 -247 241 1328 0
-411 361 -185 1329 0
323 253 438 1330 0
21 -1 -33 1331 0
-369 -414 66 1332 0
-154 466 81 1333 0
-482 85 101 1334 0
-150 326 184 1335 0
-122 -188 -50 1336 0
410 281 473 1337 0
367 -166 271 1338 0
-333 116 -62 1339 0
87 -157 124 1340 0
-288 128 -468 1341 0
199 481 -463 1342 0
-342 430 149 1343 0
311 -49 -350 1344 0
-420 -403 -69 1345 0
485 421 420 1346 0
-76 57 240 1347 0
-277 363 -112 1348 0
278 213 450 1349 0
-26 255 -237 1350 0
-15 241 397 1351 0
-255 -239 -456 1352 0
270 324 202 1353 0
99 -486 -360 1354 0
67 -321 -480 1355 0
247 -407 -208 1356 0
-171 -70 -297 1357 0
184 -496 -458 1358 0
191 194 488 1359 0
409 103 -192 1360 0
166 234 -109 1361 0
475 -386 155 1362 0
-205 -56 21 1363 0
-63 433 431 1364 0
-286 -433 183 1365 0
304 -123 -479 1366 0
-54 -39 66 1367 0
287 63 485 1368 0
-369 -182 -110 1369 0
7 -105 230 1370 0
-116 208 -496 1371 0
-460 191 -198 1372 0
-392 1 -412 1373 0
361 -114 -414 1374 0
330 365 -386 1375 0
-257 -366 -201 1376 0
429 -401 466 1377 0
-394 82 -209 1378 0
179 -365 366 1379 0
-464 56 -405 1380 0
473 -91 223 1381 0
336 -77 -119 1382 0
-446 -70 492 1383 0
-14 -59 -367 1384 0
50 28 171 1385 0
-151 117 163 1386 0
-445 174 139 1387 0
-11 117 -187 1388 0
250 63 -104 1389 0
102 -369 100 1390 0
-407 433 -351 1391 0
-373 257 -167 1392 0
-192 -100 -148 1393 0
59 -350 216 1394 0
292 -270 -222 1395 0
493 -92 -252 1396 0
389 85 -70 1397 0
233 -421 47 1398 0
436 -148 -114 1399 0
-176 -390 253 1400 0
-58 -284 126 1401 0
443 -453 -154 1402 0
357 -309 -396 1403 0
-346 -438 -393 1404 0
96 404 -392 1405 0
-117 -287 -149 1406 0
126 298 89 1407 0
-170 -168 287 1408 0
419 164 118 1409 0
411 111 487 1410 0
-34 -279 395 1411 0
-191 -260 282 1412 0
-447 350 404 1413 0
237 313 312 1414 0
-188 -328 46 1415 0
-471 427 423 1416 0
219 -181 415 1417 0
179 -169 210 1418 0
138 111 -413 1419 0
135 -492 -293 1420 0
302 -292 -14 1421 0
46 11 -158 1422 0
40 -216 -86 1423 0
-376 -319 -170 1424 0
-469 229 -288 1425 0
72 448 -445 1426 0
-370 -182 45 1427 0
-92 -439 240 1428 0
327 291 -351 1429 0
450 -435 -109 1430 0
463 -435 72 1431 0
-81 -388 360 1432 0
295 311 12 1433 0
456 98 486 1434 0
161 -23 45 1435 0
224 -100 159 1436 0
-289 -377 277 1437 0
-111 -491 231 1438 0
-381 -406 -271 1439 0
323 -161 -358 1440 0
195 -458 -344 1441 0
-89 -289 -329 1442 0
-56 -157 -321 1443 0
-338 414 90 1444 0
376 -174 -222 1445 0
-331 -175 -129 1446 0
-84 134 -451 1447 0
-361 -447 -318 1448 0
137 58 -428 1449 0
465 -79 391 1450 0
499 -194 72 1451 0
142 216 143 1452 0
122 -168 -232 1453 0
-232 307 -70 1454 0
136 85 -128 1455 0
-377 280 -373 1456 0
-131 277 16 1457 0
296 -274 -144 1458 0
296 -446 -162 1459 0
132 -465 266 1460 0
-197 -428 270 1461 0
-447 -297 22 1462 0
371 -275 -442 1463 0
-83 -390 -151 1464 0
26 368 -172 1465 0
293 216 346 1466 0
470 -123 184 1467 0
-224 468 485 1468 0
169 -489 -307 1469 0
282 44 22 1470 0
-12 -320 407 1471 0
414 168 468 1472 0
266 41 431 1473 0
460 -14 343 1474 0
-461 451 277 1475 0
309 -117 113 1476 0
67 -244 -287 1477 0
326 -288 257 1478 0
333 -363 -482 1479 0
-281 265 -230 1480 0
482 449 -458 1481 0
-39 307 261 1482 0
331 412 -460 1483 0
219 -36 172 1484 0
-54 -367 -206 1485 0
-262 -354 -286 1486 0
20 366 -317 1487 0
207 24 -237 1488 0
-81 -285 498 1489 0
163 171 -45 1490 0
-327 314 -482 1491 0
-186 110 -160 1492 0
310 -143 393 1493 0
-317 -256 -495 1494 0
-372 493 -462 1495 0
-155 217 220 1496 0
-256 -195 26 1497 0
-155 146 -344 1498 0
118 -243 6 1499 0
15 -173 364 1500 0
92 -137 -220 1501 0
74 11 92 1502 0
429 -32 -499 1503 0
206 -187 -375 1504 0
483 -51 21 1505 0
364 -218 422 1506 0
-201 420 -335 1507 0
34 297 134 1508 0
120 -350 379 1509 0
-195 152 -110 1510 0
-451 -143 -438 1511 0
206 -481 77 1512 0
452 379 -233 1513 0
-393 -328 -266 1514 0
333 367 -24 1515 0
13 156 298 1516 0
237 -304 7 1517 0
340 266 -144 1518 0
-69 -190 -129 1519 0
150 -462 466 1520 0
-303 -388 73 1521 0
-290 383 308 1522 0
-475 156 -108 1523 0
61 -300 215 1524 0
206 -361 396 1525 0
-250 469 405 1526 0
-454 -216 14 1527 0
86 334 -257 1528 0
83 451 13 1529 0
368 -115 194 1530 0
-466 -399 141 1531 0
311 -492 -240 1532 0
-289 -278 -361 1533 0
-433 428 -363 1534 0
-367 300 -167 1535 0
256 -196 -423 1536 0
20 484 95 1537 0
185 17 -251 1538 0
-311 285 -72 1539 0
448 -477 97 1540 0
92 -492 201 1541 0
-115 357 -194 1542 0
216 274 336 1543 0
-302 408 120 1544 0
-178 474 30 1545 0
478 -146 1 1546 0
234 37 465 1547 0
-441 -58 229 1548 0
79 -404 -150 1549 0
180 238 472 1550 0
329 -299 -2 1551 0
-289 50 400 1552 0
183 74 -392 1553 0
-23 41 -138 1554 0
339 118 5 1555 0
182 388 259 1556 0
-432 -288 498 1557 0
142 359 -392 1558 0
-135 -66 233 1559 0
440 -269 449 1560 0
-182 -382 -270 1561 0
255 72 128 1562 0
-290 254 -269 1563 0
207 -93 -225 1564 0
476 -355 239 1565 0
369 231 405 1566 0
-286 313 170 1567 0
-123 279 -167 1568 0
476 247 488 1569 0
332 -84 -127 1570 0
-142 21 418 1571 0
-123 378 138 1572 0
-458 276 -325 1573 0
-211 -319 373 1574 0
-55 -61 117 1575 0
-235 -186 -379 1576 0
110 -209 33 1577 0
-316 303 -177 1578 0
1 127 -208 1579 0
-203 -149 -312 1580 0
-295 188 252 1581 0
-423 -148 283 1582 0
265 267 67 1583 0
-140 -458 -214 1584 0
-393 29 -312 1585 0
296 231 -245 1586 0
110 427 -107 1587 0
491 139 -385 1588 0
-337 -262 -461 1589 0
-212 -312 99 1590 0
-181 406 271 1591 0
25 -81 -445 1592 0
271 -108 316 1593 0
410 2 117 1594 0
190 221 -480 1595 0
418 343 83 1596 0
358 -54 -408 1597 0
-137 466 -69 1598 0
-329 -82 -96 1599 0
230 -134 -375 1600 0
274 390 -463 1601 0
373 -141 -500 1602 0
233 -492 78 1603 0
-160 -54 -285 1604 0
494 429 115 1605 0
-52 -164 -426 1606 0
-282 120 -383 1607 0
-11 48 251 1608 0
-261 429 -246 1609 0
222 491 -25 1610 0
390 445 364 1611 0
453 -281 -234 1612 0
391 155 330 1613 0
417 -77 -497 1614 0
-17 -190 68 1615 0
5 238 349 1616 0
74 -374 499 1617 0
-369 -467 -173 1618 0
171 -362 -336 1619 0
269 440 -248 1620 0
292 469 436 1621 0
-91 101 -183 1622 0
-58 323 411 1623 0
130 136 126 1624 0
354 301 493 1625 0
-176 83 -104 1626 0
473 -141 109 1627 0
396 493 -220 1628 0
-53 322 258 1629 0
-308 -387 -460 1630 0
-152 13 373 1631 0
-37 361 91 1632 0
81 -196 -321 1633 0
332 486 -113 1634 0
-416 406 445 1635 0
73 -138 -433 1636 0
-458 -169 -170 1637 0
-282 -289 -78 1638 0
-390 -451 -500 1639 0
52 -81 -456 1640 0
-66 319 -372 1641 0
449 -336 404 1642 0
53 480 -280 1643 0
359 -250 -499 1644 0
-419 191 -27 1645 0
-392 282 24 1646 0
63 -357 11 1647 0
-285 335 17 1648 0
366 -430 196 1649 0
-286 399 -113 1650 0
41 182 354 1651 0
187 415 217 1652 0
165 -368 352 1653 0
-122 -348 47 1654 0
488 -117 424 1655 0
177 -195 -248 1656 0
-359 -213 -446 1657 0
234 311 -2 1658 0
-199 153 -336 1659 0
411 -133 366 1660 0
438 131 465 1661 0
27 132 -256 1662 0
453 -463 480 1663 0
-499 -99 11 1664 0
116 -113 -198 1665 0
-377 10 99 1666 0
119 -257 55 1667 0
445 -375 298 1668 0
-249 323 356 1669 0
451 -53 -108 1670 0
257 414 99 1671 0
58 179 -255 1672 0
-106 111 -61 1673 0
-38 -434 263 1674 0
41 -400 -142 1675 0
131 -360 409 1676 0
489 -390 -194 1677 0
-467 -220 -31 1678 0
-211 398 -276 1679 0
-379 459 55 1680 0
208 -419 -15 1681 0
-97 48 -74 1682 0
-354 -394 436 1683 0
-395 356 286 1684 0
250 119 255 1685 0
-493 437 -347 1686 0
-458 -69 -407 1687 0
180 -246 191 1688 0
147 -352 -438 1689 0
-468 64 -26 1690 0
-40 8 254 1691 0
-71 463 -316 1692 0
-337 122 -47 1693 0
-157 -492 97 1694 0
-299 406 -181 1695 0
66 -418 -194 1696 0
-370 -116 -264 1697 0
-312 170 492 1698 0
-154 -39 -214 1699 0
478 4 -218 1700 0
424 380 -91 1701 0
-439 485 192 1702 0
-412 -263 80 1703 0
224 -236 -107 1704 0
429 -278 -145 1705 0
-446 122 -443 1706 0
116 359 442 1707 0
-164 310 -212 1708 0
-132 260 -210 1709 0
-143 -403 15 1710 0
-170 193 45 1711 0
-299 435 321 1712 0
344 -178 309 1713 0
383 -142 -42 1714 0
-296 -27 -414 1715 0
-425 417 139 1716 0
-314 392 319 1717 0
-70 -228 147 1718 0
310 -354 -414 1719 0
9 -107 155 1720 0
-404 -178 134 1721 0
-92 337 -500 1722 0
448 -420 -337 1723 0
329 -331 33 1724 0
-145 -254 -468 1725 0
-195 -350 -344 1726 0
-306 345 -258 1727 0
-1 223 -53 1728 0
141 58 46 1729 0
228 82 205 1730 0
-434 497 -471 1731 0
7 65 209 1732 0
-22 -12 58 1733 0
334 -403 -291 1734 0
-277 -132 -247 1735 0
-372 153 329 1736 0
-295 -371 286 1737 0
115 -107 -80 1738 0
109 327 -288 1739 0
-355 -234 -238 1740 0
-496 25 276 1741 0
468 -98 -90 1742 0
332 -290 -240 1743 0
-73 -319 339 1744 0
97 -413 401 1745 0
-331 114 131 1746 0
-273 -165 -431 1747 0
193 -90 448 1748 0
403 219 412 1749 0
96 -127 314 1750 0
92 -272 -223 1751 0
224 53 -254 1752 0
128 -207 -57 1753 0
-167 -480 190 1754 0
106 -85 162 1755 0
484 -52 281 1756 0
103 37 92 1757 0
-242 117 -144 1758 0
430 -102 121 1759 0
280 392 356 1760 0
38 -125 118 1761 0
-380 209 -329 1762 0
-78 -352 -181 1763 0
-14 -29 -432 1764 0
-84 47 -189 1765 0
310 227 -335 1766 0
-329 -410 306 1767 0
425 50 -401 1768 0
-443 87 384 1769 0
256 5 123 1770 0
-133 -486 74 1771 0
86 419 79 1772 0
441 -168 461 1773 0
158 37 83 1774 0
-452 -280 387 1775 0
-167 -385 -144 1776 0
112 -379 -414 1777 0
297 100 -56 1778 0
-325 223 160 1779 0
-498 -324 -98 1780 0
405 301 -251 1781 0
-182 153 -6 1782 0
-361 54 304 1783 0
133 -381 126 1784 0
-363 -476 151 1785 0
-478 327 216 1786 0
443 447 -94 1787 0
-388 -304 -252 1788 0
-67 485 308 1789 0
236 322 -132 1790 0
67 451 -459 1791 0
-456 34 5 1792 0
-22 280 208 1793 0
-300 -277 457 1794 0
402 -151 240 1795 0
-383 471 -135 1796 0
-5 264 217 1797 0
-484 257 409 1798 0
59 -398 -371 1799 0
-140 -134 -394 1800 0
306 -490 -212 1801 0
-446 83 -323 1802 0
486 -316 -361 1803 0
-408 -279 -138 1804 0
256 -196 378 1805 0
90 365 360 1806 0
494 256 92 1807 0
15 67 -480 1808 0
178 -201 228 1809 0
48 382 249 1810 0
461 -457 299 1811 0
433 -295 238 1812 0
-232 7 423 1813 0
197 -400 -500 1814 0
-58 329 274 1815 0
-211 -327 355 1816 0
-38 -95 -266 1817 0
76 83 -122 1818 0
264 -266 199 1819 0
-297 -53 450 1820 0
-41 -306 -465 1821 0
-311 247 -17 1822 0
176 443 -88 1823 0
-369 410 398 1824 0
-274 432 -10 1825 0
476 195 -413 1826 0
-400 267 390 1827 0
-48 141 -47 1828 0
374 -69 10 1829 0
-486 237 -25 1830 0
62 417 -111 1831 0
297 292 470 1832 0
421 222 -62 1833 0
178 -75 15 1834 0
-175 385 -107 1835 0
-154 280 377 1836 0
178 -466 266 1837 0
435 -477 270 1838 0
308 -248 -91 1839 0
-341 62 -386 1840 0
138 85 -251 1841 0
-186 -188 -150 1842 0
-60 -451 -164 1843 0
-479 293 -145 1844 0
-103 -266 216 1845 0
94 77 260 1846 0
80 489 454 1847 0
213 242 64 1848 0
-93 322 83 1849 0
143 -122 111 1850 0
-268 -372 229 1851 0
314 169 -348 1852 0
234 31 172 1853 0
19 104 -79 1854 0
151 53 -110 1855 0
-29 374 -225 1856 0
444 326 125 1857 0
90 -262 114 1858 0
470 231 -41 1859 0
-169 314 -305 1860 0
217 -291 -173 1861 0
-317 385 468 1862 0
-104 -448 255 1863 0
-349 13 -186 1864 0
-471 431 381 1865 0
-76 -329 -16 1866 0
123 113 -404 1867 0
27 180 -461 1868 0
307 -121 76 1869 0
388 -350 -170 1870 0
233 74 208 1871 0
128 411 255 1872 0
-214 275 -20 1873 0
101 164 149 1874 0
-405 354 485 1875 0
-54 -375 439 1876 0
-334 354 276 1877 0
267 35 -28 1878 0
44 -408 81 1879 0
-386 -226 126 1880 0
150 271 348 1881 0
-355 236 -365 1882 0
230 -17 207 1883 0
-494 -11 -60 1884 0
341 70 -247 1885 0
-148 299 -58 1886 0
-322 241 -451 1887 0
194 -310 493 1888 0
72 246 23 1889 0
297 45 -457 1890 0
271 -252 -165 1891 0
-446 -327 55 1892 0
204 -370 66 1893 0
-297 -33 111 1894 0
-115 -122 -136 1895 0
427 -495 462 1896 0
-80 245 94 1897 0
293 59 -183 1898 0
-151 4 318 1899 0
496 482 -366 1900 0
-15 211 349 1901 0
-330 425 -340 1902 0
341 -382 -317 1903 0
-298 82 -28 1904 0
31 -73 243 1905 0
-252 500 279 1906 0
177 -262 424 1907 0
-310 -413 84 1908 0
-144 251 -403 1909 0
-484 -300 -454 1910 0
-272 454 297 1911 0
386 196 124 1912 0
93 -442 -177 1913 0
-137 -362 142 1914 0
277 498 93 1915 0
37 128 -249 1916 0
-433 -323 266 1917 0
229 -478 -20 1918 0
-376 149 -462 1919 0
368 -378 367 1920 0
-267 -228 252 1921 0
-182 178 -155 1922 0
-444 -101 -168 1923 0
-88 204 -255 1924 0
433 -142 -352 1925 0
-129 -125 400 1926 0
-191 380 -27 1927 0
-477 225 -176 1928 0
-321 237 288 1929 0
-410 319 -421 1930 0
23 323 -88 1931 0
231 432 -346 1932 0
-123 303 -301 1933 0
-252 -329 347 1934 0
-478 421 144 1935 0
-284 289 -344 1936 0
178 256 -487 1937 0
439 494 -170 1938 0
276 439 -497 1939 0
-231 -299 480 1940 0
-375 146 -419 1941 0
481 394 63 1942 0
-357 444 -440 1943 0
-374 241 385 1944 0
274 -339 96 1945 0
-350 -390 -234 1946 0
453 -497 273 1947 0
67 495 53 1948 0
-209 144 -272 1949 0
-291 494 -400 1950 0
384 -260 457 1951 0
237 33 459 1952 0
83 -374 340 1953 0
-458 -41 -216 1954 0
335 368 -283 1955 0
-181 361 367 1956 0
322 -314 222 1957 0
-494 -342 156 1958 0
29 130 -80 1959 0
-324 -204 210 1960 0
467 -236 326 1961 0
-130 246 165 1962 0
430 -177 206 1963 0
4 -68 -222 1964 0
-119 -406 390 1965 0
343 52 -3 1966 0
86 32 357 1967 0
435 57 397 1968 0
49 7 -122 1969 0
-237 -31 178 1970 0
424 -400 -203 1971 0
353 454 -423 1972 0
178 499 -50 1973 0
-350 -284 -139 1974 0
-371 -338 -99 1975 0
50 393 457 1976 0
265 498 331 1977 0
-160 -324 471 1978 0
-19 273 -56 1979 0
-433 363 129 1980 0
319 -264 433 1981 0
-101 -129 119 1982 0
37 -345 340 1983 0
479 -253 30 1984 0
-450 249 -354 1985 0
-122 -350 -260 1986 0
188 -168 -331 1987 0
155 492 455 1988 0
226 477 141 1989 0
-377 210 -67 1990 0
-443 -216 306 1991 0
82 17 -10 1992 0
-317 -381 343 1993 0
228 -232 -319 1994 0
-313 69 -52 1995 0
-55 407 184 1996 0
-500 -318 298 1997 0
456 -7 -231 1998 0
-319 363 405 1999 0
84 -390 48 2000 0
-204 -312 -191 2001 0
-469 -101 -346 2002 0
67 -128 411 2003 0
92 379 -69 2004 0
455 401 -284 2005 0
-397 491 296 2006 0
-13 466 46 2007 0
-70 168 -142 2008 0
-389 350 -250 2009 0
-333 -117 -316 2010 0
-478 -191 -40 2011 0
-168 -433 -441 2012 0
344 272 14 2013 0
-83 -375 338 2014 0
-253 -441 -144 2015 0
241 284 338 2016 0
252 292 223 2017 0
347 432 -31 2018 0
-203 472 412 2019 0
-116 -430 -415 2020 0
116 254 85 2021 0
382 174 233 2022 0
-40 498 343 2023 0
414 -494 71 2024 0
105 304 -67 2025 0
-185 -397 220 2026 0
455 416 150 2027 0
-491 -119 -239 2028 0
-252 259 -301 2029 0
68 244 -81 2030 0
-242 154 -62 2031 0
-53 299 21 2032 0
-50 408 458 2033 0
-439 -26 100 2034 0
366 442 82 2035 0
-467 140 -241 2036 0
381 -310 -500 2037 0
417 -64 20 2038 0
-323 32 -350 2039 0
-402 499 -474 2040 0
217 170 -251 2041 0
490 -156 52 2042 0
-115 235 252 2043 0
64 -17 -308 2044 0
258 -147 348 2045 0
-132 48 320 2046 0
482 110 185 2047 0
203 448 -213 2048 0
408 191 -443 2049 0
374 -337 -451 2050 0
262 -210 -85 2051 0
-77 421 276 2052 0
302 30 -179 2053 0
-225 -482 194 2054 0
288 24 -59 2055 0
181 -400 -382 2056 0
-55 91 -357 2057 0
-7 251 -483 2058 0
315 -257 -269 2059 0
117 323 340 2060 0
-302 -471 -142 2061 0
376 -62 -364 2062 0
348 -9 82 2063 0
367 -325 -446 2064 0
-93 375 -269 2065 0
-95 -190 258 2066 0
-456 -117 154 2067 0
265 157 -492 2068 0
-436 -282 390 2069 0
-3 440 470 2070 0
128 -64 286 2071 0
-350 -224 372 2072 0
110 -176 485 2073 0
-35 304 -473 2074 0
146 -53 364 2075 0
-52 3 -356 2076 0
350 395 -107 2077 0
319 -147 364 2078 0
361 66 -477 2079 0
-332 53 -76 2080 0
-106 -182 299 2081 0
135 16 219 2082 0
6 37 24 2083 0
175 -182 -49 2084 0
250 312 -242 2085 0
-227 309 384 2086 0
40 180 -350 2087 0
90 186 335 2088 0
-302 -344 49 2089 0
-281 248 396 2090 0
-254 -397 -363 2091 0
209 13 10 2092 0
437 425 277 2093 0
1 147 -39 2094 0
-310 -496 324 2095 0
447 206 -135 2096 0
149 294 -201 2097 0
-305 -60 448 2098 0
-367 -392 182 2099 0
-354 -22 341 2100 0
112 433 155 2101 0
248 -117 339 2102 0
-242 -111 -383 2103 0
-374 258 -422 2104 0
462 -60 75 2105 0
-365 -237 -197 2106 0
302 87 -429 2107 0
-372 -457 -326 2108 0
-484 -487 475 2109 0
-351 -40 484 2110 0
-261 -307 -357 2111 0
-361 -217 398 2112 0
-104 113 -440 2113 0
475 397 406 2114 0
-303 -121 424 2115 0
141 -67 -356 2116 0
146 475 -438 2117 0
-490 -386 70 2118 0
-256 393 293 2119 0
324 -129 197 2120 0
-274 426 -411 2121 0
-79 -431 -60 2122 0
88 58 -82 2123 0
249 339 -381 2124 0
487 -416 283 2125 0
-58 205 273 2126 0
-263 486 -415 2127 0
95 -12 -41 2128 0
-78 206 84 2129 0
255 -124 14 2130 0
440 39 -306 2131 0
338 -308 119 2132 0
-442 313 -185 2133 0
156 -207 465 2134 0
-148 -423 141 2135 0
127 -428 -497 2136 0
48 456 295 2137 0
-283 125 -423 2138 0
-179 -359 -454 2139 0
498 -379 -221 2140 0
-18 285 20 2141 0
-148 -183 -219 2142 0
-361 -95 -43 2143 0
-130 200 54 2144 0
-56 -443 -39 2145 0
-437 -372 213 2146 0
-42 -463 -397 2147 0
344 -90 327 2148 0
-174 84 314 2149 0
191 -428 -40 2150 0
159 -138 -275 2151 0
298 454 -459 2152 0
-415 -430 265 2153 0
-490 -123 -303 2154 0
-147 195 375 2155 0
276 138 468 2156 0
-354 475 -113 2157 0
-19 -38 -90 2158 0
16 495 -26 2159 0
-21 220 -154 2160 0
-437 351 -368 2161 0
454 -75 11 2162 0
214 93 397 2163 0
-302 444 355 2164 0
-84 -450 315 2165 0
145 -408 -88 2166 0
303 312 400 2167 0
21 82 417 2168 0
-324 434 219 2169 0
196 -417 -29 2170 0
-438 -345 -186 2171 0
157 265 -444 2172 0
394 28 -69 2173 0
222 -37 125 2174 0
341 -213 227 2175 0
-350 -262 354 2176 0
-255 413 43 2177 0
-228 206 -79 2178 0
488 267 105 2179 0
-178 -370 325 2180 0
256 263 -172 2181 0
32 317 -374 2182 0
-328 444 -455 2183 0
-247 48 150 2184 0
-200 1 -212 2185 0
-452 -331 407 2186 0
-389 29 93 2187 0
400 -444 308 2188 0
144 -109 416 2189 0
123 174 355 2190 0
372 346 410 2191 0
-52 -207 169 2192 0
293 -365 -281 2193 0
-251 409 -272 2194 0
23 202 -204 2195 0
-298 430 255 2196 0
-160 -133 158 2197 0
11 208 -404 2198 0
-194 -257 -183 2199 0
-158 -33 304 2200 0
-479 -452 -128 2201 0
335 318 123 2202 0
-245 374 -109 2203 0
184 -327 -282 2204 0
457 -448 -47 2205 0
-424 -250 -128 2206 0
-490 -161 466 2207 0
-69 -233 1 2208 0
-238 -417 -406 2209 0
327 54 315 2210 0
-100 376 274 2211 0
270 339 -48 2212 0
95 -497 -98 2213 0
-467 162 -314 2214 0
-217 -65 -316 2215 0
-232 397 205 2216 0
-379 363 -117 2217 0
-157 -358 -75 2218 0
-393 -422 -220 2219 0
312 327 224 2220 0
-77 -478 -364 2221 0
-74 -96 -391 2222 0
92 188 -358 2223 0
85 450 -34 2224 0
127 -487 -260 2225 0
-7 8 -335 2226 0
386 -299 -100 2227 0
-31 487 -198 2228 0
385 19 373 2229 0
-75 -320 -405 2230 0
-119 -348 434 2231 0
392 -38 -209 2232 0
-86 -349 -8 2233 0
24 -12 -355 2234 0
96 -487 -195 2235 0
493 24 243 2236 0
121 179 267 2237 0
-168 27 -371 2238 0
113 -193 -378 2239 0
108 452 -216 2240 0
-247 -36 -139 2241 0
-236 494 160 2242 0
-43 496 -117 2243 0
-56 2 -348 2244 0
-158 -338 145 2245 0
240 -426 -94 2246 0
302 95 174 2247 0
186 231 75 2248 0
-220 -192 -219 2249 0
482 -73 287 2250 0
13 488 411 2251 0
327 -282 463 2252 0
8 -213 54 2253 0
74 259 -155 2254 0
-6 261 -2 2255 0
408 437 221 2256 0
-248 -142 317 2257 0
-109 -140 -394 2258 0
120 -380 264 2259 0
150 459 -169 2260 0
-186 111 262 2261 0
241 -276 105 2262 0
495 -466 62 2263 0
208 -348 -297 2264 0
-308 -33 75 2265 0
404 264 -395 2266 0
-253 142 -305 2267 0
-154 449 47 2268 0
-276 -468 118 2269 0
194 -354 -257 2270 0
23 70 -142 2271 0
424 333 240 2272 0
459 -482 102 2273 0
182 -217 -302 2274 0
40 -252 -229 2275 0
-37 -99 344 2276 0
165 90 -128 2277 0
493 326 374 2278 0
-94 -132 399 2279 0
420 -18 250 2280 0
-133 -447 -112 2281 0
167 393 468 2282 0
153 -263 -426 2283 0
17 249 -147 2284 0
-22 -460 342 2285 0
-18 460 -186 2286 0
351 178 -224 2287 0
232 297 237 2288 0
-341 395 -259 2289 0
-54 -438 -37 2290 0
201 -434 338 2291 0
20 -63 486 2292 0
135 328 192 2293 0
290 -305 -23 2294 0
424 -288 299 2295 0
-5 497 248 2296 0
162 9 -171 2297 0
25 -154 488 2298 0
474 -425 -355 2299 0
132 -324 -91 2300 0
199 475 -182 2301 0
-183 -404 -361 2302 0
243 -90 -374 2303 0
-400 -433 22 2304 0
34 -469 180 2305 0
-286 465 -377 2306 0
-359 -349 164 2307 0
-254 -427 436 2308 0
-33 51 -292 2309 0
351 130 -335 2310 0
177 -147 -13 2311 0
-149 -24 500 2312 0
-101 471 -385 2313 0
-471 -368 265 2314 0
239 -237 364 2315 0
-328 291 -310 2316 0
305 184 62 2317 0
182 371 44 2318 0
169 435 -146 2319 0
122 -385 -129 2320 0
387 -471 -29 2321 0
222 255 122 2322 0
469 83 301 2323 0
76 153 401 2324 0
365 74 -249 2325 0
141 -198 -312 2326 0
-470 -401 -411 2327 0
-245 9 416 2328 0
276 -224 -24 2329 0
-356 147 -135 2330 0
-143 -424 -155 2331 0
-113 371 88 2332 0
73 -323 392 2333 0
-217 134 -29 2334 0
-78 -170 12 2335 0
149 112 477 2336 0
1 -460 -424 2337 0
-480 -302 238 2338 0
39 -316 17 2339 0
174 -360 114 2340 0
322 21 -275 2341 0
-231 -16 495 2342 0
-438 -477 46 2343 0
389 -400 -429 2344 0
358 3 -2 2345 0
371 145 219 2346 0
264 237 -401 2347 0
-331 -493 161 2348 0
70 -158 12 2349 0
256 336 269 2350 0
-129 170 247 2351 0
-21 335 -223 2352 0
471 -132 -303 2353 0
-46 -277 457 2354 0
221 305 292 2355 0
-57 -209 -426 2356 0
500 -325 285 2357 0
497 94 344 2358 0
-164 64 270 2359 0
192 -7 -321 2360 0
-283 285 196 2361 0
198 -176 -38 2362 0
-100 -256 121 2363 0
-192 -77 57 2364 0
-332 -22 -480 2365 0
163 -481 88 2366 0
61 -69 373 2367 0
-30 -283 -475 2368 0
400 83 -159 2369 0
-361 7 20 2370 0
328 476 -22 2371 0
-225 296 -66 2372 0
201 234 247 2373 0
-458 199 33 2374 0
-39 499 -137 2375 0
253 27 -142 2376 0
-85 109 35 2377 0
-350 -68 -490 2378 0
-352 -15 -7 2379 0
224 422 -34 2380 0
349 -304 439 2381 0
167 -294 258 2382 0
429 -256 -228 2383 0
-381 160 -485 2384 0
176 449 56 2385 0
-490 265 116 2386 0
143 -162 219 2387 0
167 443 -303 2388 0
313 493 65 2389 0
-173 323 241 2390 0
271 475 -73 2391 0
110 -319 -429 2392 0
-242 -87 11 2393 0
331 62 -158 2394 0
-42 273 10 2395 0
62 24 104 2396 0
424 -441 -292 2397 0
-227 -76 276 2398 0
455 -23 127 2399 0
496 -297 60 2400 0
-205 -56 -143 2401 0
-484 133 -320 2402 0
412 -390 -64 2403 0
131 367 -264 2404 0
88 -430 87 2405 0
428 177 276 2406 0
305 99 70 2407 0
-372 -380 -185 2408 0
80 -208 282 2409 0
313 -278 -138 2410 0
394 227 419 2411 0
-77 156 -282 2412 0
270 356 -182 2413 0
-337 -258 -6 2414 0
-430 199 -210 2415 0
-165 204 -152 2416 0
441 -106 -385 2417 0
-460 117 451 2418 0
-388 -404 280 2419 0
-86 364 -20 2420 0
-234 448 -496 2421 0
449 -500 65 2422 0
131 448 -484 2423 0
-164 -369 89 2424 0
241 -418 -297 2425 0
177 -149 -261 2426 0
-181 220 370 2427 0
180 433 -307 2428 0
431 -166 -455 2429 0
315 267 65 2430 0
-354 219 420 2431 0
383 -95 121 2432 0
314 464 323 2433 0
412 329 408 2434 0
-380 255 -150 2435 0
364 125 97 2436 0
137 -452 -174 2437 0
48 69 200 2438 0
301 431 -137 2439 0
-206 293 -472 2440 0
-493 276 41 2441 0
-301 462 -361 2442 0
122 369 465 2443 0
221 -282 -55 2444 0
-158 403 389 2445 0
-367 -78 113 2446 0
-195 53 -64 2447 0
319 373 51 2448 0
86 262 -488 2449 0
-204 239 128 2450 0
377 127 114 2451 0
-33 -218 -115 2452 0
1 477 -272 2453 0
83 255 166 2454 0
340 82 -21 2455 0
459 -309 -139 2456 0
333 -86 325 2457 0
452 -168 69 2458 0
231 68 -186 2459 0
487 110 288 2460 0
388 -147 304 2461 0
325 463 42 2462 0
-397 -353 110 2463 0
-492 290 398 2464 0
-74 490 -449 2465 0
-223 -305 392 2466 0
232 476 -466 2467 0
-10 59 64 2468 0
-167 -271 -112 2469 0
-285 296 -142 2470 0
-365 236 -339 2471 0
-331 328 -472 2472 0
121 -130 -412 2473 0
386 -61 233 2474 0
191 -433 -37 2475 0
-142 -73 -396 2476 0
85 -149 468 2477 0
33 -249 494 2478 0
116 417 -485 2479 0
270 234 118 2480 0
290 -383 452 2481 0
437 -215 456 2482 0
403 24 4 2483 0
55 349 25 2484 0
-378 394 -352 2485 0
-199 -307 -147 2486 0
-341 -194 472 2487 0
319 497 -477 2488 0
229 -237 -42 2489 0
-21 -445 -157 2490 0
-342 282 361 2491 0
19 -455 -234 2492 0
-495 335 -351 2493 0
-358 -149 415 2494 0
-138 426 -196 2495 0
49 -390 -3 2496 0
-342 318 471 2497 0
-408 -86 -481 2498 0
-2 -478 231 2499 0
274 -126 207 2500 0
225 -204 -203 2501 0
-218 -372 -34 2502 0
57 142 93 2503 0
299 -360 39 2504 0
165 253 102 2505 0
140 253 -495 2506 0
185 -73 -447 2507 0
401 -285 479 2508 0
107 35 -470 2509 0
-476 -175 259 2510 0
-239 221 -215 2511 0
-315 -181 234 2512 0
240 -194 66 2513 0
308 -197 250 2514 0
7 -456 -482 2515 0
391 -351 -69 2516 0
30 -132 -256 2517 0
11 137 39 2518 0
-424 120 344 2519 0
-323 -462 -20 2520 0
-117 484 244 2521 0
-225 133 -473 2522 0
-347 448 214 2523 0
32 80 204 2524 0
393 34 377 2525 0
-362 302 -435 2526 0
422 -304 -444 2527 0
346 -93 -41 2528 0
-393 52 -363 2529 0
-214 -26 -472 2530 0
438 2 -249 2531 0
-11 -200 136 2532 0
443 387 165 2533 0
-247 -353 -188 2534 0
-414 277 258 2535 0
-387 435 16 2536 0
12 127 -71 2537 0
16 163 -26 2538 0
91 209 483 2539 0
-458 92 -256 2540 0
-298 381 18 2541 0
-494 -427 426 2542 0
-219 368 -268 2543 0
-306 -454 455 2544 0
292 -111 -182 2545 0
394 94 -453 2546 0
379 -228 140 2547 0
-434 418 -53 2548 0
249 468 -254 2549 0
309 179 -68 2550 0
-211 -186 -83 2551 0
23 -163 -192 2552 0
367 119 -471 2553 0
-284 -100 -211 2554 0
393 -486 -260 2555 0
383 -88 40 2556 0
285 -9 -300 2557 0
98 385 258 2558 0
-447 112 -23 2559 0
-19 -332 -493 2560 0
168 -167 -187 2561 0
478 -29 -472 2562 0
207 -10 80 2563 0
283 -145 87 2564 0
-378 90 29 2565 0
-468 -325 -96 2566 0
-377 -390 363 2567 0
2 353 -281 2568 0
10 -269 -16 2569 0
198 395 -125 2570 0
328 -361 241 2571 0
4 -293 -431 2572 0
204 -147 281 2573 0
167 197 -413 2574 0
72 113 -328 2575 0
151 -319 -470 2576 0
384 94 422 2577 0
314 -76 -212 2578 0
139 296 -149 2579 0
-215 -216 22 2580 0
-261 -37 -409 2581 0
141 -457 11 2582 0
266 249 297 2583 0
-432 -290 243 2584 0
-100 -186 226 2585 0
226 -437 46 2586 0
91 239 -105 2587 0
-167 -84 -179 2588 0
-275 -329 216 2589 0
-457 152 96 2590 0
300 172 -393 2591 0
321 -101 140 2592 0
-362 -144 97 2593 0
-353 -223 210 2594 0
365 236 -158 2595 0
469 2 307 2596 0
-95 -394 -334 2597 0
340 455 -160 2598 0
-394 318 -286 2599 0
91 -489 101 2600 0
-338 -277 -181 2601 0
455 102 391 2602 0
-459 -491 411 2603 0
-358 -417 -284 2604 0
-268 427 48 2605 0
385 488 -125 2606 0
88 120 -453 2607 0
195 -371 -53 2608 0
384 278 60 2609 0
-28 -414 -279 2610 0
-343 441 376 2611 0
-385 -73 463 2612 0
452 149 -216 2613 0
430 -469 221 2614 0
364 -96 -223 2615 0
380 351 442 2616 0
376 -227 290 2617 0
-498 -351 -243 2618 0
-422 -95 24 2619 0
-137 -364 -124 2620 0
-172 307 335 2621 0
-291 -493 -254 2622 0
-495 16 -135 2623 0
-214 95 -7 2624 0
-438 490 499 2625 0
-56 -413 -60 2626 0
-107 307 325 2627 0
-317 252 -80 2628 0
-218 -76 409 2629 0
116 212 68 2630 0
-4 -247 -134 2631 0
-183 -277 132 2632 0
419 -124 42 2633 0
256 19 456 2634 0
-286 158 -481 2635 0
-17 173 405 2636 0
-103 206 -147 2637 0
268 -408 322 2638 0
-4 -62 -46 2639 0
-114 370 -9 2640 0
-173 149 -298 2641 0
334 -469 239 2642 0
188 349 -342 2643 0
-37 -321 -131 2644 0
412 172 276 2645 0
-42 479 -413 2646 0
311 385 -27 2647 0
269 -318 168 2648 0
419 -106 447 2649 0
199 357 -344 2650 0
