p cnf 2650 2150
-184 434 466 501 0
41 416 -318 502 0
-203 -223 208 503 0
480 -221 126 504 0
258 -259 -478 505 0
414 498 250 506 0
450 495 -395 507 0
-203 445 -277 508 0
-486 238 -275 509 0
78 184 -479 510 0
284 339 93 511 0
-121 225 -335 512 0
380 45 69 513 0
-329 93 -58 514 0
9 -418 -146 515 0
366 -171 485 516 0
-242 368 -319 517 0
-28 -48 -222 518 0
-463 -495 436 519 0
-243 -316 94 520 0
217 -75 330 521 0
437 333 -85 522 0
331 55 340 523 0
-9 -245 332 524 0
308 -152 59 525 0
184 -273 3 526 0
352 -444 -250 527 0
402 -287 90 528 0
11 -103 -34 529 0
161 -387 -310 530 0
-459 341 -11 531 0
294 395 -221 532 0
-68 333 -249 533 0
-27 450 38 534 0
-307 143 -128 535 0
346 -400 381 536 0
143 -28 -211 537 0
-337 468 413 538 0
-3 -206 -221 539 0
-401 -498 -56 540 0
76 323 70 541 0
-123 396 -129 542 0
-53 -361 -31 543 0
-105 -479 4 544 0
398 466 454 545 0
-229 25 500 546 0
-491 -370 490 547 0
231 -363 -407 548 0
20 -32 -290 549 0
-121 195 -39 550 0
119 -71 -133 551 0
-367 119 -195 552 0
-305 54 -277 553 0
-470 -240 -327 554 0
-9 152 261 555 0
-472 66 27 556 0
-7 289 20 557 0
-93 -451 21 558 0
-74 463 288 559 0
491 -235 144 560 0
167 484 -36 561 0
456 -173 -349 562 0
277 261 211 563 0
-25 62 8 564 0
339 220 -300 565 0
233 190 208 566 0
-212 -315 -53 567 0
463 -130 356 568 0
-31 -20 293 569 0
482 -187 -445 570 0
-1 432 165 571 0
483 368 -16 572 0
-271 -385 132 573 0
-276 299 410 574 0
-93 48 253 575 0
-308 265 -119 576 0
-161 146 -116 577 0
-139 16 -426 578 0
323 55 13 579 0
-231 -41 -110 580 0
410 -197 34 581 0
419 462 -405 582 0
154 422 -82 583 0
210 -445 -37 584 0
-106 -45 203 585 0
-200 219 208 586 0
-464 -352 341 587 0
-417 -421 -480 588 0
-283 357 254 589 0
201 -448 -325 590 0
444 380 -119 591 0
-383 427 58 592 0
-380 397 -256 593 0
-101 -149 -343 594 0
-130 315 336 595 0
-251 -236 468 596 0
-287 109 373 597 0
-97 368 348 598 0
-13 -188 102 599 0
-278 14 -284 600 0
187 -194 247 601 0
206 -290 -48 602 0
343 284 -18 603 0
279 -493 -440 604 0
-259 295 500 605 0
360 -12 282 606 0
-415 -446 -70 607 0
-453 -445 -162 608 0
460 388 344 609 0
-90 358 -374 610 0
113 -313 214 611 0
-197 -383 -73 612 0
319 235 64 613 0
452 282 287 614 0
72 -184 478 615 0
420 469 305 616 0
159 -79 -109 617 0
-295 -285 -469 618 0
159 -129 179 619 0
262 -316 51 620 0
-487 335 272 621 0
-119 388 -339 622 0
457 351 -385 623 0
-486 191 308 624 0
26 422 134 625 0
-109 288 -249 626 0
-400 16 323 627 0
-438 417 332 628 0
148 289 315 629 0
-233 139 37 630 0
121 -113 -77 631 0
178 485 325 632 0
1 213 -473 633 0
-215 -191 219 634 0
383 471 -422 635 0
-171 368 324 636 0
402 -110 -315 637 0
-4 500 277 638 0
495 365 -163 639 0
-238 -221 58 640 0
429 -364 -319 641 0
-367 -308 314 642 0
255 -161 349 643 0
464 318 463 644 0
-28 -218 -424 645 0
324 44 287 646 0
-14 165 -138 647 0
96 13 -351 648 0
408 -85 -129 649 0
295 215 320 650 0
-223 -124 60 651 0
-17 191 -366 652 0
-433 -115 -164 653 0
-75 285 222 654 0
-387 -48 -57 655 0
-363 99 281 656 0
428 114 180 657 0
305 207 158 658 0
386 52 214 659 0
-445 -3 69 660 0
-416 104 377 661 0
-417 164 -271 662 0
-43 -418 -329 663 0
50 -481 -352 664 0
-53 -94 159 665 0
356 -400 87 666 0
86 278 193 667 0
-38 -26 -265 668 0
172 434 -489 669 0
173 41 202 670 0
161 467 -240 671 0
261 -455 212 672 0
-487 213 218 673 0
179 133 48 674 0
33 481 251 675 0
153 -257 -229 676 0
261 281 430 677 0
-33 -58 -262 678 0
180 79 174 679 0
244 39 94 680 0
265 -99 -63 681 0
247 -453 328 682 0
366 72 -390 683 0
403 443 -409 684 0
-36 -73 -95 685 0
376 443 418 686 0
406 361 -137 687 0
-23 9 204 688 0
-373 -381 245 689 0
375 -150 487 690 0
180 129 -353 691 0
407 350 351 692 0
-187 5 -288 693 0
461 -56 -225 694 0
-391 -193 180 695 0
-221 445 13 696 0
29 -232 60 697 0
-264 281 -68 698 0
-29 311 -316 699 0
-136 -10 8 700 0
485 -261 -432 701 0
-246 310 281 702 0
162 326 -83 703 0
-223 -363 212 704 0
-445 -180 338 705 0
-355 -457 -146 706 0
-212 493 -490 707 0
-85 -263 -401 708 0
-4 385 222 709 0
-218 -442 131 710 0
-133 476 -110 711 0
210 439 -350 712 0
-383 289 -174 713 0
-52 97 -357 714 0
486 -148 -41 715 0
316 -381 -113 716 0
92 224 -347 717 0
449 204 -63 718 0
16 -338 461 719 0
-236 -144 489 720 0
67 210 -355 721 0
317 273 -444 722 0
-361 -215 -28 723 0
-269 -34 -342 724 0
5 310 375 725 0
-68 -47 -213 726 0
312 185 125 727 0
-156 487 -55 728 0
-178 -432 -286 729 0
183 -334 176 730 0
389 -56 111 731 0
385 -401 -230 732 0
-481 -268 222 733 0
217 234 322 734 0
-290 -187 461 735 0
147 367 262 736 0
450 64 -299 737 0
-437 17 -271 738 0
-295 -201 -221 739 0
306 453 117 740 0
164 -389 -78 741 0
-353 461 -138 742 0
-479 492 497 743 0
483 -6 442 744 0
383 415 207 745 0
345 378 -412 746 0
370 -19 -146 747 0
321 100 -219 748 0
-384 -221 335 749 0
432 2 272 750 0
327 165 28 751 0
-53 15 150 752 0
-141 -377 423 753 0
195 -445 -137 754 0
-456 257 297 755 0
58 397 146 756 0
203 310 370 757 0
-430 -403 -422 758 0
24 472 241 759 0
-139 105 -447 760 0
342 442 -310 761 0
355 -339 492 762 0
-456 35 182 763 0
188 -289 450 764 0
260 -281 334 765 0
-94 484 475 766 0
298 -279 7 767 0
-9 -181 -124 768 0
-253 469 -362 769 0
-121 307 -250 770 0
-346 326 151 771 0
46 -358 45 772 0
400 -353 -318 773 0
-50 -176 -154 774 0
-56 226 -233 775 0
-383 -377 -191 776 0
-401 -440 427 777 0
339 -212 -464 778 0
-131 330 81 779 0
-249 -302 322 780 0
454 478 38 781 0
-100 -97 27 782 0
298 271 -175 783 0
53 -307 499 784 0
196 406 -442 785 0
-130 238 -166 786 0
-83 -253 -228 787 0
47 -485 -419 788 0
-440 -7 209 789 0
-134 -323 321 790 0
-95 -267 -163 791 0
-33 460 -138 792 0
-215 145 -61 793 0
-88 -293 -354 794 0
61 353 -214 795 0
-140 187 -343 796 0
-419 -111 -486 797 0
-17 -440 53 798 0
167 468 -478 799 0
306 297 -393 800 0
-78 -240 -283 801 0
223 145 -198 802 0
-188 -270 -135 803 0
-89 232 75 804 0
206 -39 31 805 0
-348 -254 -417 806 0
171 -443 -397 807 0
-378 484 15 808 0
-497 -66 -123 809 0
336 238 -209 810 0
322 49 -39 811 0
167 -207 -271 812 0
80 174 25 813 0
221 -27 -26 814 0
411 49 238 815 0
-312 -351 87 816 0
292 -400 69 817 0
-113 265 -2 818 0
108 428 122 819 0
329 -252 -38 820 0
157 -85 -290 821 0
264 -408 -485 822 0
125 -292 -475 823 0
406 263 427 824 0
-68 -291 370 825 0
488 -85 -356 826 0
31 151 -165 827 0
145 231 422 828 0
274 -341 -148 829 0
-162 -223 441 830 0
99 -115 -212 831 0
92 450 -354 832 0
444 350 -32 833 0
327 48 -78 834 0
440 379 285 835 0
217 -329 105 836 0
232 209 -294 837 0
9 280 -24 838 0
346 -219 37 839 0
-493 154 -383 840 0
384 145 322 841 0
470 461 124 842 0
123 395 109 843 0
-189 182 -492 844 0
402 -471 -473 845 0
-420 421 326 846 0
-495 187 -158 847 0
-336 333 453 848 0
360 132 -46 849 0
-439 -310 391 850 0
-184 -80 -297 851 0
304 -27 -56 852 0
-432 -290 -86 853 0
470 -383 453 854 0
-486 97 -293 855 0
-243 482 -327 856 0
-331 -173 -281 857 0
112 -252 -104 858 0
-3 -258 -106 859 0
85 116 -267 860 0
-216 427 399 861 0
249 57 425 862 0
25 483 263 863 0
147 -215 -454 864 0
140 -180 -397 865 0
-107 -92 -116 866 0
-146 416 -118 867 0
441 377 -363 868 0
-50 -444 -196 869 0
-64 -45 65 870 0
-367 330 -63 871 0
-231 251 404 872 0
-405 -342 256 873 0
-467 -138 248 874 0
-379 -69 -490 875 0
266 221 43 876 0
-61 305 477 877 0
458 -207 -280 878 0
2 72 -432 879 0
423 401 337 880 0
136 -189 -390 881 0
-346 -414 367 882 0
-472 -405 47 883 0
347 -139 289 884 0
388 -394 318 885 0
-157 -374 195 886 0
-450 59 -123 887 0
-215 -256 178 888 0
167 -373 -211 889 0
258 265 -187 890 0
352 -191 387 891 0
354 -153 -39 892 0
-45 420 145 893 0
396 473 -62 894 0
-404 9 214 895 0
-92 445 250 896 0
189 -353 135 897 0
111 70 301 898 0
-341 84 -415 899 0
-1 -289 -328 900 0
-367 293 -339 901 0
212 -129 458 902 0
-377 -182 328 903 0
-375 260 -486 904 0
-83 -98 139 905 0
-282 -64 -468 906 0
-6 -164 441 907 0
-164 -352 -8 908 0
394 45 -281 909 0
421 291 -450 910 0
179 271 -256 911 0
-64 -243 -355 912 0
-440 -302 -416 913 0
-148 32 217 914 0
195 362 191 915 0
269 426 -303 916 0
-113 -154 -386 917 0
201 359 -429 918 0
20 -140 -497 919 0
-379 -295 -468 920 0
28 -105 -129 921 0
-309 -8 251 922 0
-279 243 -161 923 0
210 484 -272 924 0
-312 -11 399 925 0
-62 485 372 926 0
-252 -28 315 927 0
-334 461 -463 928 0
-221 30 -380 929 0
-21 69 374 930 0
-256 104 402 931 0
-147 231 -297 932 0
-435 37 -32 933 0
62 316 -469 934 0
-134 17 322 935 0
-14 270 -335 936 0
497 448 -384 937 0
-61 85 -107 938 0
43 135 2 939 0
329 64 235 940 0
326 466 80 941 0
408 17 298 942 0
261 117 459 943 0
309 158 -69 944 0
243 -372 -24 945 0
342 381 -307 946 0
-191 -110 290 947 0
85 -297 -285 948 0
462 -236 469 949 0
441 -35 110 950 0
-413 51 -500 951 0
5 -186 -482 952 0
152 -387 176 953 0
8 -239 -108 954 0
347 -472 -75 955 0
-293 -329 -451 956 0
-476 -306 -20 957 0
-157 -38 -137 958 0
403 -76 -420 959 0
-365 -403 -132 960 0
361 -365 -179 961 0
215 196 -234 962 0
-18 -458 499 963 0
374 -205 447 964 0
-52 295 -178 965 0
-162 29 84 966 0
-6 305 204 967 0
-112 24 -226 968 0
133 215 -188 969 0
-367 -426 -500 970 0
489 488 -205 971 0
-366 245 414 972 0
-207 -60 -420 973 0
-54 -266 -290 974 0
354 440 -214 975 0
-217 -475 181 976 0
-246 -345 -240 977 0
-441 297 -193 978 0
197 -461 -459 979 0
329 -438 484 980 0
-371 -454 466 981 0
-335 -391 -321 982 0
-86 145 397 983 0
387 -177 171 984 0
143 4 -415 985 0
-255 472 126 986 0
29 -487 -254 987 0
450 214 -276 988 0
-266 415 459 989 0
460 -150 -51 990 0
-486 -317 223 991 0
-318 -297 -465 992 0
-187 215 468 993 0
197 499 142 994 0
143 -152 -55 995 0
192 409 -406 996 0
-404 192 -141 997 0
-295 164 -365 998 0
-98 -18 -420 999 0
337 -426 343 1000 0
-314 94 75 1001 0
-330 446 -399 1002 0
-390 -91 366 1003 0
298 -209 420 1004 0
-240 -31 480 1005 0
-427 -356 -253 1006 0
-200 400 436 1007 0
136 142 -124 1008 0
313 153 136 1009 0
238 49 -362 1010 0
82 -66 188 1011 0
302 339 -476 1012 0
43 -264 438 1013 0
107 -36 -119 1014 0
-148 107 -53 1015 0
-399 16 -97 1016 0
-240 -9 398 1017 0
-131 -348 -234 1018 0
125 349 -1 1019 0
387 92 -252 1020 0
331 364 -55 1021 0
429 -153 18 1022 0
-384 -388 476 1023 0
195 -417 -395 1024 0
-21 382 -499 1025 0
278 311 257 1026 0
-379 -40 -436 1027 0
104 308 394 1028 0
-126 70 285 1029 0
-384 -64 87 1030 0
-42 -70 -235 1031 0
12 -263 41 1032 0
327 390 -435 1033 0
474 452 139 1034 0
154 341 -303 1035 0
-9 -70 -110 1036 0
260 380 183 1037 0
71 368 38 1038 0
170 -471 -281 1039 0
-265 -330 -422 1040 0
-341 403 -165 1041 0
194 -374 -238 1042 0
125 -231 490 1043 0
-452 275 -158 1044 0
-179 473 77 1045 0
-483 319 251 1046 0
65 34 397 1047 0
-466 367 -251 1048 0
55 285 -352 1049 0
484 99 192 1050 0
296 494 -241 1051 0
-171 -282 -106 1052 0
-449 -437 -158 1053 0
-417 335 486 1054 0
81 -270 45 1055 0
384 -360 35 1056 0
-40 82 437 1057 0
203 335 -156 1058 0
-19 -198 -197 1059 0
-91 -230 108 1060 0
-137 -190 470 1061 0
118 295 -260 1062 0
119 -44 177 1063 0
421 -398 436 1064 0
-43 -329 128 1065 0
-249 -386 -326 1066 0
306 119 -47 1067 0
433 197 -83 1068 0
-264 75 -337 1069 0
163 -70 -480 1070 0
12 465 -96 1071 0
88 -163 407 1072 0
-64 167 -366 1073 0
237 58 -352 1074 0
-76 -384 -91 1075 0
271 40 248 1076 0
-116 -417 -57 1077 0
-123 -451 152 1078 0
240 -284 452 1079 0
-96 -467 -356 1080 0
86 334 -221 1081 0
-36 271 -341 1082 0
-191 -62 -13 1083 0
352 345 302 1084 0
288 -468 -426 1085 0
-65 -434 -431 1086 0
461 -97 379 1087 0
309 85 -20 1088 0
-37 -272 -268 1089 0
90 -222 -274 1090 0
-254 16 167 1091 0
153 -224 267 1092 0
24 -385 484 1093 0
402 95 500 1094 0
-280 -31 -190 1095 0
357 -356 -218 1096 0
177 301 483 1097 0
266 -35 -216 1098 0
406 -350 -143 1099 0
-41 48 -233 1100 0
142 -89 -118 1101 0
198 449 -293 1102 0
-171 -246 67 1103 0
355 -244 396 1104 0
-252 -431 312 1105 0
-242 499 293 1106 0
-405 -20 175 1107 0
-441 -160 -262 1108 0
-203 33 -452 1109 0
-304 260 -99 1110 0
96 245 -476 1111 0
-438 19 169 1112 0
-22 -395 -242 1113 0
-72 -354 287 1114 0
-181 -472 479 1115 0
13 -459 -317 1116 0
8 113 -29 1117 0
-492 260 371 1118 0
-138 162 450 1119 0
498 258 140 1120 0
-130 -212 -268 1121 0
-15 235 480 1122 0
299 6 163 1123 0
-248 428 -449 1124 0
214 -97 117 1125 0
245 332 54 1126 0
222 464 -485 1127 0
44 -17 -188 1128 0
259 310 382 1129 0
-336 483 245 1130 0
55 -83 288 1131 0
-374 445 -244 1132 0
-446 67 -238 1133 0
-273 254 411 1134 0
-141 -422 383 1135 0
470 414 333 1136 0
-329 -275 190 1137 0
-17 -63 -66 1138 0
-129 -245 62 1139 0
391 -135 181 1140 0
38 193 -152 1141 0
22 -70 -478 1142 0
-142 334 -465 1143 0
-306 -103 339 1144 0
165 -13 226 1145 0
29 -227 -297 1146 0
338 462 5 1147 0
155 388 250 1148 0
-210 -8 -445 1149 0
-205 129 -152 1150 0
-361 -458 53 1151 0
-294 51 143 1152 0
46 422 -96 1153 0
422 483 252 1154 0
288 -295 110 1155 0
499 475 322 1156 0
-138 356 351 1157 0
160 108 27 1158 0
-206 51 -32 1159 0
435 -331 46 1160 0
-398 -184 -491 1161 0
-293 288 262 1162 0
-448 228 347 1163 0
-95 -57 -324 1164 0
90 355 112 1165 0
158 151 341 1166 0
-217 -443 204 1167 0
437 124 -368 1168 0
-395 -108 -413 1169 0
-110 362 -484 1170 0
74 -149 396 1171 0
-124 -51 -148 1172 0
-162 100 -161 1173 0
37 -296 -29 1174 0
-411 -32 -259 1175 0
346 495 31 1176 0
161 263 53 1177 0
-14 -301 25 1178 0
288 -276 -77 1179 0
-76 -165 -415 1180 0
-214 -94 -128 1181 0
-147 -275 80 1182 0
484 271 367 1183 0
-42 384 278 1184 0
-25 18 -143 1185 0
-439 375 -267 1186 0
87 70 -282 1187 0
398 -468 334 1188 0
-261 111 392 1189 0
191 -46 147 1190 0
329 40 313 1191 0
-258 -313 194 1192 0
127 397 42 1193 0
170 -240 -412 1194 0
-78 -84 389 1195 0
142 21 -380 1196 0
59 493 -255 1197 0
281 428 162 1198 0
-74 -425 -473 1199 0
-18 157 -168 1200 0
290 -203 423 1201 0
-230 55 202 1202 0
-445 -432 100 1203 0
77 -212 204 1204 0
59 313 -114 1205 0
-144 285 403 1206 0
484 -122 -10 1207 0
-367 139 -26 1208 0
-477 -12 270 1209 0
10 -169 -146 1210 0
-218 150 335 1211 0
273 144 -9 1212 0
276 331 -191 1213 0
455 -481 -277 1214 0
235 432 -20 1215 0
421 -158 -46 1216 0
-26 252 135 1217 0
215 145 490 1218 0
-346 155 -377 1219 0
-59 489 216 1220 0
360 421 -15 1221 0
190 -430 93 1222 0
116 -37 -40 1223 0
-280 -155 -137 1224 0
377 -364 -135 1225 0
59 -231 293 1226 0
-5 -496 -379 1227 0
-491 163 -318 1228 0
10 -436 -225 1229 0
312 -497 -367 1230 0
334 327 222 1231 0
-62 31 -229 1232 0
-292 351 147 1233 0
425 46 -499 1234 0
83 -386 -317 1235 0
264 -209 175 1236 0
114 -90 67 1237 0
-268 9 -157 1238 0
259 407 -82 1239 0
-55 445 278 1240 0
405 -493 203 1241 0
-379 -471 -417 1242 0
-80 -150 379 1243 0
279 -48 -20 1244 0
-347 -444 66 1245 0
-421 -305 95 1246 0
-358 96 331 1247 0
425 475 -155 1248 0
-216 -196 328 1249 0
-214 -480 -179 1250 0
362 249 407 1251 0
-99 426 151 1252 0
390 -128 250 1253 0
157 -405 -132 1254 0
282 71 -453 1255 0
-365 312 339 1256 0
-363 397 205 1257 0
366 320 182 1258 0
-68 -445 435 1259 0
79 314 -473 1260 0
405 -135 498 1261 0
351 -277 -221 1262 0
466 -318 -322 1263 0
-105 -339 -83 1264 0
-469 -488 295 1265 0
-448 353 -499 1266 0
-179 -494 -379 1267 0
395 76 434 1268 0
137 -342 -440 1269 0
277 363 302 1270 0
266 124 10 1271 0
-2 65 -387 1272 0
195 438 225 1273 0
489 -318 444 1274 0
-235 174 325 1275 0
-205 102 350 1276 0
-56 74 244 1277 0
276 128 -194 1278 0
-284 -384 -476 1279 0
-217 -383 -117 1280 0
-43 -33 302 1281 0
292 438 475 1282 0
323 138 81 1283 0
97 -149 209 1284 0
-11 147 -195 1285 0
105 466 57 1286 0
61 94 237 1287 0
-18 -92 -183 1288 0
-256 445 330 1289 0
295 171 -459 1290 0
-31 465 18 1291 0
405 196 109 1292 0
496 356 -41 1293 0
264 -31 -256 1294 0
269 426 488 1295 0
-138 440 -3 1296 0
-119 224 278 1297 0
404 -65 330 1298 0
-268 486 -420 1299 0
353 -127 -439 1300 0
-349 369 194 1301 0
336 280 -136 1302 0
-65 484 -151 1303 0
49 301 -245 1304 0
-65 375 -256 1305 0
-356 187 -238 1306 0
-74 443 -183 1307 0
109 358 -410 1308 0
-225 -64 -392 1309 0
-194 246 112 1310 0
-361 252 208 1311 0
-224 -334 -175 1312 0
-387 22 445 1313 0
479 292 170 1314 0
199 477 -153 1315 0
176 -400 -99 1316 0
-275 116 -483 1317 0
6 -396 454 1318 0
-32 -440 44 1319 0
-124 243 -297 1320 0
-46 213 -122 1321 0
250 278 256 1322 0
429 278 -67 1323 0
56 133 -378 1324 0
16 13 415 1325 0
472 -289 417 1326 0
-297 372 -323 1327 0
-331 -418 434 1328 0
-70 470 -427 1329 0
428 -99 132 1330 0
58 363 429 1331 0
243 350 -259 1332 0
25 251 -82 1333 0
-163 344 -466 1334 0
-301 -367 -207 1335 0
-106 -427 -141 1336 0
351 384 374 1337 0
372 -487 220 1338 0
-326 -458 348 1339 0
432 421 -376 1340 0
-243 -496 13 1341 0
324 -380 337 1342 0
431 -334 482 1343 0
10 -293 157 1344 0
275 -378 -417 1345 0
441 -66 -333 1346 0
-500 111 -106 1347 0
368 -271 -372 1348 0
281 349 145 1349 0
340 -257 -188 1350 0
126 65 62 1351 0
289 -147 -476 1352 0
-217 -417 462 1353 0
-145 229 -478 1354 0
-407 205 -497 1355 0
265 100 275 1356 0
-446 -416 -148 1357 0
181 -60 334 1358 0
315 -303 -402 1359 0
291 -223 -354 1360 0
28 309 -351 1361 0
-172 -103 134 1362 0
-127 -111 -307 1363 0
9 -63 -170 1364 0
129 -144 -427 1365 0
-56 -359 -312 1366 0
144 -392 -153 1367 0
23 205 210 1368 0
-298 -427 -178 1369 0
216 103 318 1370 0
436 366 -386 1371 0
2 457 181 1372 0
224 -176 -492 1373 0
124 -61 -323 1374 0
-311 222 220 1375 0
340 -372 89 1376 0
71 -175 -28 1377 0
64 -175 -191 1378 0
346 -434 -383 1379 0
-466 458 451 1380 0
104 -405 155 1381 0
414 -108 330 1382 0
-18 -307 48 1383 0
237 17 111 1384 0
76 397 -443 1385 0
377 -151 445 1386 0
434 -207 -253 1387 0
-45 -365 108 1388 0
-421 -180 -318 1389 0
-171 224 -403 1390 0
-332 -164 253 1391 0
203 -57 -222 1392 0
-268 34 441 1393 0
309 195 -191 1394 0
-52 -405 58 1395 0
-427 -243 -362 1396 0
204 192 295 1397 0
-471 38 473 1398 0
-105 67 306 1399 0
138 -2 -192 1400 0
-285 -39 203 1401 0
100 -320 -231 1402 0
-367 179 -345 1403 0
127 -338 -153 1404 0
-398 -474 -308 1405 0
252 287 -159 1406 0
-96 -279 -290 1407 0
153 276 441 1408 0
-80 448 242 1409 0
-172 292 -477 1410 0
449 485 228 1411 0
57 479 443 1412 0
-212 -491 -210 1413 0
-74 361 402 1414 0
-143 491 -22 1415 0
-176 -20 499 1416 0
44 -132 -66 1417 0
-215 354 -164 1418 0
316 -458 116 1419 0
381 377 -123 1420 0
469 -204 96 1421 0
450 283 201 1422 0
428 -361 -36 1423 0
180 407 293 1424 0
469 270 176 1425 0
321 -48 -149 1426 0
151 300 -239 1427 0
131 -318 6 1428 0
-379 -167 -498 1429 0
447 105 -200 1430 0
-40 -210 174 1431 0
-60 111 498 1432 0
-157 -360 235 1433 0
-201 -198 28 1434 0
193 -27 -278 1435 0
-47 396 169 1436 0
-254 -493 9 1437 0
129 321 -404 1438 0
380 483 -107 1439 0
473 500 -57 1440 0
-300 -368 -250 1441 0
-184 -233 -478 1442 0
-5 -95 449 1443 0
495 391 -260 1444 0
-84 -380 -437 1445 0
-65 324 297 1446 0
-293 -400 -374 1447 0
-163 157 372 1448 0
240 -358 396 1449 0
-190 383 -423 1450 0
204 428 455 1451 0
9 147 -146 1452 0
-154 150 237 1453 0
-415 451 123 1454 0
405 484 456 1455 0
-313 -286 -47 1456 0
185 -203 -119 1457 0
310 -198 -447 1458 0
489 45 184 1459 0
257 398 -244 1460 0
-173 -365 246 1461 0
442 -303 96 1462 0
348 286 3 1463 0
-498 220 -390 1464 0
50 58 201 1465 0
189 -77 211 1466 0
18 -110 -346 1467 0
20 -292 -28 1468 0
-13 -383 194 1469 0
245 4 -254 1470 0
-239 -190 126 1471 0
-217 -27 -473 1472 0
-107 -493 -45 1473 0
426 201 -320 1474 0
-369 -160 -491 1475 0
-316 -418 205 1476 0
-267 -443 -180 1477 0
408 -46 121 1478 0
489 -492 -457 1479 0
-237 42 -59 1480 0
258 484 -337 1481 0
210 113 -334 1482 0
-14 -257 126 1483 0
-471 -350 -114 1484 0
-258 452 396 1485 0
-165 -113 362 1486 0
-447 182 168 1487 0
169 408 316 1488 0
-163 -148 256 1489 0
145 213 139 1490 0
188 -225 375 1491 0
269 -172 399 1492 0
-261 325 -64 1493 0
382 333 77 1494 0
-3 424 11 1495 0
-495 -144 -246 1496 0
108 264 -45 1497 0
494 166 -433 1498 0
151 182 338 1499 0
95 -328 -22 1500 0
-154 182 -78 1501 0
-2 -110 179 1502 0
-264 -116 -249 1503 0
265 48 -156 1504 0
24 308 -125 1505 0
-317 397 -272 1506 0
96 -252 170 1507 0
208 2 354 1508 0
107 346 84 1509 0
413 112 -441 1510 0
-313 484 -233 1511 0
6 -56 -89 1512 0
339 491 350 1513 0
148 -377 -381 1514 0
-296 348 104 1515 0
-498 -375 182 1516 0
-238 251 301 1517 0
294 491 345 1518 0
126 462 -233 1519 0
-390 133 -160 1520 0
405 300 161 1521 0
104 302 345 1522 0
230 57 474 1523 0
-267 -184 -153 1524 0
-198 85 222 1525 0
-73 -210 12 1526 0
-192 392 -122 1527 0
-250 -313 354 1528 0
108 -208 -81 1529 0
-273 -168 -362 1530 0
-286 407 419 1531 0
-116 203 -334 1532 0
187 492 -356 1533 0
-49 426 -200 1534 0
-276 -488 -238 1535 0
-295 98 -431 1536 0
92 -350 -248 1537 0
298 -478 -374 1538 0
192 473 491 1539 0
133 -91 120 1540 0
-376 317 338 1541 0
359 -354 -158 1542 0
383 283 331 1543 0
-69 -264 99 1544 0
-324 -328 -11 1545 0
-112 -176 -249 1546 0
150 -74 -240 1547 0
99 153 355 1548 0
491 -357 190 1549 0
91 -449 196 1550 0
-144 20 176 1551 0
-418 -182 446 1552 0
454 45 474 1553 0
-220 43 -211 1554 0
146 303 159 1555 0
108 181 111 1556 0
97 416 374 1557 0
364 90 284 1558 0
-391 -383 -48 1559 0
-63 -71 -271 1560 0
382 349 -96 1561 0
-220 273 75 1562 0
-293 -230 -365 1563 0
-439 47 -361 1564 0
243 74 473 1565 0
166 370 206 1566 0
204 306 447 1567 0
-273 -287 -115 1568 0
-475 -164 199 1569 0
83 20 428 1570 0
-12 -69 -435 1571 0
-198 100 -484 1572 0
-258 -112 -79 1573 0
443 417 497 1574 0
14 428 343 1575 0
247 17 323 1576 0
480 96 -15 1577 0
-145 -82 -171 1578 0
55 431 -329 1579 0
429 -44 -246 1580 0
344 -95 -249 1581 0
397 -277 67 1582 0
-464 -26 451 1583 0
-131 -241 85 1584 0
54 -260 -135 1585 0
-295 -499 143 1586 0
-157 434 475 1587 0
-164 -382 215 1588 0
-216 -273 -279 1589 0
-202 68 244 1590 0
274 121 -208 1591 0
276 -346 -176 1592 0
-453 40 -392 1593 0
438 63 -197 1594 0
402 -451 165 1595 0
-292 273 1 1596 0
127 -89 363 1597 0
48 483 -479 1598 0
377 -343 357 1599 0
292 -476 124 1600 0
-393 139 206 1601 0
89 -311 374 1602 0
434 148 296 1603 0
-499 -452 -228 1604 0
207 441 305 1605 0
495 367 422 1606 0
-76 -285 -494 1607 0
-211 116 -312 1608 0
-228 269 -440 1609 0
296 -2 -421 1610 0
205 441 68 1611 0
40 393 402 1612 0
176 -1 -126 1613 0
-442 -489 348 1614 0
-403 124 -306 1615 0
318 209 82 1616 0
489 343 -127 1617 0
-76 179 -81 1618 0
-273 -398 21 1619 0
108 366 -310 1620 0
-161 460 289 1621 0
-279 392 274 1622 0
-438 275 20 1623 0
291 -108 -483 1624 0
271 381 69 1625 0
-369 176 -137 1626 0
481 -421 -130 1627 0
311 195 -299 1628 0
-89 316 -98 1629 0
142 -361 -299 1630 0
-133 349 59 1631 0
-366 -315 -145 1632 0
28 -54 371 1633 0
-15 458 35 1634 0
14 -136 185 1635 0
261 92 487 1636 0
-82 34 -344 1637 0
443 300 86 1638 0
-302 -205 -132 1639 0
-104 247 347 1640 0
180 426 -39 1641 0
226 455 -192 1642 0
455 102 -226 1643 0
463 -145 52 1644 0
-293 -111 -337 1645 0
189 335 101 1646 0
211 -298 -141 1647 0
-346 -489 244 1648 0
-361 -255 121 1649 0
217 -151 -250 1650 0
328 -20 426 1651 0
-401 -326 -206 1652 0
500 423 387 1653 0
465 363 -302 1654 0
-301 240 352 1655 0
359 -218 -339 1656 0
-156 30 -324 1657 0
-474 428 242 1658 0
-413 -162 207 1659 0
-291 -43 -98 1660 0
-247 -407 164 1661 0
99 316 356 1662 0
5 -70 106 1663 0
175 461 -38 1664 0
-271 488 299 1665 0
183 194 -320 1666 0
280 -71 -37 1667 0
-153 -338 -239 1668 0
92 -325 75 1669 0
306 308 404 1670 0
135 365 175 1671 0
-220 394 -487 1672 0
42 -431 293 1673 0
-221 -304 -60 1674 0
415 39 -458 1675 0
314 42 94 1676 0
215 322 285 1677 0
-251 -119 464 1678 0
309 -18 393 1679 0
40 216 -193 1680 0
125 -254 -223 1681 0
-292 216 310 1682 0
200 196 255 1683 0
-456 -387 36 1684 0
-414 -330 311 1685 0
5 126 -301 1686 0
69 -171 470 1687 0
273 234 409 1688 0
-277 -477 -472 1689 0
166 136 84 1690 0
417 38 444 1691 0
-157 -489 -414 1692 0
129 -134 326 1693 0
-423 202 -165 1694 0
167 429 219 1695 0
-29 284 -470 1696 0
207 -410 28 1697 0
406 -68 149 1698 0
304 380 -19 1699 0
117 287 329 1700 0
-156 443 216 1701 0
256 -475 100 1702 0
467 -267 -90 1703 0
-122 -128 471 1704 0
224 38 442 1705 0
-454 180 -47 1706 0
-181 -226 -433 1707 0
-208 473 -238 1708 0
23 402 -6 1709 0
-192 310 -17 1710 0
213 42 83 1711 0
-108 364 -140 1712 0
391 -200 248 1713 0
286 -218 -352 1714 0
-162 -153 58 1715 0
112 -360 58 1716 0
500 -31 -72 1717 0
-416 231 113 1718 0
-133 -319 -206 1719 0
431 253 114 1720 0
-461 65 -377 1721 0
-317 -154 358 1722 0
-347 241 234 1723 0
-499 34 -282 1724 0
240 -368 -426 1725 0
368 -82 84 1726 0
261 -367 178 1727 0
-372 231 228 1728 0
69 -358 -433 1729 0
393 -219 -277 1730 0
105 -224 241 1731 0
477 -332 -11 1732 0
-86 -64 -307 1733 0
-448 375 -265 1734 0
-469 423 -456 1735 0
473 247 -366 1736 0
-428 -238 -487 1737 0
-488 -217 35 1738 0
141 276 326 1739 0
366 222 -97 1740 0
-268 400 -247 1741 0
-314 200 100 1742 0
469 -170 -176 1743 0
215 162 -264 1744 0
41 422 143 1745 0
481 110 -269 1746 0
-172 131 -228 1747 0
175 -374 -364 1748 0
-106 328 152 1749 0
45 -314 270 1750 0
-131 -220 -351 1751 0
-123 -479 40 1752 0
-358 28 -40 1753 0
-46 -410 220 1754 0
289 3 494 1755 0
-84 -351 346 1756 0
154 420 215 1757 0
-385 343 -494 1758 0
-422 1 -399 1759 0
-264 -142 193 1760 0
345 365 -59 1761 0
337 -479 110 1762 0
179 -414 132 1763 0
246 -147 394 1764 0
132 -166 467 1765 0
-168 -94 462 1766 0
105 496 415 1767 0
-319 169 -4 1768 0
456 286 357 1769 0
236 36 -122 1770 0
-440 408 -287 1771 0
46 129 84 1772 0
-209 -455 481 1773 0
-107 170 130 1774 0
225 359 -197 1775 0
-353 465 169 1776 0
-380 184 -311 1777 0
-112 -394 -201 1778 0
-91 466 -209 1779 0
281 151 74 1780 0
198 321 430 1781 0
261 -216 276 1782 0
-14 487 269 1783 0
-99 229 399 1784 0
349 -410 -58 1785 0
-455 -359 99 1786 0
427 360 -77 1787 0
-14 443 75 1788 0
-266 -340 431 1789 0
-140 448 18 1790 0
63 361 -398 1791 0
-385 -422 -16 1792 0
486 -75 280 1793 0
33 -45 -142 1794 0
-56 -42 293 1795 0
74 -1 70 1796 0
-150 77 -122 1797 0
485 -127 250 1798 0
-191 485 -77 1799 0
190 -363 482 1800 0
142 -287 250 1801 0
-19 -463 -91 1802 0
396 169 -225 1803 0
-155 244 -157 1804 0
-420 -78 -336 1805 0
-266 -30 169 1806 0
-110 190 -320 1807 0
-192 323 -205 1808 0
-229 -456 -482 1809 0
-45 -53 384 1810 0
-231 385 169 1811 0
-391 -193 148 1812 0
31 -459 152 1813 0
-12 223 -462 1814 0
481 153 55 1815 0
441 211 383 1816 0
-197 431 329 1817 0
-51 424 -308 1818 0
-177 -330 350 1819 0
-395 428 10 1820 0
-482 417 483 1821 0
343 369 -191 1822 0
-448 -266 426 1823 0
-328 -231 -132 1824 0
462 -269 253 1825 0
50 -175 -403 1826 0
464 -121 478 1827 0
-22 15 -447 1828 0
-446 241 385 1829 0
65 -182 345 1830 0
274 376 345 1831 0
226 -463 -326 1832 0
446 -325 285 1833 0
-263 -64 287 1834 0
-160 279 353 1835 0
345 272 -443 1836 0
344 448 -124 1837 0
-10 98 89 1838 0
235 119 441 1839 0
-253 -318 -462 1840 0
75 482 -385 1841 0
-93 -372 -215 1842 0
-414 435 298 1843 0
-374 244 400 1844 0
-205 358 264 1845 0
-379 -61 -290 1846 0
278 330 -60 1847 0
-1 289 296 1848 0
40 447 -95 1849 0
460 44 206 1850 0
110 128 -407 1851 0
488 164 335 1852 0
235 -265 -427 1853 0
-331 52 -451 1854 0
-12 -46 146 1855 0
-334 63 -148 1856 0
230 -486 187 1857 0
-272 -252 -477 1858 0
323 370 -436 1859 0
-14 -218 -287 1860 0
255 -151 262 1861 0
225 -474 -234 1862 0
402 129 452 1863 0
29 97 -389 1864 0
396 -255 -375 1865 0
-133 94 -10 1866 0
-193 374 281 1867 0
332 244 340 1868 0
223 -302 -113 1869 0
-336 -285 333 1870 0
276 440 446 1871 0
-231 286 468 1872 0
-155 135 -407 1873 0
-219 -313 -264 1874 0
-477 330 171 1875 0
49 304 169 1876 0
-57 442 486 1877 0
24 -148 367 1878 0
-492 388 442 1879 0
347 -450 346 1880 0
498 -241 -330 1881 0
481 117 -138 1882 0
429 180 54 1883 0
198 496 -13 1884 0
-479 -88 457 1885 0
187 -6 333 1886 0
-195 -118 3 1887 0
410 65 -92 1888 0
-122 -134 368 1889 0
441 65 -497 1890 0
167 171 400 1891 0
-334 471 76 1892 0
-472 -30 -59 1893 0
-403 63 70 1894 0
-372 201 -448 1895 0
-207 -63 176 1896 0
414 168 178 1897 0
-326 -100 200 1898 0
351 -350 421 1899 0
-129 -229 -88 1900 0
-445 -336 231 1901 0
-337 443 -307 1902 0
-64 -120 387 1903 0
-244 407 440 1904 0
332 -325 16 1905 0
152 -422 247 1906 0
-382 338 49 1907 0
-466 -78 411 1908 0
325 -52 -202 1909 0
491 -302 -419 1910 0
-276 -353 20 1911 0
-410 485 338 1912 0
31 -142 210 1913 0
118 349 290 1914 0
-264 -154 -160 1915 0
-408 -213 -29 1916 0
261 -231 -137 1917 0
-255 106 57 1918 0
-49 215 387 1919 0
221 108 59 1920 0
329 424 -101 1921 0
422 393 62 1922 0
386 110 -125 1923 0
281 -145 -19 1924 0
-66 463 440 1925 0
153 262 -181 1926 0
228 -111 -37 1927 0
36 450 61 1928 0
493 -301 313 1929 0
331 -363 -282 1930 0
-128 -123 -315 1931 0
-230 -93 342 1932 0
-218 407 -285 1933 0
-423 7 263 1934 0
340 236 251 1935 0
359 -410 31 1936 0
167 102 278 1937 0
-246 -400 240 1938 0
297 -70 277 1939 0
-409 291 29 1940 0
73 146 -135 1941 0
247 -16 -1 1942 0
-490 -375 -292 1943 0
233 75 -20 1944 0
296 -352 495 1945 0
417 -113 -269 1946 0
445 125 357 1947 0
-146 423 -256 1948 0
456 -484 121 1949 0
479 140 -237 1950 0
301 -452 73 1951 0
-192 169 372 1952 0
-33 239 -118 1953 0
56 -174 -370 1954 0
4 -438 -192 1955 0
-432 -8 182 1956 0
-177 125 -362 1957 0
301 -224 -29 1958 0
-347 -447 -103 1959 0
-41 51 -425 1960 0
157 46 423 1961 0
-340 -393 -415 1962 0
500 -160 -388 1963 0
214 -441 -226 1964 0
-266 67 -375 1965 0
249 108 -275 1966 0
475 -47 -139 1967 0
472 -390 -15 1968 0
-285 -3 185 1969 0
103 -407 243 1970 0
-493 358 -154 1971 0
151 -176 -481 1972 0
-176 -244 -217 1973 0
367 -138 -179 1974 0
139 461 404 1975 0
379 -329 217 1976 0
16 -303 -368 1977 0
-52 -206 -149 1978 0
354 25 338 1979 0
99 -375 -159 1980 0
-81 65 51 1981 0
171 -262 307 1982 0
-362 455 -255 1983 0
294 54 -71 1984 0
245 495 -450 1985 0
-305 -207 229 1986 0
386 436 -496 1987 0
78 -202 -25 1988 0
432 -242 -264 1989 0
233 82 142 1990 0
-477 496 55 1991 0
52 482 254 1992 0
-258 -113 33 1993 0
-301 -487 32 1994 0
180 -95 -101 1995 0
-457 -193 -484 1996 0
-284 135 161 1997 0
-361 46 405 1998 0
-495 140 385 1999 0
313 -255 101 2000 0
-51 -132 -164 2001 0
461 338 -148 2002 0
-369 405 -402 2003 0
233 370 362 2004 0
436 -39 306 2005 0
-108 66 391 2006 0
239 340 432 2007 0
263 -157 144 2008 0
-30 64 487 2009 0
-79 -330 240 2010 0
240 162 -17 2011 0
-466 236 -402 2012 0
-307 -359 -348 2013 0
-397 473 351 2014 0
-107 235 350 2015 0
-373 -479 376 2016 0
388 -118 -496 2017 0
243 -224 325 2018 0
-51 200 420 2019 0
205 -344 416 2020 0
94 -340 -279 2021 0
491 100 177 2022 0
-37 -104 388 2023 0
-423 138 -174 2024 0
-228 -311 44 2025 0
312 36 -2 2026 0
451 -223 -161 2027 0
426 -307 -219 2028 0
236 361 -237 2029 0
-154 166 132 2030 0
193 -48 135 2031 0
-217 24 12 2032 0
88 471 60 2033 0
-464 -138 -319 2034 0
382 -303 455 2035 0
500 465 -42 2036 0
349 -3 -229 2037 0
459 -108 496 2038 0
-304 -398 382 2039 0
-54 320 -355 2040 0
-204 358 233 2041 0
-30 303 131 2042 0
328 20 431 2043 0
-269 500 490 2044 0
-253 -432 373 2045 0
-17 -93 96 2046 0
-483 -129 -309 2047 0
-278 230 -49 2048 0
-254 252 227 2049 0
325 279 -316 2050 0
28 -55 348 2051 0
-28 -323 313 2052 0
4 75 -234 2053 0
-479 -482 -184 2054 0
-352 472 374 2055 0
497 -220 258 2056 0
-318 -379 386 2057 0
470 -172 193 2058 0
-345 132 408 2059 0
157 296 -152 2060 0
254 -104 307 2061 0
-192 336 -141 2062 0
394 196 -142 2063 0
-495 -249 208 2064 0
17 -439 -191 2065 0
457 238 -446 2066 0
493 282 -46 2067 0
329 30 223 2068 0
288 402 147 2069 0
256 244 485 2070 0
-59 -60 309 2071 0
129 21 266 2072 0
-428 -449 473 2073 0
-484 -413 282 2074 0
-219 -476 -302 2075 0
81 18 -213 2076 0
-366 282 410 2077 0
138 242 458 2078 0
246 124 -260 2079 0
-473 -42 -146 2080 0
141 -215 -56 2081 0
-333 -131 -372 2082 0
237 141 -94 2083 0
-458 -432 414 2084 0
-2 82 397 2085 0
209 -402 -336 2086 0
-140 41 233 2087 0
61 -53 418 2088 0
319 25 -132 2089 0
-257 49 213 2090 0
240 -467 101 2091 0
-82 -286 100 2092 0
214 247 -305 2093 0
37 -412 77 2094 0
53 -95 -295 2095 0
244 45 -108 2096 0
-185 424 382 2097 0
-81 -33 107 2098 0
396 91 -348 2099 0
27 431 -108 2100 0
189 -289 83 2101 0
-479 -238 298 2102 0
218 -436 -10 2103 0
-489 -249 262 2104 0
418 -347 290 2105 0
462 -154 475 2106 0
-206 -85 -468 2107 0
279 -163 -239 2108 0
-184 -238 233 2109 0
-298 301 -461 2110 0
-390 42 190 2111 0
417 -110 -434 2112 0
25 -314 -311 2113 0
-64 107 -479 2114 0
-261 301 341 2115 0
240 -366 237 2116 0
406 -491 280 2117 0
-279 -354 -125 2118 0
433 369 -77 2119 0
494 -452 227 2120 0
-427 -285 -470 2121 0
403 219 24 2122 0
-144 -287 95 2123 0
486 386 127 2124 0
25 226 119 2125 0
493 -173 322 2126 0
-494 -154 -6 2127 0
-302 63 209 2128 0
86 -89 -200 2129 0
-352 117 -237 2130 0
-430 -202 288 2131 0
61 -253 273 2132 0
-445 -260 272 2133 0
484 270 -189 2134 0
-330 48 -247 2135 0
96 389 357 2136 0
-172 -30 -485 2137 0
-248 474 -405 2138 0
-42 -179 221 2139 0
-268 -98 346 2140 0
-180 -166 -434 2141 0
400 -104 -149 2142 0
-155 -253 -476 2143 0
260 171 422 2144 0
-280 37 -198 2145 0
-272 -73 290 2146 0
474 -19 24 2147 0
56 499 -392 2148 0
5 -27 45 2149 0
181 -476 265 2150 0
46 74 -265 2151 0
-393 -134 -468 2152 0
238 405 80 2153 0
-193 -415 209 2154 0
-1 182 314 2155 0
-164 -229 33 2156 0
15 -180 -204 2157 0
84 87 454 2158 0
72 419 -375 2159 0
312 -306 87 2160 0
153 454 207 2161 0
396 -141 -168 2162 0
308 378 338 2163 0
497 -475 -462 2164 0
250 195 373 2165 0
484 422 -56 2166 0
143 328 9 2167 0
365 -433 -336 2168 0
-372 -131 4 2169 0
-424 241 -222 2170 0
-460 -134 102 2171 0
16 -57 -244 2172 0
-339 -78 -299 2173 0
25 403 343 2174 0
-378 411 491 2175 0
221 -167 -399 2176 0
-392 480 -219 2177 0
378 454 -472 2178 0
-37 3 311 2179 0
-170 160 -303 2180 0
-143 56 -308 2181 0
49 -51 260 2182 0
-447 -127 -233 2183 0
295 140 289 2184 0
-366 75 -487 2185 0
-495 451 69 2186 0
392 184 378 2187 0
-424 77 -224 2188 0
-72 233 -150 2189 0
-20 -183 -333 2190 0
-288 329 -225 2191 0
241 -134 -153 2192 0
-2 43 -22 2193 0
281 12 70 2194 0
493 -54 -491 2195 0
166 153 10 2196 0
-299 215 442 2197 0
82 -391 -371 2198 0
-80 352 -342 2199 0
-214 466 79 2200 0
66 223 -371 2201 0
-290 235 -148 2202 0
86 -322 400 2203 0
94 -73 -19 2204 0
-330 -238 -446 2205 0
445 -139 199 2206 0
-94 -163 204 2207 0
-29 -251 164 2208 0
65 436 -357 2209 0
43 -191 -3 2210 0
194 -483 272 2211 0
-391 339 -411 2212 0
-280 -88 -420 2213 0
-65 131 208 2214 0
-453 -106 224 2215 0
41 -177 -395 2216 0
465 -233 -191 2217 0
-227 -145 -288 2218 0
445 -358 -162 2219 0
401 -116 -487 2220 0
261 129 -115 2221 0
-430 -346 175 2222 0
61 495 417 2223 0
48 400 376 2224 0
-120 -345 125 2225 0
313 -130 320 2226 0
409 496 -481 2227 0
-131 -401 -77 2228 0
141 320 -461 2229 0
14 -389 -241 2230 0
-362 -117 456 2231 0
418 256 316 2232 0
70 188 121 2233 0
455 272 245 2234 0
102 -498 -25 2235 0
126 -408 72 2236 0
486 66 384 2237 0
414 -118 324 2238 0
-96 122 274 2239 0
491 433 -175 2240 0
233 -100 -208 2241 0
230 -49 288 2242 0
357 294 117 2243 0
401 370 187 2244 0
-403 221 -137 2245 0
468 -103 -34 2246 0
194 217 -301 2247 0
441 -461 -481 2248 0
-457 124 -391 2249 0
-332 143 53 2250 0
-72 -261 -268 2251 0
-268 -105 81 2252 0
174 224 498 2253 0
-11 325 -168 2254 0
455 -175 63 2255 0
61 -459 -319 2256 0
-472 306 194 2257 0
398 270 196 2258 0
-367 65 185 2259 0
-93 490 -290 2260 0
446 -485 -182 2261 0
398 121 -113 2262 0
225 132 413 2263 0
-65 260 -79 2264 0
-312 263 -142 2265 0
-489 -126 292 2266 0
-127 126 353 2267 0
-310 313 458 2268 0
-335 -346 188 2269 0
29 -185 32 2270 0
-125 -499 -144 2271 0
247 18 -309 2272 0
-330 -165 288 2273 0
138 211 284 2274 0
-137 -197 -300 2275 0
113 -146 -216 2276 0
-303 -210 -13 2277 0
85 -477 379 2278 0
13 162 -359 2279 0
-172 492 325 2280 0
382 332 -383 2281 0
-204 183 -293 2282 0
34 -101 -236 2283 0
-43 -226 36 2284 0
129 -428 103 2285 0
-320 -72 -405 2286 0
381 -364 -76 2287 0
-206 259 492 2288 0
-496 -301 -454 2289 0
279 165 354 2290 0
489 409 -341 2291 0
187 344 -11 2292 0
202 -411 -304 2293 0
-442 83 -77 2294 0
24 496 429 2295 0
462 -378 -51 2296 0
-433 -244 484 2297 0
326 279 -104 2298 0
-451 288 415 2299 0
358 483 -426 2300 0
190 -402 220 2301 0
443 -392 427 2302 0
110 -188 181 2303 0
457 383 148 2304 0
-382 404 -341 2305 0
-262 -312 -58 2306 0
-306 25 -43 2307 0
183 -408 313 2308 0
363 -295 251 2309 0
-471 -319 -282 2310 0
-72 -442 450 2311 0
206 -300 159 2312 0
494 -335 -444 2313 0
99 50 -169 2314 0
-402 249 -137 2315 0
203 52 144 2316 0
183 44 -483 2317 0
325 -395 99 2318 0
-207 450 -231 2319 0
373 -389 38 2320 0
402 21 476 2321 0
179 258 -257 2322 0
-180 -126 194 2323 0
321 117 -19 2324 0
453 8 329 2325 0
-153 119 370 2326 0
36 -395 -388 2327 0
-236 423 476 2328 0
-347 453 -189 2329 0
246 -235 211 2330 0
-333 108 225 2331 0
-245 -445 -258 2332 0
-261 357 -237 2333 0
-372 365 -29 2334 0
495 70 458 2335 0
-126 1 105 2336 0
-16 138 -30 2337 0
234 -279 481 2338 0
-141 248 370 2339 0
-401 47 -254 2340 0
71 -80 -53 2341 0
50 -156 183 2342 0
310 -7 438 2343 0
194 -211 282 2344 0
-79 -173 -300 2345 0
-191 -198 -442 2346 0
170 -371 132 2347 0
270 -410 493 2348 0
-437 -271 400 2349 0
361 -88 -461 2350 0
283 422 -186 2351 0
-301 -464 386 2352 0
175 431 -413 2353 0
58 187 -155 2354 0
-313 156 393 2355 0
300 -405 308 2356 0
-52 364 394 2357 0
321 -342 -128 2358 0
370 126 -314 2359 0
-159 457 -72 2360 0
83 376 -486 2361 0
-486 -208 172 2362 0
472 -481 311 2363 0
340 -456 316 2364 0
348 2 -416 2365 0
256 -351 329 2366 0
-406 -76 -458 2367 0
176 253 178 2368 0
290 -233 -192 2369 0
-491 -352 -103 2370 0
-391 431 -248 2371 0
-401 -120 384 2372 0
-389 -43 -331 2373 0
32 -192 -465 2374 0
157 118 -171 2375 0
-369 283 -374 2376 0
33 270 -332 2377 0
251 472 -220 2378 0
17 159 -140 2379 0
383 428 237 2380 0
-389 500 461 2381 0
373 -91 -61 2382 0
-277 364 285 2383 0
54 -12 -271 2384 0
-294 152 471 2385 0
97 -415 129 2386 0
-99 -144 -274 2387 0
134 -151 85 2388 0
-148 -470 -48 2389 0
-251 350 -362 2390 0
-447 -121 -305 2391 0
-412 -419 -109 2392 0
491 345 -50 2393 0
139 -369 -23 2394 0
23 -419 -245 2395 0
210 90 494 2396 0
31 -242 369 2397 0
-261 -85 335 2398 0
-292 228 -173 2399 0
488 33 -345 2400 0
-250 -241 -333 2401 0
-112 1 -159 2402 0
240 -169 247 2403 0
218 -351 304 2404 0
221 -484 -145 2405 0
413 -292 -107 2406 0
-170 149 119 2407 0
-388 345 411 2408 0
498 -89 218 2409 0
156 124 -120 2410 0
-194 492 85 2411 0
341 81 306 2412 0
-370 154 -389 2413 0
-165 -107 22 2414 0
269 -212 -213 2415 0
48 339 -189 2416 0
355 327 -424 2417 0
305 -370 11 2418 0
466 -250 30 2419 0
-150 332 -7 2420 0
-108 -262 294 2421 0
335 -234 229 2422 0
-50 -9 -89 2423 0
-407 -318 128 2424 0
-163 444 -253 2425 0
-94 377 -429 2426 0
57 418 40 2427 0
-423 292 319 2428 0
490 -266 170 2429 0
-283 287 435 2430 0
-90 -105 145 2431 0
-24 149 -44 2432 0
-215 -53 -333 2433 0
-474 -90 -212 2434 0
367 176 -15 2435 0
53 17 -496 2436 0
-330 370 -294 2437 0
-251 181 -75 2438 0
-400 -407 -477 2439 0
428 470 -473 2440 0
309 -322 118 2441 0
-390 -477 345 2442 0
-39 234 -428 2443 0
336 -48 -129 2444 0
312 213 -500 2445 0
-240 -73 58 2446 0
464 89 -271 2447 0
-6 -313 -43 2448 0
-13 469 -333 2449 0
171 -52 -46 2450 0
496 219 423 2451 0
-260 53 186 2452 0
406 353 127 2453 0
294 -261 273 2454 0
384 -282 449 2455 0
-498 144 -463 2456 0
-395 -129 -424 2457 0
150 330 360 2458 0
-226 -442 92 2459 0
194 313 125 2460 0
475 205 23 2461 0
110 -79 -189 2462 0
164 246 -22 2463 0
-360 -117 -347 2464 0
464 347 -315 2465 0
401 -319 -16 2466 0
456 -118 -269 2467 0
-272 372 -267 2468 0
371 477 3 2469 0
-388 -110 -341 2470 0
-471 289 -320 2471 0
315 -71 487 2472 0
194 -414 -401 2473 0
375 -325 435 2474 0
-497 -9 -49 2475 0
183 135 213 2476 0
-452 -98 159 2477 0
-78 -342 39 2478 0
-287 367 402 2479 0
149 -175 157 2480 0
-189 -107 409 2481 0
425 134 -447 2482 0
205 -412 -269 2483 0
-285 425 -411 2484 0
296 47 92 2485 0
-32 -154 47 2486 0
452 125 14 2487 0
62 140 420 2488 0
267 -96 -437 2489 0
-351 143 -434 2490 0
327 32 265 2491 0
-120 296 182 2492 0
-357 60 -5 2493 0
165 142 430 2494 0
120 301 -313 2495 0
80 249 281 2496 0
-443 -15 -183 2497 0
160 -230 418 2498 0
221 -286 216 2499 0
194 110 459 2500 0
-212 370 -445 2501 0
-140 87 -95 2502 0
-437 -260 403 2503 0
-53 459 215 2504 0
421 -129 88 2505 0
447 -270 498 2506 0
-188 -359 -392 2507 0
-362 -276 154 2508 0
244 -279 -318 2509 0
-499 481 278 2510 0
134 -166 128 2511 0
12 364 -437 2512 0
256 -248 -206 2513 0
-457 422 -423 2514 0
137 -99 117 2515 0
-266 299 173 2516 0
430 94 327 2517 0
-229 -45 475 2518 0
-235 174 -133 2519 0
-374 257 -467 2520 0
-248 306 36 2521 0
92 144 482 2522 0
-129 -15 106 2523 0
491 -451 288 2524 0
-200 -24 -190 2525 0
-144 413 325 2526 0
-390 -159 -147 2527 0
12 449 -400 2528 0
-457 -121 -42 2529 0
-45 119 200 2530 0
436 -53 -419 2531 0
193 151 473 2532 0
-476 327 -199 2533 0
-126 388 226 2534 0
73 487 309 2535 0
-419 256 -37 2536 0
366 -20 -304 2537 0
-45 350 -249 2538 0
-431 395 -141 2539 0
-291 -321 -471 2540 0
-451 -29 192 2541 0
-187 292 120 2542 0
-86 247 -210 2543 0
364 211 -153 2544 0
308 415 -90 2545 0
-121 198 318 2546 0
-330 463 -146 2547 0
-249 -369 107 2548 0
381 -171 439 2549 0
-133 54 416 2550 0
-268 249 -146 2551 0
-136 492 404 2552 0
350 -453 471 2553 0
467 -315 316 2554 0
481 -177 -154 2555 0
213 -33 -238 2556 0
27 -339 301 2557 0
-73 88 496 2558 0
-134 366 175 2559 0
395 -261 -470 2560 0
399 -82 -90 2561 0
-353 -107 56 2562 0
459 314 17 2563 0
122 -79 424 2564 0
303 -200 -355 2565 0
-74 451 291 2566 0
458 193 -486 2567 0
13 -367 124 2568 0
-339 22 -206 2569 0
433 -239 -359 2570 0
-146 390 -265 2571 0
-254 -286 109 2572 0
-298 -2 344 2573 0
170 -402 -367 2574 0
-465 -460 -140 2575 0
127 313 150 2576 0
-288 400 267 2577 0
-109 -52 -337 2578 0
-344 -389 -277 2579 0
-283 330 394 2580 0
-13 139 36 2581 0
220 -193 -196 2582 0
-412 -195 197 2583 0
-325 429 180 2584 0
307 -214 -80 2585 0
-276 -186 -356 2586 0
102 147 463 2587 0
406 -166 286 2588 0
206 -14 -181 2589 0
1 -295 -488 2590 0
21 -188 -410 2591 0
-327 425 81 2592 0
-265 426 500 2593 0
-453 14 -485 2594 0
470 75 -414 2595 0
104 444 -41 2596 0
-239 -283 -356 2597 0
-499 306 -310 2598 0
130 -107 -139 2599 0
-219 -130 -343 2600 0
-155 114 209 2601 0
428 108 -447 2602 0
273 237 433 2603 0
-480 -320 421 2604 0
-380 315 138 2605 0
141 34 -162 2606 0
476 243 40 2607 0
484 -195 394 2608 0
-125 60 -150 2609 0
353 -477 484 2610 0
-397 -139 -368 2611 0
-285 -257 -495 2612 0
15 -40 -414 2613 0
452 244 -183 2614 0
-311 85 -338 2615 0
-9 -368 222 2616 0
-29 -453 45 2617 0
24 203 426 2618 0
-265 173 -218 2619 0
-324 300 -12 2620 0
131 -476 -244 2621 0
-366 -496 70 2622 0
-45 175 -325 2623 0
398 -158 -359 2624 0
-397 -25 -179 2625 0
15 496 -36 2626 0
123 433 -491 2627 0
72 354 -383 2628 0
-310 41 322 2629 0
47 -476 -81 2630 0
-411 -492 -237 2631 0
-276 -172 310 2632 0
-166 -108 494 2633 0
-309 -469 259 2634 0
100 -478 -69 2635 0
456 -449 459 2636 0
-47 110 -295 2637 0
22 -58 -32 2638 0
-227 -380 -337 2639 0
-223 -41 485 2640 0
253 222 -196 2641 0
-238 -278 -300 2642 0
483 -6 101 2643 0
-465 -133 -189 2644 0
444 -89 378 2645 0
274 -401 -23 2646 0
-188 325 403 2647 0
-11 282 385 2648 0
246 276 -394 2649 0
-262 345 229 2650 0
