p cnf 2650 2150
-478 -384 248 501 0
-402 363 -10 502 0
482 451 404 503 0
-429 -27 84 504 0
-333 -145 -178 505 0
-377 -475 -149 506 0
211 228 285 507 0
-296 -219 492 508 0
-426 -174 220 509 0
-336 -351 119 510 0
274 -456 -363 511 0
244 -259 478 512 0
-74 334 206 513 0
117 280 -434 514 0
409 272 266 515 0
424 -387 -413 516 0
152 163 40 517 0
356 442 120 518 0
468 236 -366 519 0
27 -155 -356 520 0
484 -269 281 521 0
-253 -6 155 522 0
-366 170 458 523 0
-113 -437 -423 524 0
91 -206 -374 525 0
434 109 -99 526 0
-206 -264 413 527 0
-357 149 256 528 0
-418 -24 -407 529 0
-203 -493 52 530 0
-149 82 288 531 0
-196 197 268 532 0
43 -96 417 533 0
357 473 -426 534 0
-1 -468 -32 535 0
-257 61 35 536 0
253 7 312 537 0
-328 -433 -255 538 0
172 426 318 539 0
481 133 172 540 0
-51 107 338 541 0
216 -417 381 542 0
269 289 262 543 0
462 -412 -315 544 0
255 -14 -61 545 0
40 34 -278 546 0
-380 181 -3 547 0
-206 177 -344 548 0
-65 -427 -388 549 0
389 343 -473 550 0
-62 3 -138 551 0
385 382 279 552 0
86 -495 -145 553 0
-316 217 -286 554 0
454 269 164 555 0
-114 372 460 556 0
453 -176 -440 557 0
407 -408 103 558 0
-135 -109 404 559 0
-69 249 -148 560 0
-346 -482 142 561 0
59 229 396 562 0
-152 -212 -495 563 0
312 94 -267 564 0
127 -64 -490 565 0
138 -475 492 566 0
-49 265 -478 567 0
-189 431 494 568 0
-477 -463 -66 569 0
407 -313 -391 570 0
-135 -272 316 571 0
-414 386 373 572 0
-21 -241 438 573 0
-166 -464 21 574 0
-408 371 420 575 0
79 -228 166 576 0
-288 216 227 577 0
477 -185 -383 578 0
381 -112 238 579 0
-309 -469 468 580 0
75 -10 215 581 0
343 -162 -429 582 0
-273 95 96 583 0
-377 72 -5 584 0
-57 256 -78 585 0
-445 -307 248 586 0
288 -127 -431 587 0
-100 -174 4 588 0
-373 -267 -105 589 0
-194 -496 -219 590 0
-322 228 474 591 0
-232 427 -166 592 0
-33 479 -296 593 0
-458 175 35 594 0
-240 5 -136 595 0
114 315 375 596 0
-194 436 223 597 0
-380 1 -160 598 0
-279 -192 -174 599 0
-124 432 281 600 0
361 -1 98 601 0
142 144 -303 602 0
80 -281 99 603 0
-214 -480 118 604 0
-161 40 -225 605 0
347 -438 -218 606 0
331 14 -204 607 0
128 220 109 608 0
-344 -323 369 609 0
-305 -40 -355 610 0
-316 -161 -254 611 0
-343 -315 428 612 0
-271 250 -174 613 0
263 -250 332 614 0
-161 -457 491 615 0
-75 50 297 616 0
445 -425 188 617 0
-356 -65 152 618 0
111 176 63 619 0
-127 -118 -26 620 0
196 96 -467 621 0
60 311 -461 622 0
459 194 -240 623 0
72 -98 437 624 0
195 -201 381 625 0
269 141 93 626 0
359 458 441 627 0
-130 482 192 628 0
-381 -321 -243 629 0
185 -81 -362 630 0
396 196 -5 631 0
-54 30 118 632 0
-104 -369 197 633 0
137 -33 145 634 0
-3 -283 113 635 0
-171 -154 198 636 0
-450 -372 170 637 0
-413 359 180 638 0
471 -261 -78 639 0
-57 -27 435 640 0
257 -182 -249 641 0
-66 454 -244 642 0
-401 311 -328 643 0
152 -107 443 644 0
-257 424 39 645 0
-297 -195 -14 646 0
304 -306 -193 647 0
444 -196 355 648 0
239 -259 495 649 0
473 285 75 650 0
22 211 315 651 0
-12 326 175 652 0
-398 -227 411 653 0
-209 297 -234 654 0
-296 41 353 655 0
219 -5 -156 656 0
100 467 223 657 0
65 149 156 658 0
-191 186 494 659 0
-33 260 -144 660 0
-326 -269 -90 661 0
-257 -297 -385 662 0
178 -19 -353 663 0
459 410 419 664 0
180 -72 27 665 0
-429 -194 478 666 0
478 327 275 667 0
-82 -390 186 668 0
367 166 -420 669 0
497 -422 499 670 0
75 -323 347 671 0
-92 -254 34 672 0
-209 493 124 673 0
-249 347 -261 674 0
-77 206 -319 675 0
373 -301 -363 676 0
409 280 347 677 0
139 -290 -494 678 0
-302 8 -289 679 0
282 98 -166 680 0
-417 -31 112 681 0
-420 113 -152 682 0
246 -435 -100 683 0
411 451 60 684 0
486 -150 391 685 0
476 -210 481 686 0
-268 -131 224 687 0
332 -221 499 688 0
-332 -146 222 689 0
-157 321 389 690 0
277 352 396 691 0
-414 443 47 692 0
204 -363 -383 693 0
-165 -42 -400 694 0
-264 -458 -121 695 0
213 -246 208 696 0
242 167 423 697 0
-70 -201 -4 698 0
42 -9 -250 699 0
291 -298 -201 700 0
-45 207 -281 701 0
-442 141 108 702 0
-276 -269 441 703 0
432 17 -362 704 0
483 -356 444 705 0
463 -357 453 706 0
350 -155 498 707 0
65 -488 90 708 0
145 426 -435 709 0
-351 90 465 710 0
129 141 -20 711 0
265 -277 431 712 0
-179 -148 -120 713 0
-8 18 -32 714 0
-203 68 -173 715 0
479 43 375 716 0
-33 347 242 717 0
105 -122 266 718 0
73 235 -41 719 0
245 -298 -400 720 0
447 -275 86 721 0
294 469 -153 722 0
-221 -491 -350 723 0
-384 -440 -377 724 0
-270 435 193 725 0
123 216 -304 726 0
-94 144 -251 727 0
-422 173 471 728 0
-219 -369 276 729 0
-119 -376 162 730 0
66 -317 -350 731 0
136 288 -144 732 0
459 349 -368 733 0
-450 435 -461 734 0
365 235 -55 735 0
-419 -433 -423 736 0
-112 -425 -202 737 0
489 -312 241 738 0
281 289 44 739 0
-473 192 -157 740 0
225 332 32 741 0
-381 -348 478 742 0
-427 393 -118 743 0
495 367 372 744 0
-43 245 -442 745 0
-471 323 -406 746 0
248 257 -60 747 0
-497 140 59 748 0
177 -132 21 749 0
169 45 -476 750 0
-17 -247 388 751 0
233 -418 -1 752 0
267 -149 -318 753 0
337 -279 -252 754 0
355 190 109 755 0
150 -305 -191 756 0
-205 -434 337 757 0
-199 -472 -126 758 0
-404 -254 -318 759 0
-458 406 100 760 0
-79 387 181 761 0
489 -341 64 762 0
52 65 -174 763 0
-210 79 -421 764 0
-494 -330 -399 765 0
37 -20 -78 766 0
361 -339 74 767 0
395 324 477 768 0
-176 449 76 769 0
-161 421 435 770 0
-137 -472 -116 771 0
344 308 -402 772 0
-489 -326 385 773 0
-209 43 229 774 0
-253 33 275 775 0
5 254 446 776 0
242 -277 -284 777 0
187 -163 474 778 0
-340 407 248 779 0
-330 -244 -234 780 0
18 -233 362 781 0
147 -345 463 782 0
193 -254 -342 783 0
-264 220 -235 784 0
277 -253 -320 785 0
320 168 -283 786 0
-233 23 88 787 0
239 -287 -147 788 0
72 -251 -312 789 0
-283 9 -383 790 0
25 221 335 791 0
190 -325 210 792 0
-359 -56 -15 793 0
60 -99 344 794 0
226 -373 -430 795 0
-334 183 491 796 0
483 -54 -314 797 0
194 96 -205 798 0
-225 -344 10 799 0
-429 478 -48 800 0
-139 -318 288 801 0
-263 495 109 802 0
105 -230 -424 803 0
38 22 329 804 0
231 -360 331 805 0
-452 -362 -270 806 0
-58 -198 456 807 0
379 363 -85 808 0
-91 -147 -284 809 0
460 -286 -274 810 0
-98 152 -50 811 0
-102 -132 226 812 0
-185 476 -152 813 0
405 326 394 814 0
-250 -428 -419 815 0
187 75 399 816 0
-165 272 -24 817 0
-458 399 34 818 0
444 101 -152 819 0
-398 166 412 820 0
-170 383 -228 821 0
-120 -159 -232 822 0
291 81 -176 823 0
466 -334 114 824 0
412 -62 -79 825 0
-223 321 382 826 0
-231 211 -32 827 0
-371 -234 330 828 0
28 271 187 829 0
414 -284 -349 830 0
118 -110 275 831 0
-492 400 -425 832 0
500 447 -414 833 0
198 -71 176 834 0
63 33 -354 835 0
-207 -430 288 836 0
-102 311 322 837 0
400 -29 189 838 0
-66 -472 -229 839 0
262 390 -175 840 0
-14 209 -57 841 0
-192 240 -466 842 0
-283 7 264 843 0
-11 302 158 844 0
-35 493 -132 845 0
408 409 -197 846 0
95 -121 315 847 0
278 81 -317 848 0
94 -18 392 849 0
-162 38 119 850 0
-386 262 270 851 0
394 356 483 852 0
-188 79 215 853 0
103 12 100 854 0
-49 325 34 855 0
-153 420 -442 856 0
-25 108 80 857 0
-470 -261 -338 858 0
-96 126 171 859 0
260 -155 335 860 0
-42 -359 -405 861 0
286 262 -414 862 0
-275 442 -409 863 0
56 -194 -355 864 0
146 271 359 865 0
294 44 73 866 0
169 182 166 867 0
-52 284 318 868 0
-103 -473 334 869 0
-467 114 -448 870 0
255 183 -280 871 0
-335 360 -150 872 0
-345 470 156 873 0
343 -255 -261 874 0
-280 -366 -144 875 0
-10 385 -52 876 0
114 48 109 877 0
144 479 -237 878 0
56 -464 189 879 0
3 -358 381 880 0
-458 -130 453 881 0
-236 352 -272 882 0
229 -157 349 883 0
-40 88 -308 884 0
-283 34 -289 885 0
-343 338 -297 886 0
-450 409 19 887 0
-370 234 -45 888 0
20 -259 -382 889 0
-83 156 -269 890 0
-3 106 -170 891 0
295 -469 220 892 0
343 -394 9 893 0
-244 -49 499 894 0
458 -233 253 895 0
-440 89 -41 896 0
438 499 -47 897 0
-286 -354 -494 898 0
333 -58 -148 899 0
-294 106 -297 900 0
310 54 -397 901 0
184 404 -428 902 0
207 -41 -304 903 0
123 246 113 904 0
449 -379 485 905 0
452 383 314 906 0
-357 -472 -217 907 0
303 422 -320 908 0
-203 95 233 909 0
-234 -250 -30 910 0
246 495 138 911 0
221 -364 -112 912 0
236 18 191 913 0
-468 168 81 914 0
449 -243 -347 915 0
105 -384 -21 916 0
-285 -65 385 917 0
78 294 -7 918 0
-40 -385 -400 919 0
64 -74 42 920 0
265 -367 235 921 0
472 -7 161 922 0
389 -78 363 923 0
255 128 100 924 0
203 252 201 925 0
50 359 32 926 0
-113 56 -186 927 0
356 -458 92 928 0
-89 57 177 929 0
-154 -32 -299 930 0
-426 -318 -376 931 0
382 -431 455 932 0
-158 450 444 933 0
-370 -434 -186 934 0
-89 254 326 935 0
-162 -298 -187 936 0
-454 323 401 937 0
60 -273 -171 938 0
395 41 -226 939 0
137 480 -154 940 0
430 175 474 941 0
425 -313 -54 942 0
-481 376 -140 943 0
215 -287 450 944 0
-54 182 -173 945 0
-56 347 2 946 0
65 74 -161 947 0
-243 -118 -342 948 0
296 -47 359 949 0
447 -282 -67 950 0
-455 -424 415 951 0
-224 -16 359 952 0
159 250 80 953 0
-408 -320 -429 954 0
462 -66 50 955 0
17 -124 -279 956 0
-314 -444 -393 957 0
251 183 325 958 0
-43 -1 -263 959 0
292 242 102 960 0
18 -295 188 961 0
21 -415 -460 962 0
396 352 -422 963 0
-27 317 281 964 0
-483 107 310 965 0
254 55 412 966 0
-113 -338 -17 967 0
-243 224 22 968 0
70 -124 -94 969 0
-428 -198 124 970 0
147 265 -389 971 0
-186 -332 440 972 0
183 284 465 973 0
163 94 131 974 0
123 -260 235 975 0
479 419 314 976 0
-301 343 345 977 0
379 30 72 978 0
108 345 -55 979 0
206 412 -355 980 0
325 -157 -306 981 0
386 99 -272 982 0
178 -173 429 983 0
246 -200 258 984 0
466 -210 133 985 0
-270 -195 -385 986 0
-351 -325 118 987 0
-55 -480 104 988 0
-16 252 382 989 0
-65 -411 407 990 0
-90 -481 -379 991 0
395 121 -69 992 0
-68 -21 175 993 0
-114 -262 263 994 0
-371 -198 97 995 0
444 -418 317 996 0
121 82 26 997 0
320 -160 380 998 0
235 68 491 999 0
202 205 -37 1000 0
230 436 -246 1001 0
-55 -394 235 1002 0
-103 370 -364 1003 0
131 -287 -126 1004 0
-103 114 452 1005 0
5 411 -373 1006 0
-248 -251 214 1007 0
-200 -469 464 1008 0
419 -119 480 1009 0
-492 -225 132 1010 0
-412 241 -54 1011 0
-104 181 -144 1012 0
-375 -454 -129 1013 0
-485 263 458 1014 0
-186 -382 -240 1015 0
-466 -251 112 1016 0
-343 -14 62 1017 0
-304 87 -321 1018 0
-459 209 -64 1019 0
265 -229 414 1020 0
355 196 306 1021 0
-8 -119 477 1022 0
-96 -499 71 1023 0
-51 -404 212 1024 0
-205 126 -401 1025 0
-386 -256 -153 1026 0
497 257 71 1027 0
164 399 23 1028 0
-196 -314 -96 1029 0
402 -161 -420 1030 0
-46 57 -295 1031 0
396 -229 255 1032 0
-223 -321 376 1033 0
29 179 -186 1034 0
183 -357 -426 1035 0
-139 91 -137 1036 0
-182 423 344 1037 0
-185 411 -207 1038 0
-66 -422 81 1039 0
-403 -255 -81 1040 0
447 59 -45 1041 0
-63 334 496 1042 0
111 -306 138 1043 0
-395 -437 -362 1044 0
162 -488 248 1045 0
112 75 274 1046 0
27 -393 28 1047 0
-196 -129 -73 1048 0
133 -176 223 1049 0
-62 327 223 1050 0
62 92 189 1051 0
-273 419 123 1052 0
248 139 -37 1053 0
-473 -151 351 1054 0
-10 -22 -494 1055 0
282 -438 -201 1056 0
-34 -30 124 1057 0
291 -158 342 1058 0
-210 -275 -438 1059 0
45 331 -383 1060 0
-177 -216 -169 1061 0
265 -456 -142 1062 0
-262 -378 180 1063 0
104 214 -368 1064 0
-77 238 -256 1065 0
207 -409 222 1066 0
94 -441 -190 1067 0
-347 -126 253 1068 0
93 57 191 1069 0
-374 -249 412 1070 0
172 -351 -327 1071 0
75 169 -255 1072 0
394 46 -346 1073 0
96 -3 419 1074 0
264 73 77 1075 0
-317 -140 161 1076 0
191 33 491 1077 0
-275 -291 318 1078 0
74 -345 -307 1079 0
152 -135 117 1080 0
446 166 -300 1081 0
317 -189 -84 1082 0
58 98 -471 1083 0
178 390 -270 1084 0
46 -331 439 1085 0
179 -462 297 1086 0
-213 -367 496 1087 0
381 -332 472 1088 0
-73 -216 -280 1089 0
-349 257 -156 1090 0
112 62 121 1091 0
-398 241 -429 1092 0
131 197 -320 1093 0
-187 -488 453 1094 0
319 420 485 1095 0
-446 87 423 1096 0
19 -176 274 1097 0
194 -134 -258 1098 0
102 -233 -429 1099 0
-338 -207 -340 1100 0
-187 287 -330 1101 0
494 446 199 1102 0
277 220 54 1103 0
172 421 197 1104 0
-211 60 -299 1105 0
-238 -392 -355 1106 0
351 -308 -113 1107 0
354 -67 -156 1108 0
-362 -338 251 1109 0
-305 -228 -464 1110 0
467 -30 -192 1111 0
-236 -401 -390 1112 0
-38 -442 340 1113 0
427 77 -289 1114 0
-271 -24 -175 1115 0
67 229 143 1116 0
193 257 -480 1117 0
199 186 -458 1118 0
-157 -32 20 1119 0
-353 -103 -392 1120 0
184 -321 60 1121 0
-110 -114 -223 1122 0
468 -410 72 1123 0
457 24 57 1124 0
45 -492 389 1125 0
197 -300 -250 1126 0
271 -235 -497 1127 0
197 282 492 1128 0
-56 49 -247 1129 0
-304 228 322 1130 0
36 -51 -464 1131 0
-345 -398 477 1132 0
152 243 -48 1133 0
40 -8 -399 1134 0
210 -317 385 1135 0
400 -33 -363 1136 0
17 150 -196 1137 0
326 -212 -329 1138 0
295 234 60 1139 0
-478 -219 118 1140 0
394 -374 245 1141 0
153 103 255 1142 0
-124 -54 82 1143 0
-382 -139 -201 1144 0
293 -335 -449 1145 0
-339 -159 -445 1146 0
10 159 -106 1147 0
-274 235 -123 1148 0
27 -124 -422 1149 0
-212 -409 220 1150 0
207 -235 199 1151 0
496 17 29 1152 0
-259 -453 -83 1153 0
308 -36 -75 1154 0
45 468 -71 1155 0
-318 -387 -202 1156 0
216 462 -429 1157 0
-39 264 -25 1158 0
-464 -143 446 1159 0
251 21 -94 1160 0
135 255 -36 1161 0
-125 -283 18 1162 0
379 -227 90 1163 0
290 -128 69 1164 0
150 58 90 1165 0
-351 370 -256 1166 0
467 247 -181 1167 0
-50 -316 494 1168 0
-56 -147 476 1169 0
-90 240 -88 1170 0
-464 -394 312 1171 0
-466 369 407 1172 0
64 -219 245 1173 0
-53 -130 -106 1174 0
-353 128 -84 1175 0
-56 370 -46 1176 0
119 -418 473 1177 0
187 469 -370 1178 0
-411 -155 68 1179 0
-124 222 99 1180 0
-360 437 -335 1181 0
-497 456 -27 1182 0
-327 28 182 1183 0
153 -431 425 1184 0
-280 54 66 1185 0
-178 467 -160 1186 0
77 213 71 1187 0
-56 -500 -282 1188 0
-146 297 162 1189 0
-462 311 270 1190 0
188 -337 -229 1191 0
-202 -445 293 1192 0
-209 -284 204 1193 0
382 -253 -420 1194 0
425 -393 -22 1195 0
111 361 358 1196 0
35 10 -316 1197 0
-99 336 302 1198 0
-152 362 167 1199 0
-205 405 431 1200 0
-54 -424 60 1201 0
-53 258 367 1202 0
11 -442 99 1203 0
-213 -53 214 1204 0
-425 -218 -292 1205 0
209 -114 -24 1206 0
-52 110 -336 1207 0
-346 437 -98 1208 0
333 -83 412 1209 0
-99 -325 231 1210 0
424 -240 419 1211 0
293 55 35 1212 0
-115 -257 380 1213 0
404 16 156 1214 0
176 341 128 1215 0
447 -400 -204 1216 0
39 334 17 1217 0
358 146 -437 1218 0
-19 386 -126 1219 0
-335 -338 -468 1220 0
379 -115 386 1221 0
-249 423 488 1222 0
-146 -205 -183 1223 0
149 122 -468 1224 0
-333 -1 -469 1225 0
-278 472 359 1226 0
-4 -127 -281 1227 0
367 -229 260 1228 0
-379 387 224 1229 0
180 -250 345 1230 0
-300 -496 -453 1231 0
-86 383 255 1232 0
386 96 5 1233 0
154 71 -242 1234 0
428 -495 -232 1235 0
369 -195 -151 1236 0
-22 416 -342 1237 0
-311 212 11 1238 0
-184 83 -246 1239 0
-368 343 -66 1240 0
-89 -250 308 1241 0
80 243 436 1242 0
448 -298 243 1243 0
-320 203 -10 1244 0
-235 -278 -385 1245 0
496 -212 420 1246 0
-103 -306 41 1247 0
23 125 -395 1248 0
469 396 -108 1249 0
-381 -189 -394 1250 0
392 -29 234 1251 0
374 -160 465 1252 0
78 -195 -179 1253 0
-11 52 250 1254 0
-79 477 -324 1255 0
295 -31 -162 1256 0
238 93 -488 1257 0
47 -40 16 1258 0
309 -143 -66 1259 0
161 -438 404 1260 0
17 343 407 1261 0
145 153 269 1262 0
-262 470 -5 1263 0
35 -301 206 1264 0
473 151 -216 1265 0
-393 -187 -147 1266 0
-29 227 -320 1267 0
-278 -333 -204 1268 0
387 -85 159 1269 0
391 -229 -183 1270 0
138 82 371 1271 0
48 136 481 1272 0
3 384 403 1273 0
-418 -62 329 1274 0
-146 -5 -316 1275 0
41 50 -220 1276 0
237 446 -458 1277 0
-312 -48 316 1278 0
-55 489 261 1279 0
-270 195 234 1280 0
304 -488 -344 1281 0
-166 305 8 1282 0
-68 478 356 1283 0
-316 -149 280 1284 0
330 492 -442 1285 0
26 365 68 1286 0
457 -236 107 1287 0
-173 -291 -497 1288 0
52 310 -399 1289 0
-331 96 54 1290 0
423 72 -51 1291 0
-111 -276 404 1292 0
-112 -218 -482 1293 0
139 200 312 1294 0
266 214 -366 1295 0
302 9 154 1296 0
-163 -21 49 1297 0
-48 76 232 1298 0
306 99 443 1299 0
-482 -468 238 1300 0
-157 -446 -253 1301 0
-8 -478 443 1302 0
382 -93 66 1303 0
444 376 -488 1304 0
298 -140 319 1305 0
453 -485 360 1306 0
375 350 -5 1307 0
336 -307 -195 1308 0
23 169 -315 1309 0
-469 -125 177 1310 0
-286 -474 -227 1311 0
-282 216 366 1312 0
-216 -37 377 1313 0
-402 -265 -376 1314 0
-442 -201 245 1315 0
363 -32 261 1316 0
-8 -65 -391 1317 0
-179 114 -58 1318 0
-281 -407 262 1319 0
-215 111 491 1320 0
-361 -175 490 1321 0
-53 292 212 1322 0
459 -426 485 1323 0
-161 -22 306 1324 0
124 88 -359 1325 0
153 -413 -324 1326 0
-30 314 -318 1327 0
133 144 50 1328 0
-212 -394 -4 1329 0
-320 -450 448 1330 0
-457 -324 252 1331 0
-216 215 -464 1332 0
290 -21 -497 1333 0
476 -465 -277 1334 0
148 84 167 1335 0
141 -494 437 1336 0
60 221 266 1337 0
114 -499 235 1338 0
279 338 -401 1339 0
-354 84 -208 1340 0
333 11 -126 1341 0
-448 384 120 1342 0
-53 -181 47 1343 0
-372 359 -198 1344 0
-224 -140 -214 1345 0
-459 287 -439 1346 0
338 -282 269 1347 0
301 -120 186 1348 0
454 -267 -143 1349 0
395 -275 -119 1350 0
481 287 -297 1351 0
-172 -251 281 1352 0
6 480 -240 1353 0
-45 -367 -465 1354 0
-206 -315 -200 1355 0
-270 276 409 1356 0
268 -254 204 1357 0
-365 71 -448 1358 0
-91 188 -133 1359 0
397 362 123 1360 0
396 -9 17 1361 0
171 479 -407 1362 0
-467 -460 213 1363 0
-144 387 -65 1364 0
66 56 347 1365 0
114 -220 -268 1366 0
77 -367 259 1367 0
416 158 -408 1368 0
1 -27 -174 1369 0
422 262 4 1370 0
-145 477 472 1371 0
-56 205 -449 1372 0
264 -146 -302 1373 0
-373 52 75 1374 0
-399 345 -380 1375 0
6 272 -374 1376 0
-71 9 -312 1377 0
164 357 -74 1378 0
468 -37 -129 1379 0
-325 376 76 1380 0
-190 492 -484 1381 0
-48 57 -325 1382 0
-100 -488 215 1383 0
224 -23 -400 1384 0
465 147 -192 1385 0
-72 416 326 1386 0
-31 424 -420 1387 0
-179 -228 -355 1388 0
-382 -455 484 1389 0
-203 412 -55 1390 0
365 -313 -362 1391 0
473 481 -199 1392 0
267 16 218 1393 0
-326 198 35 1394 0
394 95 262 1395 0
-50 -314 -309 1396 0
199 -304 496 1397 0
-263 -95 333 1398 0
-181 -37 364 1399 0
-75 373 -380 1400 0
-224 88 -171 1401 0
-159 -416 66 1402 0
265 -490 -309 1403 0
-439 337 -217 1404 0
-478 249 488 1405 0
317 -456 -14 1406 0
-306 -469 241 1407 0
-350 -51 -65 1408 0
55 -448 -439 1409 0
265 -409 -378 1410 0
288 -229 -170 1411 0
44 493 311 1412 0
-161 -355 11 1413 0
-407 -288 476 1414 0
-393 71 419 1415 0
-331 265 407 1416 0
356 94 -40 1417 0
345 325 -126 1418 0
227 -275 264 1419 0
-321 14 -362 1420 0
170 250 36 1421 0
-225 443 -461 1422 0
-233 490 -277 1423 0
-32 280 -231 1424 0
-355 347 184 1425 0
-465 -124 -217 1426 0
456 -123 -306 1427 0
123 81 -46 1428 0
-484 173 199 1429 0
458 -496 111 1430 0
-456 32 453 1431 0
280 -411 -125 1432 0
-449 209 -479 1433 0
321 303 -476 1434 0
223 -30 74 1435 0
400 -11 322 1436 0
-359 -308 4 1437 0
-412 -291 -334 1438 0
-29 -140 120 1439 0
400 369 -205 1440 0
108 292 393 1441 0
406 -14 -381 1442 0
244 379 -475 1443 0
365 -265 500 1444 0
76 -418 384 1445 0
-36 274 404 1446 0
-437 227 -392 1447 0
-18 -303 -99 1448 0
106 270 -14 1449 0
-92 451 -401 1450 0
326 41 229 1451 0
-293 266 -145 1452 0
355 128 -70 1453 0
-261 -401 137 1454 0
-455 178 -98 1455 0
284 -282 -372 1456 0
-321 224 -449 1457 0
86 -324 -410 1458 0
363 -98 -338 1459 0
447 -330 -36 1460 0
-189 -195 -237 1461 0
90 -452 130 1462 0
240 13 -150 1463 0
8 -179 -216 1464 0
265 -481 -97 1465 0
-345 -237 -309 1466 0
-36 189 -177 1467 0
-211 367 271 1468 0
130 -63 182 1469 0
119 404 -247 1470 0
52 44 -234 1471 0
-72 409 490 1472 0
331 475 -390 1473 0
386 337 124 1474 0
345 -429 -279 1475 0
-319 -402 -187 1476 0
-347 -423 348 1477 0
-131 188 270 1478 0
379 328 -437 1479 0
92 -311 -111 1480 0
267 -216 490 1481 0
76 -99 91 1482 0
-457 331 104 1483 0
268 23 311 1484 0
113 43 -259 1485 0
447 -337 -61 1486 0
435 439 241 1487 0
370 417 -145 1488 0
-47 -61 139 1489 0
3 -325 -392 1490 0
-189 -226 -422 1491 0
65 -252 -102 1492 0
222 -221 -53 1493 0
-175 -245 212 1494 0
-449 -330 -386 1495 0
-112 -100 -206 1496 0
-477 -47 -325 1497 0
424 -496 354 1498 0
-212 -175 -392 1499 0
456 -217 264 1500 0
302 450 269 1501 0
377 388 176 1502 0
215 -468 137 1503 0
-386 208 198 1504 0
-339 202 442 1505 0
-90 338 -141 1506 0
-443 107 78 1507 0
314 238 430 1508 0
413 -463 419 1509 0
362 -319 -474 1510 0
287 75 302 1511 0
-112 235 441 1512 0
-379 176 -300 1513 0
-382 -297 -269 1514 0
-125 -75 278 1515 0
64 191 -173 1516 0
-127 -9 -94 1517 0
284 -359 -278 1518 0
463 -220 -406 1519 0
368 141 3 1520 0
-151 125 410 1521 0
165 16 -96 1522 0
-284 -433 356 1523 0
-304 -495 -279 1524 0
213 409 -41 1525 0
196 -258 -4 1526 0
-66 313 -159 1527 0
-256 463 279 1528 0
279 276 -248 1529 0
369 266 346 1530 0
455 -152 310 1531 0
-166 232 165 1532 0
42 218 326 1533 0
-422 -128 460 1534 0
-424 -276 -402 1535 0
-499 -47 95 1536 0
20 -286 -337 1537 0
-477 297 475 1538 0
-185 384 330 1539 0
-389 -132 435 1540 0
-109 -168 401 1541 0
302 242 193 1542 0
-46 79 37 1543 0
238 487 -468 1544 0
255 128 309 1545 0
-423 1 -16 1546 0
138 -183 396 1547 0
32 -472 -494 1548 0
448 115 -463 1549 0
-433 -37 -254 1550 0
79 370 174 1551 0
-222 382 15 1552 0
116 -241 -52 1553 0
-337 378 34 1554 0
-133 -326 -215 1555 0
-162 -198 172 1556 0
50 222 -324 1557 0
-257 -384 299 1558 0
301 193 -206 1559 0
71 332 323 1560 0
-30 -81 500 1561 0
286 -338 -355 1562 0
164 260 -236 1563 0
-2 -331 -429 1564 0
304 410 420 1565 0
487 -155 152 1566 0
-479 477 -361 1567 0
-496 110 -13 1568 0
260 161 -427 1569 0
189 423 -30 1570 0
453 452 -432 1571 0
159 -334 321 1572 0
148 -455 500 1573 0
86 -475 59 1574 0
-377 106 -263 1575 0
-3 242 -347 1576 0
-47 130 -453 1577 0
-290 -437 37 1578 0
130 477 151 1579 0
-375 21 382 1580 0
411 -127 25 1581 0
-58 194 -285 1582 0
-441 -19 -372 1583 0
232 246 239 1584 0
42 -112 171 1585 0
-49 -167 -499 1586 0
-366 -34 -272 1587 0
191 -216 435 1588 0
-268 322 -343 1589 0
-444 415 404 1590 0
-1 439 252 1591 0
424 461 290 1592 0
90 -44 302 1593 0
290 -37 175 1594 0
-460 384 149 1595 0
-314 -442 -457 1596 0
-420 -221 147 1597 0
-460 -11 160 1598 0
-165 -333 -144 1599 0
-368 -246 -88 1600 0
-51 -48 419 1601 0
-423 23 82 1602 0
-365 467 281 1603 0
-23 -338 -354 1604 0
-145 -71 196 1605 0
-431 95 302 1606 0
332 412 167 1607 0
-154 404 -201 1608 0
-129 -49 170 1609 0
362 -105 -436 1610 0
180 449 106 1611 0
-147 89 229 1612 0
-485 -207 -227 1613 0
314 -48 -245 1614 0
-218 328 127 1615 0
-71 -74 211 1616 0
-244 -427 1 1617 0
281 -133 162 1618 0
-484 -458 37 1619 0
65 186 -246 1620 0
301 -443 -251 1621 0
-305 292 -416 1622 0
-5 -397 -274 1623 0
365 435 -483 1624 0
485 -20 -360 1625 0
-234 -412 -16 1626 0
485 -30 -281 1627 0
-456 485 -182 1628 0
156 422 -212 1629 0
-209 -175 -323 1630 0
235 -24 287 1631 0
-170 -455 -32 1632 0
-314 -474 -167 1633 0
100 3 -233 1634 0
285 -425 -488 1635 0
286 13 -386 1636 0
-206 119 -411 1637 0
-258 -40 -425 1638 0
-6 -385 -429 1639 0
-225 -344 -292 1640 0
130 389 477 1641 0
484 368 49 1642 0
-373 232 -499 1643 0
-79 68 -220 1644 0
416 -473 -465 1645 0
-346 -112 -497 1646 0
210 335 -317 1647 0
132 -94 -89 1648 0
-452 438 15 1649 0
155 -456 308 1650 0
-422 118 -173 1651 0
-132 197 -21 1652 0
312 -391 240 1653 0
-403 -204 199 1654 0
37 -158 -388 1655 0
-1 467 -364 1656 0
-135 181 269 1657 0
-124 394 -14 1658 0
240 272 -464 1659 0
280 183 -317 1660 0
-272 -413 268 1661 0
469 -484 227 1662 0
-346 105 -108 1663 0
-221 -57 -172 1664 0
-386 -380 411 1665 0
-208 -171 -251 1666 0
448 427 -290 1667 0
287 -348 235 1668 0
-146 -275 121 1669 0
-119 -141 -385 1670 0
207 319 58 1671 0
465 436 -494 1672 0
-202 431 427 1673 0
123 441 326 1674 0
-339 -187 -55 1675 0
293 390 12 1676 0
-236 421 300 1677 0
-487 -326 -243 1678 0
79 -200 -149 1679 0
-326 96 -413 1680 0
107 104 419 1681 0
-144 277 241 1682 0
-476 73 -69 1683 0
395 285 398 1684 0
-379 141 151 1685 0
-319 -129 -44 1686 0
463 167 287 1687 0
41 -286 -277 1688 0
-216 -415 315 1689 0
77 94 -269 1690 0
-401 151 -293 1691 0
-126 167 38 1692 0
428 424 81 1693 0
-195 428 56 1694 0
192 -164 -489 1695 0
142 -217 225 1696 0
459 94 -113 1697 0
450 -5 29 1698 0
-464 372 -248 1699 0
-405 -367 -360 1700 0
-190 229 314 1701 0
-437 -163 29 1702 0
492 -81 -48 1703 0
62 -334 -437 1704 0
-339 -89 367 1705 0
-439 -350 337 1706 0
268 -192 -193 1707 0
192 -461 408 1708 0
-447 -271 334 1709 0
418 -44 283 1710 0
446 -73 277 1711 0
139 -29 -132 1712 0
132 53 -182 1713 0
123 367 377 1714 0
372 -466 424 1715 0
352 405 339 1716 0
289 201 -51 1717 0
177 -111 160 1718 0
8 -57 136 1719 0
-171 175 36 1720 0
-373 283 381 1721 0
140 232 351 1722 0
-239 -80 231 1723 0
415 412 145 1724 0
-439 -1 365 1725 0
-292 146 221 1726 0
-433 -99 66 1727 0
83 335 295 1728 0
323 -246 -337 1729 0
478 -297 -145 1730 0
-364 -292 -446 1731 0
-88 497 -354 1732 0
-416 -277 281 1733 0
14 -367 -227 1734 0
182 -306 43 1735 0
28 -40 -80 1736 0
-135 -28 482 1737 0
-98 -30 -319 1738 0
-191 -475 499 1739 0
304 -499 62 1740 0
239 -496 -466 1741 0
313 261 219 1742 0
-216 307 341 1743 0
19 98 -135 1744 0
-18 9 373 1745 0
-362 -354 -484 1746 0
-358 -381 -485 1747 0
199 -257 98 1748 0
140 -414 -43 1749 0
-175 -461 278 1750 0
199 -175 -315 1751 0
495 265 99 1752 0
312 -136 75 1753 0
213 -450 98 1754 0
311 -306 -438 1755 0
-178 -102 490 1756 0
-95 393 -348 1757 0
-247 80 -413 1758 0
-496 250 -391 1759 0
-345 -218 8 1760 0
-323 -360 387 1761 0
493 254 -19 1762 0
307 186 6 1763 0
44 -279 86 1764 0
-38 356 -335 1765 0
98 221 91 1766 0
438 -499 -450 1767 0
326 -135 -191 1768 0
-302 412 -495 1769 0
35 -200 -355 1770 0
17 -209 323 1771 0
-400 -469 -51 1772 0
-490 223 230 1773 0
354 -113 -80 1774 0
-349 89 -214 1775 0
292 -57 -299 1776 0
323 46 -394 1777 0
458 -159 -379 1778 0
237 -378 -497 1779 0
334 458 -222 1780 0
-320 105 -89 1781 0
216 -104 -478 1782 0
-335 391 -379 1783 0
410 1 -377 1784 0
391 -332 259 1785 0
476 -219 468 1786 0
140 -301 -11 1787 0
485 -413 439 1788 0
-397 -230 377 1789 0
-121 2 257 1790 0
-422 335 -415 1791 0
-263 -279 -446 1792 0
-53 -197 -88 1793 0
422 51 408 1794 0
-400 415 -169 1795 0
457 299 -14 1796 0
29 174 -479 1797 0
-417 -303 -96 1798 0
-63 -498 -360 1799 0
-449 438 -404 1800 0
323 -28 455 1801 0
81 -230 -145 1802 0
-272 237 203 1803 0
-229 58 137 1804 0
-187 39 -11 1805 0
346 307 -470 1806 0
-87 -365 -465 1807 0
60 -150 -204 1808 0
-118 -387 -159 1809 0
384 -358 -135 1810 0
-188 362 -282 1811 0
-217 -92 366 1812 0
-185 -305 -31 1813 0
-268 201 364 1814 0
-328 198 127 1815 0
423 82 226 1816 0
-489 55 -267 1817 0
-253 25 -297 1818 0
254 135 58 1819 0
424 -191 -379 1820 0
191 396 -281 1821 0
334 165 295 1822 0
-175 137 -397 1823 0
313 -132 74 1824 0
-319 107 200 1825 0
428 -378 -395 1826 0
-32 -160 198 1827 0
-463 371 322 1828 0
267 434 -187 1829 0
138 290 418 1830 0
102 -215 -375 1831 0
-185 123 -212 1832 0
-150 367 -106 1833 0
-36 -54 375 1834 0
-191 281 1 1835 0
-48 64 -333 1836 0
418 -434 382 1837 0
-214 77 216 1838 0
-255 184 69 1839 0
129 476 350 1840 0
-488 164 85 1841 0
-492 -497 -322 1842 0
-140 93 122 1843 0
-410 491 -34 1844 0
458 -223 -137 1845 0
-487 399 -135 1846 0
-32 57 -234 1847 0
-325 -53 -261 1848 0
-198 -290 51 1849 0
-153 -202 -94 1850 0
-459 -231 382 1851 0
-277 55 -436 1852 0
-442 162 468 1853 0
-5 -343 -418 1854 0
1 326 -127 1855 0
299 13 85 1856 0
239 18 297 1857 0
-383 -26 -445 1858 0
2 -305 398 1859 0
304 -60 325 1860 0
-258 446 -198 1861 0
-449 453 237 1862 0
-253 73 254 1863 0
62 427 12 1864 0
31 -399 313 1865 0
336 31 -242 1866 0
-350 -113 137 1867 0
-447 251 476 1868 0
-307 -467 -119 1869 0
222 -125 75 1870 0
229 -224 174 1871 0
-473 -393 -35 1872 0
-81 -139 -66 1873 0
-38 -319 450 1874 0
341 37 12 1875 0
370 -168 -424 1876 0
-204 -292 446 1877 0
320 -216 150 1878 0
181 -109 280 1879 0
-427 -128 -63 1880 0
169 160 318 1881 0
189 -85 323 1882 0
-133 -118 -199 1883 0
436 429 93 1884 0
-45 105 -226 1885 0
71 435 -266 1886 0
379 145 -276 1887 0
-65 443 368 1888 0
-148 99 -451 1889 0
199 388 -276 1890 0
416 32 -249 1891 0
211 -311 -98 1892 0
-206 -15 -137 1893 0
-232 46 270 1894 0
47 452 -419 1895 0
360 -466 -103 1896 0
154 -16 -458 1897 0
-183 -97 283 1898 0
-139 340 -258 1899 0
95 412 -150 1900 0
-145 -180 413 1901 0
101 122 53 1902 0
-366 -217 -179 1903 0
-277 -107 -409 1904 0
166 -349 53 1905 0
404 154 21 1906 0
-332 -479 -196 1907 0
-237 -417 300 1908 0
-40 -340 -447 1909 0
186 143 365 1910 0
-464 -467 63 1911 0
67 -186 -370 1912 0
414 -247 310 1913 0
-377 438 -146 1914 0
441 -381 184 1915 0
231 -45 257 1916 0
357 -89 -263 1917 0
98 -211 77 1918 0
125 102 -407 1919 0
444 -378 -184 1920 0
-37 -252 -286 1921 0
-86 -353 22 1922 0
-326 55 447 1923 0
-203 468 -197 1924 0
360 -431 -374 1925 0
226 452 -89 1926 0
153 -255 -56 1927 0
403 160 -358 1928 0
-390 -238 124 1929 0
12 100 -246 1930 0
173 -7 451 1931 0
-91 137 -296 1932 0
-278 381 461 1933 0
-171 323 -28 1934 0
481 -457 309 1935 0
29 -139 -237 1936 0
181 -489 229 1937 0
330 477 -75 1938 0
90 -478 165 1939 0
111 471 128 1940 0
-167 176 110 1941 0
-380 -330 251 1942 0
70 58 -492 1943 0
127 455 -168 1944 0
-3 283 -462 1945 0
-215 487 -236 1946 0
-290 -488 229 1947 0
67 479 44 1948 0
267 372 142 1949 0
-371 170 -29 1950 0
-416 38 -199 1951 0
-457 193 167 1952 0
128 369 -469 1953 0
87 367 245 1954 0
416 -54 -377 1955 0
-131 -37 -319 1956 0
-441 -488 -336 1957 0
214 -392 -422 1958 0
-273 -46 225 1959 0
-208 400 129 1960 0
-451 406 -461 1961 0
-68 -467 -13 1962 0
-213 -435 -269 1963 0
404 -372 254 1964 0
-181 280 439 1965 0
-276 348 -383 1966 0
-168 425 -440 1967 0
-30 -193 75 1968 0
-459 -161 -57 1969 0
273 -411 307 1970 0
-106 -90 -456 1971 0
41 169 -266 1972 0
311 199 477 1973 0
-186 381 -425 1974 0
-399 229 198 1975 0
347 -235 72 1976 0
429 -328 209 1977 0
106 -294 181 1978 0
158 -364 344 1979 0
465 -176 184 1980 0
371 -78 271 1981 0
-13 -150 75 1982 0
-185 -345 -379 1983 0
223 132 -45 1984 0
-272 1 -374 1985 0
279 494 175 1986 0
78 -299 -142 1987 0
-83 64 -238 1988 0
-74 73 -447 1989 0
41 -489 -117 1990 0
164 270 -78 1991 0
-403 -220 -394 1992 0
-174 -418 72 1993 0
-403 -288 -369 1994 0
-482 481 328 1995 0
-266 -276 375 1996 0
402 219 -24 1997 0
-321 -313 276 1998 0
-402 119 93 1999 0
236 -336 -298 2000 0
117 -489 -253 2001 0
-393 39 38 2002 0
-64 -220 -109 2003 0
-201 149 308 2004 0
473 -17 209 2005 0
21 -103 117 2006 0
-150 3 -337 2007 0
-28 -209 -175 2008 0
-209 -247 30 2009 0
408 -305 -494 2010 0
-253 -237 156 2011 0
105 -228 -189 2012 0
51 114 -325 2013 0
145 163 -44 2014 0
34 409 396 2015 0
-247 -343 -124 2016 0
72 -145 156 2017 0
-55 52 500 2018 0
-363 -142 -288 2019 0
-236 373 180 2020 0
-422 116 323 2021 0
-26 -298 -300 2022 0
404 315 -431 2023 0
-493 84 -49 2024 0
-76 54 252 2025 0
216 -337 356 2026 0
355 43 116 2027 0
-209 -179 302 2028 0
335 -181 -154 2029 0
322 466 75 2030 0
375 314 -167 2031 0
197 -134 351 2032 0
60 286 211 2033 0
444 -193 -499 2034 0
-244 -60 347 2035 0
222 -170 437 2036 0
-250 482 -289 2037 0
273 278 -88 2038 0
-31 6 -92 2039 0
317 -270 290 2040 0
-157 283 -321 2041 0
479 -444 -184 2042 0
293 -6 -173 2043 0
-384 -295 -143 2044 0
327 -368 470 2045 0
224 -150 -468 2046 0
-360 -388 -439 2047 0
321 55 279 2048 0
297 6 50 2049 0
-360 244 -276 2050 0
-417 467 -287 2051 0
-432 -302 238 2052 0
436 -430 -216 2053 0
-279 -112 441 2054 0
-453 261 189 2055 0
161 -243 181 2056 0
-178 -438 -53 2057 0
439 141 -6 2058 0
82 -384 35 2059 0
210 -52 30 2060 0
-334 -57 -135 2061 0
-204 440 -53 2062 0
-297 -201 420 2063 0
-14 -169 -168 2064 0
-129 336 -215 2065 0
-285 43 79 2066 0
261 266 -54 2067 0
208 233 -225 2068 0
27 256 -469 2069 0
184 176 226 2070 0
-467 -69 -251 2071 0
111 -471 -279 2072 0
447 -242 444 2073 0
-38 9 -417 2074 0
94 -466 471 2075 0
126 -351 41 2076 0
-399 55 206 2077 0
223 402 -147 2078 0
87 33 319 2079 0
-429 -319 -367 2080 0
107 176 -105 2081 0
229 -83 -376 2082 0
250 -108 -146 2083 0
-470 -267 292 2084 0
378 496 187 2085 0
477 -294 153 2086 0
471 -103 -335 2087 0
-55 239 -284 2088 0
196 319 -95 2089 0
-131 -280 345 2090 0
393 56 79 2091 0
-203 328 -120 2092 0
363 471 -341 2093 0
-252 -383 457 2094 0
450 -325 88 2095 0
-30 477 28 2096 0
-497 264 -368 2097 0
65 -215 490 2098 0
454 -204 -465 2099 0
413 465 -133 2100 0
119 254 -163 2101 0
-67 53 184 2102 0
-380 346 153 2103 0
-407 -192 376 2104 0
37 -162 481 2105 0
84 -199 360 2106 0
-141 -481 -382 2107 0
-174 341 -68 2108 0
326 -486 -151 2109 0
-468 -203 392 2110 0
-251 332 -219 2111 0
-102 -460 253 2112 0
376 -7 239 2113 0
109 -389 -296 2114 0
57 486 19 2115 0
446 -340 -429 2116 0
39 178 494 2117 0
-199 -245 -313 2118 0
26 -36 -294 2119 0
-407 287 -433 2120 0
416 418 271 2121 0
428 -236 -255 2122 0
113 -394 -476 2123 0
-153 451 92 2124 0
-258 -261 188 2125 0
-404 280 155 2126 0
-201 -397 -10 2127 0
-213 252 -413 2128 0
-291 180 -72 2129 0
408 284 -72 2130 0
-248 320 -188 2131 0
164 -235 276 2132 0
-42 -39 -190 2133 0
-236 -196 106 2134 0
-104 139 420 2135 0
480 -172 208 2136 0
-265 373 381 2137 0
-404 269 434 2138 0
-437 489 -442 2139 0
497 429 -373 2140 0
98 -64 291 2141 0
170 -367 478 2142 0
259 344 -301 2143 0
-43 -55 146 2144 0
-54 -381 312 2145 0
-323 -171 148 2146 0
357 472 160 2147 0
-108 58 321 2148 0
-198 -395 -422 2149 0
44 -359 -332 2150 0
286 233 429 2151 0
-196 -34 -162 2152 0
44 -384 -244 2153 0
3 376 -255 2154 0
-211 -493 463 2155 0
273 415 -448 2156 0
51 -415 -134 2157 0
334 290 -236 2158 0
-6 144 -237 2159 0
90 -313 391 2160 0
439 456 355 2161 0
-499 29 104 2162 0
21 323 2 2163 0
494 96 63 2164 0
-322 -295 310 2165 0
-243 -475 384 2166 0
283 -245 154 2167 0
493 -462 -105 2168 0
-266 18 -151 2169 0
30 106 160 2170 0
-71 -122 187 2171 0
-191 175 -454 2172 0
-468 -194 80 2173 0
322 352 -332 2174 0
-465 -420 -490 2175 0
-2 -153 -409 2176 0
-487 79 98 2177 0
-280 440 -34 2178 0
-222 -74 -12 2179 0
-220 -7 -402 2180 0
441 -446 -353 2181 0
-105 355 -334 2182 0
40 467 103 2183 0
104 -411 -255 2184 0
-392 179 328 2185 0
1 -320 351 2186 0
49 448 69 2187 0
162 475 -50 2188 0
-321 27 -279 2189 0
-296 344 468 2190 0
-246 127 -28 2191 0
24 -333 157 2192 0
-483 -68 -16 2193 0
-442 -52 -149 2194 0
-408 371 76 2195 0
4 -439 318 2196 0
110 176 451 2197 0
496 -226 -450 2198 0
-230 257 270 2199 0
-29 -119 371 2200 0
193 -120 274 2201 0
-245 -253 -380 2202 0
-123 362 416 2203 0
71 -366 144 2204 0
232 54 409 2205 0
-343 -160 -198 2206 0
-96 -6 128 2207 0
301 117 211 2208 0
-448 -479 -399 2209 0
-259 369 -195 2210 0
-138 -478 -404 2211 0
248 439 210 2212 0
-233 464 294 2213 0
-295 -279 46 2214 0
-202 256 -332 2215 0
246 290 377 2216 0
-397 189 449 2217 0
305 67 -120 2218 0
-327 394 -381 2219 0
271 -83 -297 2220 0
-99 -390 306 2221 0
221 140 -100 2222 0
-38 209 -53 2223 0
-459 134 41 2224 0
53 -149 328 2225 0
409 151 -227 2226 0
385 -110 -416 2227 0
-125 170 -256 2228 0
385 -429 237 2229 0
199 -230 500 2230 0
-48 278 -307 2231 0
-470 -74 -139 2232 0
-131 244 31 2233 0
-343 -412 -213 2234 0
-45 97 -471 2235 0
135 322 -97 2236 0
461 -367 -170 2237 0
435 308 -177 2238 0
219 -209 -454 2239 0
146 421 327 2240 0
105 -80 -486 2241 0
274 -490 289 2242 0
-46 489 -428 2243 0
487 117 495 2244 0
-438 -394 -239 2245 0
-142 -315 292 2246 0
315 99 428 2247 0
-378 27 8 2248 0
242 -153 466 2249 0
200 80 -271 2250 0
-177 113 -440 2251 0
466 -230 -332 2252 0
235 83 -421 2253 0
-308 -225 316 2254 0
-266 165 500 2255 0
347 -214 134 2256 0
-359 -403 -243 2257 0
23 -385 -12 2258 0
3 -242 -422 2259 0
59 -214 -496 2260 0
-269 289 380 2261 0
27 -391 -471 2262 0
-95 -328 -325 2263 0
-454 -347 255 2264 0
4 293 -307 2265 0
290 -262 -140 2266 0
426 -273 -46 2267 0
-121 55 -439 2268 0
49 -81 -486 2269 0
-7 -160 251 2270 0
36 410 -97 2271 0
161 229 -94 2272 0
-212 -389 160 2273 0
-169 54 407 2274 0
263 386 173 2275 0
-445 79 220 2276 0
-274 315 -404 2277 0
-242 382 248 2278 0
341 -84 484 2279 0
-292 336 214 2280 0
195 97 -55 2281 0
-361 183 -248 2282 0
-172 161 101 2283 0
309 346 -462 2284 0
-172 -386 -494 2285 0
339 -411 7 2286 0
-223 494 26 2287 0
-58 -465 -423 2288 0
339 -331 198 2289 0
-39 -169 163 2290 0
-306 -205 -233 2291 0
-64 479 244 2292 0
6 464 307 2293 0
-262 234 11 2294 0
382 104 -7 2295 0
213 -347 -361 2296 0
374 188 1 2297 0
267 -326 233 2298 0
-299 -93 -165 2299 0
-155 49 382 2300 0
304 452 418 2301 0
273 -352 323 2302 0
-283 464 -331 2303 0
23 -69 -198 2304 0
-413 -8 -444 2305 0
296 -175 -178 2306 0
-157 -276 286 2307 0
-81 -62 352 2308 0
-428 447 -286 2309 0
-369 276 81 2310 0
-266 481 -87 2311 0
-308 476 -38 2312 0
189 131 -245 2313 0
441 283 429 2314 0
-420 258 5 2315 0
346 -361 -414 2316 0
115 -185 213 2317 0
-106 -332 -118 2318 0
-82 123 -344 2319 0
-138 81 -135 2320 0
-327 400 -68 2321 0
301 411 -410 2322 0
-347 -472 358 2323 0
-103 -411 409 2324 0
439 246 -89 2325 0
29 -42 124 2326 0
418 -97 -75 2327 0
-327 300 414 2328 0
180 -425 83 2329 0
234 122 174 2330 0
-10 328 -70 2331 0
471 -281 -206 2332 0
119 421 -184 2333 0
-67 152 384 2334 0
137 -47 -372 2335 0
-352 99 -214 2336 0
296 295 -341 2337 0
-322 213 88 2338 0
419 267 -42 2339 0
22 175 140 2340 0
-234 -197 -27 2341 0
-164 -55 -365 2342 0
217 -145 -374 2343 0
-32 -464 -357 2344 0
431 366 357 2345 0
119 -232 356 2346 0
-194 -230 46 2347 0
-77 -229 8 2348 0
-3 409 272 2349 0
-410 -330 161 2350 0
-74 -47 -218 2351 0
100 -104 -468 2352 0
-397 66 -118 2353 0
-285 -484 495 2354 0
323 -361 -139 2355 0
-82 402 -367 2356 0
-293 -456 395 2357 0
453 55 449 2358 0
1 204 337 2359 0
-260 453 22 2360 0
317 327 -248 2361 0
459 -54 292 2362 0
-91 -248 190 2363 0
-402 -164 -147 2364 0
-284 -182 -25 2365 0
421 367 470 2366 0
-309 386 392 2367 0
-355 -340 -144 2368 0
-54 -95 -212 2369 0
-5 -322 175 2370 0
314 -252 255 2371 0
-302 -472 168 2372 0
-413 -242 229 2373 0
-94 -173 305 2374 0
326 110 -14 2375 0
191 -194 485 2376 0
121 -181 -206 2377 0
-127 468 -137 2378 0
162 221 -133 2379 0
472 -374 -132 2380 0
-14 -3 -362 2381 0
-143 311 -90 2382 0
-308 -100 -63 2383 0
83 116 -295 2384 0
-492 238 466 2385 0
101 -297 -42 2386 0
-366 -50 -51 2387 0
276 -163 -44 2388 0
-312 -200 347 2389 0
-246 319 366 2390 0
-493 -299 -407 2391 0
383 152 202 2392 0
400 437 271 2393 0
-340 16 346 2394 0
-24 -334 -426 2395 0
-446 -280 47 2396 0
-328 -119 371 2397 0
173 -34 139 2398 0
33 462 -407 2399 0
-168 147 104 2400 0
373 4 -100 2401 0
478 -81 473 2402 0
-160 -162 -473 2403 0
454 -361 -195 2404 0
410 -122 -330 2405 0
154 -213 100 2406 0
194 -3 -117 2407 0
-361 463 401 2408 0
-214 201 -165 2409 0
-213 401 -317 2410 0
-167 87 402 2411 0
267 59 -151 2412 0
-45 491 -234 2413 0
77 200 313 2414 0
24 -135 375 2415 0
-329 -146 -55 2416 0
37 -298 -445 2417 0
-283 407 -133 2418 0
234 438 292 2419 0
-209 489 392 2420 0
197 203 -230 2421 0
-370 286 354 2422 0
-366 -64 -160 2423 0
121 411 282 2424 0
-349 -88 351 2425 0
-433 -144 281 2426 0
319 95 465 2427 0
-443 256 107 2428 0
-83 -82 -126 2429 0
-260 -131 -443 2430 0
-239 -33 146 2431 0
138 255 -214 2432 0
-36 -44 -112 2433 0
-45 -409 3 2434 0
-22 -18 37 2435 0
261 115 98 2436 0
474 175 -399 2437 0
134 -99 -167 2438 0
-192 -28 283 2439 0
401 -239 362 2440 0
43 -310 -283 2441 0
-181 149 449 2442 0
337 -426 31 2443 0
-96 50 -75 2444 0
36 353 -306 2445 0
-6 -104 -42 2446 0
372 -70 -244 2447 0
-311 -41 110 2448 0
-350 -12 -322 2449 0
-254 -161 -168 2450 0
229 391 -409 2451 0
179 -48 462 2452 0
92 470 186 2453 0
-475 -3 425 2454 0
-407 -245 228 2455 0
-415 394 -318 2456 0
199 -36 -254 2457 0
-394 -197 -50 2458 0
500 -60 -376 2459 0
465 -323 -477 2460 0
-342 451 238 2461 0
165 -136 242 2462 0
-343 437 -195 2463 0
-46 -194 -74 2464 0
9 -451 -229 2465 0
-164 99 50 2466 0
273 422 209 2467 0
-429 371 117 2468 0
351 283 -479 2469 0
-478 310 20 2470 0
66 -400 -274 2471 0
188 -340 201 2472 0
-95 413 -450 2473 0
-43 189 498 2474 0
49 -84 205 2475 0
-484 189 -217 2476 0
390 147 231 2477 0
197 127 -492 2478 0
402 -234 414 2479 0
43 -170 -344 2480 0
354 481 -52 2481 0
438 -178 477 2482 0
-214 -237 -378 2483 0
-30 300 274 2484 0
440 -187 -25 2485 0
-484 37 -45 2486 0
160 258 459 2487 0
-440 31 411 2488 0
330 383 -295 2489 0
185 488 137 2490 0
-374 -326 -205 2491 0
-71 485 398 2492 0
15 446 292 2493 0
108 368 400 2494 0
81 175 -469 2495 0
-265 -164 425 2496 0
403 435 -29 2497 0
388 237 267 2498 0
-369 -480 -61 2499 0
160 -61 -310 2500 0
377 180 -346 2501 0
100 371 493 2502 0
-271 215 287 2503 0
-398 -424 185 2504 0
-202 -248 -80 2505 0
-390 -223 60 2506 0
494 -144 -255 2507 0
-153 -63 235 2508 0
77 320 -369 2509 0
-189 186 -478 2510 0
251 -392 -255 2511 0
-435 188 28 2512 0
-398 463 432 2513 0
-153 -469 240 2514 0
63 462 317 2515 0
196 -293 277 2516 0
374 111 56 2517 0
464 80 -101 2518 0
-255 -274 -369 2519 0
-55 -181 -349 2520 0
286 27 -213 2521 0
-288 -427 -230 2522 0
-107 359 -440 2523 0
464 81 359 2524 0
231 -277 -105 2525 0
128 277 87 2526 0
-358 -170 -439 2527 0
402 205 -140 2528 0
272 -62 -493 2529 0
286 -189 -327 2530 0
-426 290 473 2531 0
-213 -165 -315 2532 0
363 446 -393 2533 0
357 -244 -487 2534 0
-69 129 499 2535 0
-403 -143 -174 2536 0
79 -298 96 2537 0
209 445 86 2538 0
215 213 105 2539 0
93 400 327 2540 0
461 490 -169 2541 0
182 202 -164 2542 0
145 -63 425 2543 0
468 -361 -381 2544 0
-225 155 96 2545 0
102 59 478 2546 0
-6 410 -473 2547 0
63 332 -333 2548 0
308 329 -387 2549 0
-382 91 -271 2550 0
135 298 84 2551 0
307 160 259 2552 0
234 298 56 2553 0
135 459 -118 2554 0
-44 111 -313 2555 0
99 -459 208 2556 0
-333 -68 471 2557 0
244 166 72 2558 0
168 -475 -225 2559 0
102 -458 300 2560 0
-430 335 -468 2561 0
4 8 255 2562 0
447 -342 -30 2563 0
-274 -40 -80 2564 0
-26 -127 -100 2565 0
-239 311 -416 2566 0
-64 482 -153 2567 0
-472 190 -396 2568 0
173 165 163 2569 0
200 186 -57 2570 0
277 414 -217 2571 0
14 189 -386 2572 0
-209 -352 -143 2573 0
68 84 405 2574 0
190 97 164 2575 0
71 -8 294 2576 0
-34 363 119 2577 0
-212 -449 -238 2578 0
-16 -265 -281 2579 0
420 308 279 2580 0
13 -216 456 2581 0
-142 85 -177 2582 0
-123 429 422 2583 0
-241 373 75 2584 0
110 65 243 2585 0
396 323 324 2586 0
-366 176 -495 2587 0
448 -456 -485 2588 0
26 367 366 2589 0
463 277 -160 2590 0
-381 -220 -42 2591 0
55 247 -30 2592 0
423 -400 282 2593 0
173 90 -320 2594 0
176 -55 -105 2595 0
-152 -186 111 2596 0
-498 262 -190 2597 0
415 -22 -216 2598 0
35 -370 83 2599 0
-4 7 -199 2600 0
-55 69 -89 2601 0
470 159 -70 2602 0
148 -279 -121 2603 0
65 284 -47 2604 0
-272 -219 -71 2605 0
466 259 -270 2606 0
374 213 -159 2607 0
394 -377 -404 2608 0
60 178 -121 2609 0
-194 -316 -299 2610 0
-62 -224 341 2611 0
-246 -312 -159 2612 0
-434 81 -168 2613 0
105 136 252 2614 0
-63 296 258 2615 0
-299 479 -398 2616 0
427 262 -440 2617 0
-250 -75 -361 2618 0
484 -277 -107 2619 0
156 440 -474 2620 0
-189 18 -208 2621 0
-105 -89 110 2622 0
-487 154 13 2623 0
475 231 298 2624 0
-284 -301 465 2625 0
150 -5 -65 2626 0
-358 -353 -144 2627 0
154 361 -389 2628 0
124 -461 -13 2629 0
-247 106 465 2630 0
500 335 -237 2631 0
353 -497 39 2632 0
228 -395 365 2633 0
105 448 -12 2634 0
12 55 312 2635 0
113 -74 178 2636 0
267 463 449 2637 0
-317 174 -185 2638 0
-167 101 382 2639 0
85 396 294 2640 0
-219 -432 44 2641 0
-137 -57 -408 2642 0
-1 -22 202 2643 0
201 388 387 2644 0
-431 230 172 2645 0
188 219 218 2646 0
311 278 420 2647 0
476 201 177 2648 0
-485 -179 125 2649 0
-64 73 -255 2650 0
