p cnf 2650 2150
326 -458 -89 501 0
131 115 -74 502 0
-96 376 480 503 0
353 410 -313 504 0
-198 -364 -129 505 0
89 144 -224 506 0
407 79 -242 507 0
466 -215 421 508 0
-12 -488 -252 509 0
-28 -315 -185 510 0
87 113 80 511 0
282 154 382 512 0
-18 -37 129 513 0
-328 -102 33 514 0
-169 307 -41 515 0
-56 -410 29 516 0
287 -50 69 517 0
-261 29 -219 518 0
-234 -381 -465 519 0
-208 -281 -204 520 0
-213 216 12 521 0
-338 -474 447 522 0
458 -408 86 523 0
332 -454 -235 524 0
-90 -277 -80 525 0
319 94 -392 526 0
-141 -467 300 527 0
-287 -154 492 528 0
-230 -327 -257 529 0
-439 356 -484 530 0
343 -470 27 531 0
-126 -299 356 532 0
401 -72 482 533 0
-200 84 235 534 0
-218 370 -145 535 0
-370 -223 -6 536 0
-389 -299 -296 537 0
-231 238 -190 538 0
236 -316 -53 539 0
-304 190 -11 540 0
-181 318 196 541 0
-494 236 256 542 0
-63 457 118 543 0
189 138 -112 544 0
132 148 70 545 0
2 -403 -222 546 0
185 -218 -84 547 0
151 453 -156 548 0
-196 -308 -320 549 0
460 300 445 550 0
-57 341 318 551 0
230 -99 494 552 0
-236 456 -8 553 0
250 -406 309 554 0
-98 -32 -154 555 0
-397 -424 360 556 0
-194 -203 253 557 0
-430 360 419 558 0
48 129 293 559 0
391 -432 405 560 0
75 -31 -488 561 0
76 477 -262 562 0
-91 439 -116 563 0
354 364 -92 564 0
-264 363 21 565 0
-453 381 -432 566 0
-182 399 -294 567 0
-235 496 311 568 0
-9 -289 -482 569 0
-311 152 -331 570 0
206 311 16 571 0
333 -93 -290 572 0
74 263 -404 573 0
494 381 484 574 0
-164 -201 -354 575 0
40 -448 -6 576 0
202 462 317 577 0
369 29 -107 578 0
-473 -394 -238 579 0
-33 23 -78 580 0
-9 -416 412 581 0
224 115 -93 582 0
21 -214 212 583 0
258 173 -241 584 0
270 140 -170 585 0
165 -235 -164 586 0
120 -176 220 587 0
-273 64 113 588 0
-366 110 442 589 0
65 1 -194 590 0
-371 238 -173 591 0
417 -135 168 592 0
-385 101 -404 593 0
356 152 -361 594 0
231 365 -421 595 0
486 396 -299 596 0
-251 -112 499 597 0
-435 -305 128 598 0
407 -89 61 599 0
445 239 250 600 0
435 328 280 601 0
191 -317 248 602 0
-327 -391 -53 603 0
-23 -428 -327 604 0
-453 395 -221 605 0
231 -50 -259 606 0
88 -156 236 607 0
372 -150 -439 608 0
168 486 166 609 0
-420 476 457 610 0
297 117 462 611 0
487 -434 197 612 0
-402 500 138 613 0
46 378 87 614 0
-363 -44 -39 615 0
13 -364 -121 616 0
323 -109 473 617 0
348 36 -239 618 0
-52 208 488 619 0
-271 -171 159 620 0
25 -44 -488 621 0
-107 -202 76 622 0
-393 -246 20 623 0
-402 466 99 624 0
444 160 -461 625 0
80 -454 -172 626 0
32 -78 38 627 0
411 -463 -146 628 0
14 -188 -77 629 0
-299 -346 161 630 0
486 417 186 631 0
303 -283 -268 632 0
73 204 -1 633 0
171 -318 365 634 0
195 381 -436 635 0
98 342 259 636 0
-389 262 -472 637 0
298 -434 -486 638 0
144 167 -247 639 0
-250 -376 96 640 0
424 -204 -337 641 0
497 -387 -116 642 0
-200 141 -317 643 0
-163 -356 -381 644 0
155 -173 150 645 0
53 322 399 646 0
143 -443 -32 647 0
207 -327 -455 648 0
-458 -380 160 649 0
413 -385 361 650 0
-338 -147 357 651 0
-180 258 -288 652 0
-401 393 246 653 0
402 316 215 654 0
387 253 127 655 0
-152 254 233 656 0
-228 407 -268 657 0
196 94 206 658 0
300 427 88 659 0
397 -434 -451 660 0
299 125 -460 661 0
110 313 -98 662 0
319 -179 68 663 0
-472 42 420 664 0
-255 -476 -347 665 0
-214 -390 248 666 0
490 383 -377 667 0
126 -137 -371 668 0
-18 481 -136 669 0
99 -225 483 670 0
443 15 189 671 0
-373 -20 -85 672 0
-389 -454 212 673 0
-333 -103 -16 674 0
-434 231 -348 675 0
13 -122 -335 676 0
-485 32 198 677 0
487 132 169 678 0
159 -320 235 679 0
351 397 -432 680 0
-152 352 318 681 0
417 339 94 682 0
-219 126 -288 683 0
319 180 -457 684 0
475 398 340 685 0
415 -287 176 686 0
-282 413 -337 687 0
141 -207 -385 688 0
-150 124 470 689 0
232 213 -84 690 0
-403 287 146 691 0
-468 -477 478 692 0
-495 493 -269 693 0
-159 -168 119 694 0
497 -35 431 695 0
-357 187 441 696 0
-118 334 -353 697 0
-471 -460 281 698 0
-65 -122 354 699 0
110 -82 -459 700 0
-281 381 240 701 0
45 127 -149 702 0
19 317 197 703 0
237 -103 -266 704 0
-33 441 225 705 0
80 -110 -190 706 0
-433 187 293 707 0
-119 -145 -77 708 0
480 125 -396 709 0
-396 -356 -263 710 0
439 42 16 711 0
210 48 310 712 0
390 292 393 713 0
94 117 431 714 0
-472 -471 -98 715 0
208 474 24 716 0
-185 -322 165 717 0
-68 80 38 718 0
-295 405 -476 719 0
125 -139 166 720 0
-90 410 -126 721 0
209 138 -375 722 0
-278 -360 -453 723 0
122 485 155 724 0
-165 128 90 725 0
56 45 -445 726 0
-241 260 -76 727 0
485 79 238 728 0
-444 308 293 729 0
116 -125 -293 730 0
-196 54 -276 731 0
67 -171 69 732 0
-298 280 293 733 0
-222 -290 -287 734 0
265 235 -203 735 0
-373 -37 437 736 0
167 258 -290 737 0
145 11 228 738 0
-155 233 -345 739 0
119 -81 -177 740 0
-348 -319 352 741 0
478 412 429 742 0
-313 -292 484 743 0
-68 397 289 744 0
-171 -500 52 745 0
-107 -405 76 746 0
-99 -175 -288 747 0
181 -33 -432 748 0
193 32 44 749 0
-486 -446 120 750 0
-285 -321 -36 751 0
464 498 -432 752 0
210 171 -159 753 0
-101 -97 177 754 0
-91 204 -453 755 0
366 400 -50 756 0
-326 170 2 757 0
-63 397 -101 758 0
17 298 -456 759 0
-128 362 297 760 0
207 131 -164 761 0
-74 -456 -430 762 0
-146 -145 234 763 0
286 -22 -260 764 0
496 471 97 765 0
-36 276 -336 766 0
464 -119 367 767 0
-492 235 -357 768 0
-426 231 14 769 0
-37 373 323 770 0
482 -23 -407 771 0
290 -45 -171 772 0
-378 369 -455 773 0
352 -185 170 774 0
455 -101 218 775 0
385 412 -187 776 0
-223 91 76 777 0
339 -467 -456 778 0
-73 -468 240 779 0
48 -341 -259 780 0
-172 139 -82 781 0
-43 295 -39 782 0
34 -377 312 783 0
-120 -132 -391 784 0
127 -475 438 785 0
-204 415 -486 786 0
-353 -327 -60 787 0
-64 472 -103 788 0
-177 284 198 789 0
-106 -137 436 790 0
360 194 284 791 0
-437 -189 -465 792 0
257 -397 146 793 0
339 322 -284 794 0
-414 -41 -369 795 0
-367 13 -495 796 0
83 -14 191 797 0
-182 -27 -199 798 0
-179 -58 170 799 0
-60 423 384 800 0
78 -285 -184 801 0
-385 337 286 802 0
-103 -37 -72 803 0
-101 -398 -53 804 0
253 -337 -392 805 0
314 408 -244 806 0
-409 289 -285 807 0
226 -312 489 808 0
-275 -114 -141 809 0
479 -356 -112 810 0
13 -212 -192 811 0
-200 454 345 812 0
-450 -183 -392 813 0
190 335 -124 814 0
-41 324 -412 815 0
402 -149 177 816 0
29 -305 -363 817 0
-93 -98 -29 818 0
-255 302 92 819 0
47 -443 388 820 0
-372 -360 165 821 0
-317 396 158 822 0
3 274 -199 823 0
463 81 374 824 0
-422 262 365 825 0
324 287 299 826 0
-231 134 376 827 0
-250 144 -459 828 0
181 64 -208 829 0
1 -468 -5 830 0
306 215 17 831 0
265 -267 144 832 0
180 -273 204 833 0
-333 216 -251 834 0
-482 38 285 835 0
147 355 -56 836 0
-345 498 366 837 0
99 72 -329 838 0
463 165 -187 839 0
54 -215 442 840 0
42 251 -155 841 0
-138 453 380 842 0
308 -373 404 843 0
498 -123 -383 844 0
482 -63 -417 845 0
-244 288 169 846 0
-207 -158 -461 847 0
-314 -153 -349 848 0
-90 353 144 849 0
497 -242 459 850 0
309 -299 -361 851 0
460 345 -210 852 0
-41 247 344 853 0
-426 -262 -33 854 0
6 -7 -336 855 0
-450 -312 -460 856 0
-167 -5 -57 857 0
233 314 72 858 0
484 -438 -275 859 0
-252 -170 200 860 0
193 393 -358 861 0
365 -432 493 862 0
-120 356 -55 863 0
80 -258 228 864 0
-416 272 -303 865 0
295 -64 117 866 0
218 -432 381 867 0
391 -55 -198 868 0
-396 55 -28 869 0
-288 410 -184 870 0
-410 -409 -201 871 0
281 -286 63 872 0
-56 453 331 873 0
-145 75 -77 874 0
361 298 177 875 0
-320 -198 -438 876 0
142 -168 -268 877 0
-95 308 220 878 0
-184 182 -301 879 0
132 462 -186 880 0
-107 138 254 881 0
-388 -230 -258 882 0
88 -2 54 883 0
-258 -487 -402 884 0
368 -48 -386 885 0
-337 39 -373 886 0
-153 -281 295 887 0
-47 -247 81 888 0
-448 -370 117 889 0
-347 268 -39 890 0
493 -284 -175 891 0
104 -228 476 892 0
-159 290 8 893 0
-74 203 244 894 0
127 260 -40 895 0
248 117 422 896 0
109 -487 -377 897 0
-112 195 -156 898 0
167 223 -443 899 0
-241 221 -91 900 0
283 -90 228 901 0
415 -39 -122 902 0
-193 -152 174 903 0
-437 -63 66 904 0
-349 -334 -147 905 0
-365 23 147 906 0
228 -301 -17 907 0
-385 9 28 908 0
334 436 -131 909 0
384 44 -491 910 0
258 -109 385 911 0
164 179 -226 912 0
-14 -436 -322 913 0
315 60 419 914 0
-257 -170 203 915 0
131 -98 -304 916 0
253 315 -481 917 0
-98 -398 91 918 0
37 -378 136 919 0
-492 -285 38 920 0
-157 -138 -263 921 0
447 -40 481 922 0
-421 161 53 923 0
133 49 -382 924 0
-79 431 148 925 0
-307 -464 -64 926 0
218 -103 265 927 0
-181 -397 302 928 0
407 17 -462 929 0
-473 462 446 930 0
-232 422 -344 931 0
253 -496 285 932 0
-389 -79 -359 933 0
443 -383 -339 934 0
255 276 367 935 0
474 -233 -408 936 0
304 466 -476 937 0
472 115 -389 938 0
-145 431 352 939 0
-94 462 265 940 0
-75 -313 212 941 0
-60 384 265 942 0
-84 217 254 943 0
-342 -95 240 944 0
336 -378 -21 945 0
-223 254 -393 946 0
-255 -300 448 947 0
-322 137 -123 948 0
99 421 70 949 0
-301 179 -323 950 0
459 -165 137 951 0
-251 104 -333 952 0
-213 353 90 953 0
354 -37 -207 954 0
-115 319 -308 955 0
64 220 -130 956 0
-480 66 -284 957 0
-147 223 -382 958 0
-131 -4 -39 959 0
107 307 -466 960 0
346 -429 349 961 0
-324 497 246 962 0
-195 110 357 963 0
289 247 -361 964 0
-479 -481 83 965 0
-321 -465 -234 966 0
24 -355 458 967 0
203 -382 -144 968 0
-345 39 129 969 0
498 120 15 970 0
215 -465 -91 971 0
-399 185 279 972 0
-186 138 -193 973 0
314 313 144 974 0
-177 114 280 975 0
-498 422 333 976 0
375 -452 -204 977 0
62 -129 -105 978 0
-17 152 33 979 0
386 -315 493 980 0
67 -407 323 981 0
-268 -428 339 982 0
-322 -389 108 983 0
397 -50 -274 984 0
-252 479 -163 985 0
54 -3 -131 986 0
-260 -4 231 987 0
428 312 272 988 0
-376 -494 -240 989 0
116 424 -173 990 0
63 224 -239 991 0
-280 5 156 992 0
-103 310 -484 993 0
160 -205 183 994 0
-386 403 49 995 0
455 405 -187 996 0
207 116 -91 997 0
-300 254 212 998 0
-203 -488 -423 999 0
500 91 75 1000 0
309 -266 327 1001 0
-120 186 -432 1002 0
378 -393 -290 1003 0
-189 375 6 1004 0
-257 -165 -42 1005 0
309 -425 97 1006 0
436 -369 -68 1007 0
125 -228 -198 1008 0
-422 106 485 1009 0
440 -397 -70 1010 0
-233 73 -28 1011 0
63 459 35 1012 0
-243 449 -477 1013 0
147 -390 -301 1014 0
20 131 -366 1015 0
-366 -322 54 1016 0
378 -491 346 1017 0
-321 133 -468 1018 0
-275 -403 -298 1019 0
-281 -390 -131 1020 0
-238 -136 488 1021 0
-456 120 -176 1022 0
278 440 -276 1023 0
498 -18 142 1024 0
138 314 -20 1025 0
212 -234 -476 1026 0
463 -141 -379 1027 0
-391 -397 -403 1028 0
92 -132 -452 1029 0
180 431 -393 1030 0
149 -166 -187 1031 0
-238 -116 35 1032 0
-231 94 -477 1033 0
433 424 394 1034 0
250 -408 -164 1035 0
471 -315 -391 1036 0
-274 -440 370 1037 0
-241 265 176 1038 0
-225 389 397 1039 0
212 171 15 1040 0
110 -51 -190 1041 0
-386 -137 147 1042 0
205 364 207 1043 0
261 308 -218 1044 0
-101 452 305 1045 0
380 -154 499 1046 0
353 168 233 1047 0
-208 232 448 1048 0
-92 -238 381 1049 0
76 -292 -73 1050 0
-481 354 -495 1051 0
147 252 -197 1052 0
-196 447 -338 1053 0
-294 215 268 1054 0
313 -30 -112 1055 0
-368 247 110 1056 0
-196 -27 -277 1057 0
289 -432 183 1058 0
376 -154 -385 1059 0
-387 -312 -100 1060 0
424 435 356 1061 0
-142 -493 -224 1062 0
383 -466 -82 1063 0
380 186 -421 1064 0
-30 44 91 1065 0
-135 -241 47 1066 0
133 -296 412 1067 0
-445 142 462 1068 0
-51 183 4 1069 0
440 -258 -220 1070 0
7 -291 67 1071 0
27 -93 -287 1072 0
8 492 320 1073 0
43 39 -387 1074 0
-71 -140 -330 1075 0
-135 -471 -285 1076 0
23 -464 -446 1077 0
97 147 259 1078 0
-300 -391 -208 1079 0
327 4 -400 1080 0
425 -449 -423 1081 0
-226 -110 -401 1082 0
-169 93 152 1083 0
136 38 -17 1084 0
-240 397 206 1085 0
-11 376 276 1086 0
-180 421 371 1087 0
-268 -327 262 1088 0
283 300 429 1089 0
407 -394 50 1090 0
-385 78 85 1091 0
125 -275 -337 1092 0
170 -207 473 1093 0
-151 485 -288 1094 0
340 43 261 1095 0
-281 -241 205 1096 0
326 319 -396 1097 0
477 202 -1 1098 0
-386 -22 64 1099 0
203 123 22 1100 0
-401 -188 212 1101 0
269 489 -12 1102 0
487 278 313 1103 0
27 -384 244 1104 0
-306 -378 -67 1105 0
473 -434 321 1106 0
296 196 -386 1107 0
63 206 -304 1108 0
473 248 -411 1109 0
-184 416 115 1110 0
12 219 -403 1111 0
-191 346 416 1112 0
113 222 -373 1113 0
275 -392 412 1114 0
-485 -219 265 1115 0
-93 325 -14 1116 0
-203 -258 -72 1117 0
-208 297 -218 1118 0
258 -170 -140 1119 0
-223 285 56 1120 0
48 -142 419 1121 0
-445 45 5 1122 0
1 -483 -301 1123 0
367 -284 380 1124 0
-416 47 -117 1125 0
-479 34 213 1126 0
63 -72 -447 1127 0
-122 -364 73 1128 0
-381 211 98 1129 0
135 163 -373 1130 0
-178 71 -179 1131 0
300 435 -480 1132 0
-246 144 157 1133 0
-360 349 112 1134 0
414 -189 -228 1135 0
433 -468 -259 1136 0
-269 285 -225 1137 0
-186 190 -40 1138 0
-437 218 -315 1139 0
231 438 -226 1140 0
-20 374 284 1141 0
-39 469 -133 1142 0
404 243 265 1143 0
-336 -123 -290 1144 0
490 -109 387 1145 0
-437 215 -493 1146 0
191 -88 -427 1147 0
304 127 -176 1148 0
228 -418 383 1149 0
-66 -462 -284 1150 0
-209 -238 294 1151 0
-2 -60 179 1152 0
352 412 231 1153 0
-78 79 154 1154 0
-16 -212 337 1155 0
493 179 -79 1156 0
-38 473 45 1157 0
-451 -474 -50 1158 0
-141 491 390 1159 0
-344 200 281 1160 0
260 -266 -129 1161 0
-25 62 51 1162 0
16 -293 -331 1163 0
239 346 303 1164 0
145 155 -383 1165 0
-91 -213 391 1166 0
38 -384 -417 1167 0
93 -377 -422 1168 0
-206 371 311 1169 0
3 -213 -313 1170 0
-304 316 -1 1171 0
-445 49 99 1172 0
485 32 301 1173 0
106 62 -121 1174 0
245 -115 -158 1175 0
-358 447 -444 1176 0
337 368 392 1177 0
331 312 -57 1178 0
-253 415 332 1179 0
34 -254 -187 1180 0
345 -111 214 1181 0
-325 -52 322 1182 0
113 162 61 1183 0
251 495 -407 1184 0
-326 -96 337 1185 0
-118 186 24 1186 0
60 -68 344 1187 0
42 343 -161 1188 0
-378 -62 -373 1189 0
-266 -348 -89 1190 0
218 -306 -140 1191 0
309 240 357 1192 0
-357 -364 39 1193 0
140 379 -72 1194 0
-150 353 347 1195 0
-151 309 90 1196 0
289 -342 -249 1197 0
-498 -483 -474 1198 0
481 -335 -410 1199 0
119 110 483 1200 0
-317 404 -326 1201 0
-235 -500 -233 1202 0
-200 -391 -8 1203 0
-248 -499 153 1204 0
214 322 -130 1205 0
464 -64 339 1206 0
182 465 227 1207 0
359 -491 -35 1208 0
262 -271 -88 1209 0
-246 -73 -69 1210 0
-117 -219 365 1211 0
142 -406 451 1212 0
36 -429 338 1213 0
-55 145 227 1214 0
-305 -68 -243 1215 0
7 335 386 1216 0
-394 65 97 1217 0
-260 -295 -187 1218 0
-488 -353 132 1219 0
164 21 483 1220 0
-311 -485 390 1221 0
-413 -419 169 1222 0
351 -6 -198 1223 0
-230 160 107 1224 0
-103 166 -342 1225 0
-277 -309 -87 1226 0
280 223 297 1227 0
-100 -495 -197 1228 0
-174 -474 -61 1229 0
-117 352 -255 1230 0
173 -428 -232 1231 0
-466 450 178 1232 0
-432 -210 158 1233 0
-81 -38 423 1234 0
-95 478 226 1235 0
-316 -319 -412 1236 0
-81 -172 -310 1237 0
-82 -463 133 1238 0
497 -488 124 1239 0
448 225 481 1240 0
-421 -342 -379 1241 0
-104 294 4 1242 0
478 159 -429 1243 0
54 224 -428 1244 0
314 -322 301 1245 0
-137 -391 49 1246 0
209 -50 -422 1247 0
145 -99 -15 1248 0
101 -401 62 1249 0
330 272 -218 1250 0
77 -117 -306 1251 0
493 280 -198 1252 0
323 -251 122 1253 0
310 409 28 1254 0
-147 -415 487 1255 0
1 73 -21 1256 0
258 206 9 1257 0
-84 -430 412 1258 0
161 -312 -388 1259 0
462 211 336 1260 0
268 298 276 1261 0
288 -367 193 1262 0
-184 -151 189 1263 0
-2 177 31 1264 0
289 400 -375 1265 0
-498 188 -139 1266 0
-96 214 420 1267 0
5 240 451 1268 0
95 86 -241 1269 0
-1 261 420 1270 0
-280 -298 443 1271 0
-282 463 -392 1272 0
-484 353 276 1273 0
-250 -500 421 1274 0
123 284 -420 1275 0
-461 -260 290 1276 0
-162 -456 375 1277 0
34 238 307 1278 0
487 62 -268 1279 0
-467 179 490 1280 0
121 293 88 1281 0
384 85 -398 1282 0
-333 44 -193 1283 0
329 -150 -350 1284 0
-33 -195 58 1285 0
-196 143 238 1286 0
163 -359 -308 1287 0
365 -403 -371 1288 0
321 -291 424 1289 0
86 -208 368 1290 0
178 -191 -161 1291 0
-181 188 486 1292 0
256 308 -170 1293 0
-197 43 -39 1294 0
195 -23 58 1295 0
41 -23 -89 1296 0
-423 427 371 1297 0
353 -31 434 1298 0
-366 325 -382 1299 0
-271 404 -36 1300 0
160 -146 164 1301 0
-273 -43 156 1302 0
-450 -295 64 1303 0
-250 394 4 1304 0
-1 151 144 1305 0
-480 -292 80 1306 0
477 -98 61 1307 0
10 203 -198 1308 0
-321 300 -276 1309 0
67 -57 380 1310 0
-138 -248 -279 1311 0
-56 212 199 1312 0
-156 352 478 1313 0
-244 2 -47 1314 0
296 -405 475 1315 0
483 -362 205 1316 0
-161 118 -316 1317 0
-361 375 -96 1318 0
266 -14 -465 1319 0
-481 -224 321 1320 0
457 101 -445 1321 0
-36 -208 422 1322 0
360 -10 250 1323 0
65 -16 397 1324 0
-216 242 -289 1325 0
273 306 -275 1326 0
-53 -441 92 1327 0
-327 134 135 1328 0
29 -92 -221 1329 0
-322 223 -462 1330 0
196 -48 -74 1331 0
421 -143 320 1332 0
434 8 396 1333 0
21 270 -453 1334 0
496 113 304 1335 0
296 111 25 1336 0
322 135 156 1337 0
-472 -385 122 1338 0
-142 174 464 1339 0
239 -118 -71 1340 0
-184 -203 423 1341 0
-200 135 -411 1342 0
-454 416 440 1343 0
291 483 -336 1344 0
28 243 239 1345 0
-321 482 395 1346 0
-343 290 6 1347 0
-116 182 -175 1348 0
-307 323 -73 1349 0
-315 419 -363 1350 0
46 167 -49 1351 0
-409 384 395 1352 0
-426 -261 -417 1353 0
414 -339 -66 1354 0
-210 -327 372 1355 0
69 -121 332 1356 0
412 -400 355 1357 0
443 -240 -41 1358 0
126 -435 49 1359 0
55 356 -278 1360 0
-66 -201 409 1361 0
-170 423 180 1362 0
130 -493 194 1363 0
-84 -4 -194 1364 0
492 -39 -138 1365 0
-489 -431 -468 1366 0
138 4 295 1367 0
183 252 200 1368 0
-60 -350 -157 1369 0
-400 -317 155 1370 0
239 331 -435 1371 0
-127 -466 -454 1372 0
-305 -340 308 1373 0
-288 -303 95 1374 0
361 378 -164 1375 0
-277 142 -487 1376 0
-178 228 -452 1377 0
-215 399 -32 1378 0
-432 118 4 1379 0
273 -233 429 1380 0
47 -20 84 1381 0
170 -427 47 1382 0
-79 -186 453 1383 0
299 394 252 1384 0
165 242 -255 1385 0
-402 469 328 1386 0
477 -308 -317 1387 0
2 140 -21 1388 0
369 328 108 1389 0
-150 354 -191 1390 0
373 -268 368 1391 0
38 325 -306 1392 0
-408 -239 316 1393 0
-276 57 364 1394 0
-439 -351 468 1395 0
93 451 217 1396 0
-100 366 -235 1397 0
-218 294 -169 1398 0
93 -487 18 1399 0
-418 318 -428 1400 0
163 -361 216 1401 0
462 30 -454 1402 0
-428 496 -79 1403 0
-364 345 258 1404 0
141 290 6 1405 0
95 -481 330 1406 0
310 -362 122 1407 0
-362 55 107 1408 0
-286 -155 489 1409 0
-347 63 -42 1410 0
58 -42 87 1411 0
-174 268 -352 1412 0
-454 21 357 1413 0
160 -396 -445 1414 0
-10 -316 491 1415 0
87 -179 -47 1416 0
-291 -376 239 1417 0
-392 -69 -289 1418 0
-223 -338 -420 1419 0
-378 -329 -150 1420 0
-238 338 170 1421 0
-494 -405 -428 1422 0
-27 -249 99 1423 0
62 407 -245 1424 0
467 -392 -129 1425 0
-386 342 -344 1426 0
-71 2 -278 1427 0
-154 -187 -189 1428 0
-231 -66 -125 1429 0
151 -296 338 1430 0
455 -252 -102 1431 0
252 -99 258 1432 0
-269 26 111 1433 0
-240 -292 142 1434 0
425 464 374 1435 0
-280 -234 -23 1436 0
219 46 -310 1437 0
188 195 -481 1438 0
64 437 -454 1439 0
84 4 -299 1440 0
-478 402 102 1441 0
-336 -153 21 1442 0
-70 -135 -375 1443 0
140 -421 -297 1444 0
-226 303 -67 1445 0
385 -415 -17 1446 0
32 39 174 1447 0
299 -86 -344 1448 0
253 229 275 1449 0
471 113 345 1450 0
-432 360 -65 1451 0
339 347 494 1452 0
-182 109 470 1453 0
-61 445 -4 1454 0
350 -155 -303 1455 0
-87 -253 -103 1456 0
-125 -143 -428 1457 0
29 372 -52 1458 0
452 298 -233 1459 0
-287 -189 304 1460 0
318 -115 -361 1461 0
-118 346 395 1462 0
243 -488 73 1463 0
-243 -438 -308 1464 0
260 98 296 1465 0
-192 -250 -40 1466 0
337 -142 -288 1467 0
400 -218 -469 1468 0
-220 -455 463 1469 0
-95 -112 390 1470 0
-83 -358 205 1471 0
-376 148 97 1472 0
-439 151 226 1473 0
454 -382 492 1474 0
-475 446 54 1475 0
227 2 396 1476 0
-200 -361 77 1477 0
232 -337 218 1478 0
40 206 -446 1479 0
64 -266 -449 1480 0
-323 407 433 1481 0
335 -42 161 1482 0
441 -256 399 1483 0
397 495 -484 1484 0
262 -101 416 1485 0
80 83 -368 1486 0
-143 -13 100 1487 0
-315 269 -13 1488 0
-242 106 -97 1489 0
-215 -208 180 1490 0
-358 -275 372 1491 0
-107 -237 26 1492 0
325 347 -18 1493 0
-15 340 406 1494 0
-31 259 295 1495 0
23 -391 -287 1496 0
46 -119 72 1497 0
-366 -57 159 1498 0
442 -184 74 1499 0
-235 420 -27 1500 0
196 415 350 1501 0
499 74 43 1502 0
163 -391 354 1503 0
-447 -412 -465 1504 0
46 296 -83 1505 0
-217 76 334 1506 0
-197 331 -269 1507 0
-54 -204 -107 1508 0
-478 -420 471 1509 0
248 -421 497 1510 0
429 -212 -13 1511 0
-226 -235 -94 1512 0
-31 -136 -351 1513 0
-185 -399 -466 1514 0
-342 -471 -110 1515 0
45 370 -29 1516 0
266 -194 472 1517 0
263 139 376 1518 0
457 -364 -407 1519 0
25 -144 250 1520 0
121 -149 39 1521 0
340 473 409 1522 0
59 489 259 1523 0
-387 -249 384 1524 0
-137 -383 -300 1525 0
-208 189 384 1526 0
-333 -403 -353 1527 0
341 -92 -14 1528 0
-402 241 -44 1529 0
80 61 166 1530 0
122 372 187 1531 0
-103 334 179 1532 0
139 -258 53 1533 0
40 446 -385 1534 0
-406 -219 20 1535 0
73 -49 -299 1536 0
-55 230 147 1537 0
-283 -464 -397 1538 0
477 253 -293 1539 0
-122 397 124 1540 0
343 -18 413 1541 0
-327 -93 300 1542 0
11 -239 237 1543 0
142 25 -265 1544 0
402 -198 -294 1545 0
238 -474 151 1546 0
393 147 486 1547 0
-33 -338 -259 1548 0
333 -228 -444 1549 0
456 349 128 1550 0
-390 280 407 1551 0
-135 222 -465 1552 0
7 64 -285 1553 0
-299 348 -407 1554 0
-134 -91 -241 1555 0
397 56 -455 1556 0
105 -367 -200 1557 0
-150 -265 -465 1558 0
179 89 -203 1559 0
405 -337 494 1560 0
192 -283 -476 1561 0
147 249 -129 1562 0
-81 424 -250 1563 0
-168 -358 297 1564 0
-192 -178 -230 1565 0
-202 388 74 1566 0
434 94 -378 1567 0
338 112 -429 1568 0
-407 -208 -423 1569 0
-422 -87 -453 1570 0
-189 372 -51 1571 0
-304 -429 -422 1572 0
-446 -40 91 1573 0
-9 382 464 1574 0
-278 -410 -357 1575 0
402 -475 471 1576 0
262 476 83 1577 0
-179 -472 -191 1578 0
-357 472 115 1579 0
-269 63 258 1580 0
448 75 205 1581 0
399 409 -133 1582 0
162 455 -125 1583 0
-128 -464 -28 1584 0
29 207 8 1585 0
151 466 449 1586 0
356 493 409 1587 0
150 274 253 1588 0
-406 437 -70 1589 0
231 284 -79 1590 0
-26 -231 -151 1591 0
467 148 -387 1592 0
34 120 -367 1593 0
237 328 433 1594 0
25 161 449 1595 0
-37 345 249 1596 0
-41 -424 86 1597 0
-466 -175 -330 1598 0
-413 43 233 1599 0
-230 -175 -237 1600 0
-298 219 296 1601 0
-314 -261 186 1602 0
298 23 -455 1603 0
469 -160 18 1604 0
315 404 -283 1605 0
169 230 378 1606 0
383 361 191 1607 0
137 -233 490 1608 0
-390 61 -319 1609 0
146 -64 -283 1610 0
-320 57 -224 1611 0
-436 413 289 1612 0
-182 -116 -214 1613 0
11 -385 -325 1614 0
80 -14 -253 1615 0
-172 12 -479 1616 0
-212 -1 -207 1617 0
66 -434 -450 1618 0
105 -297 -265 1619 0
-408 74 197 1620 0
-222 201 -307 1621 0
-143 171 119 1622 0
161 -57 -333 1623 0
55 -151 490 1624 0
-329 93 376 1625 0
92 266 -72 1626 0
-155 -357 -147 1627 0
280 -81 -439 1628 0
-157 472 354 1629 0
-7 -140 -26 1630 0
72 -356 176 1631 0
-318 -243 394 1632 0
259 -328 -331 1633 0
127 337 -277 1634 0
-37 429 321 1635 0
-50 -442 462 1636 0
-4 -32 -436 1637 0
92 299 164 1638 0
-231 -362 219 1639 0
36 475 -148 1640 0
1 -249 -419 1641 0
499 -422 -190 1642 0
150 94 187 1643 0
-110 -497 -492 1644 0
-151 173 266 1645 0
-468 38 222 1646 0
-15 -85 424 1647 0
421 -77 378 1648 0
-260 320 73 1649 0
-451 -282 -38 1650 0
20 399 384 1651 0
-186 -450 -449 1652 0
285 260 370 1653 0
-166 98 440 1654 0
-409 193 264 1655 0
489 155 302 1656 0
245 102 451 1657 0
163 -367 229 1658 0
-480 -360 -54 1659 0
-364 61 269 1660 0
-243 -451 -171 1661 0
27 -337 -135 1662 0
210 -472 478 1663 0
15 155 -297 1664 0
406 -161 -157 1665 0
-245 -126 -274 1666 0
-17 146 236 1667 0
-442 498 419 1668 0
-60 -439 309 1669 0
270 43 357 1670 0
-361 259 -418 1671 0
-149 -420 405 1672 0
73 -437 -434 1673 0
-129 -338 -376 1674 0
-4 448 97 1675 0
-95 16 -235 1676 0
147 173 232 1677 0
26 -97 19 1678 0
-69 152 406 1679 0
15 -122 -321 1680 0
-255 466 78 1681 0
-337 351 -297 1682 0
-276 -189 -461 1683 0
280 354 -151 1684 0
216 -12 -241 1685 0
22 -87 -238 1686 0
-47 -223 82 1687 0
125 27 -293 1688 0
-224 -447 -255 1689 0
182 -21 -409 1690 0
498 -374 125 1691 0
-362 -457 264 1692 0
229 434 -53 1693 0
271 -478 163 1694 0
-298 493 -97 1695 0
-175 -89 248 1696 0
169 393 -381 1697 0
263 -396 43 1698 0
495 118 -290 1699 0
326 -145 -193 1700 0
-349 -217 -495 1701 0
298 -284 -157 1702 0
-183 155 277 1703 0
49 -166 -324 1704 0
-152 54 181 1705 0
216 315 201 1706 0
-209 -471 -81 1707 0
54 348 -263 1708 0
117 344 -334 1709 0
-289 -253 5 1710 0
-34 462 -246 1711 0
-278 177 -399 1712 0
292 -312 -113 1713 0
245 204 -347 1714 0
-432 90 353 1715 0
65 351 144 1716 0
229 480 -236 1717 0
26 146 413 1718 0
282 316 -20 1719 0
293 -48 106 1720 0
298 408 -113 1721 0
-143 -7 -313 1722 0
-289 108 -455 1723 0
339 -342 -320 1724 0
-397 128 -285 1725 0
11 -380 490 1726 0
452 -346 -212 1727 0
-376 -127 -449 1728 0
-26 -93 -36 1729 0
436 -342 178 1730 0
-355 -405 71 1731 0
34 -200 -273 1732 0
-189 176 224 1733 0
-203 329 -18 1734 0
35 285 -388 1735 0
145 -99 -457 1736 0
438 -396 445 1737 0
-374 438 -436 1738 0
429 -393 -181 1739 0
-483 -287 57 1740 0
28 -369 -75 1741 0
-299 -457 -360 1742 0
-292 268 84 1743 0
-216 1 391 1744 0
215 49 428 1745 0
-241 -4 -224 1746 0
-80 -397 -308 1747 0
336 387 129 1748 0
-474 191 341 1749 0
20 403 -232 1750 0
-91 450 325 1751 0
-367 476 -372 1752 0
-437 43 -59 1753 0
58 -216 -477 1754 0
-10 -498 302 1755 0
-237 474 212 1756 0
313 -3 -385 1757 0
464 -185 160 1758 0
-42 216 165 1759 0
-349 476 -39 1760 0
-232 208 -429 1761 0
45 30 253 1762 0
-300 -100 34 1763 0
135 379 -176 1764 0
-157 210 146 1765 0
-274 423 -488 1766 0
387 219 -282 1767 0
-163 274 88 1768 0
-359 339 -265 1769 0
131 -489 -314 1770 0
-211 9 348 1771 0
-388 -226 -498 1772 0
-431 30 39 1773 0
-450 -482 -449 1774 0
-131 -95 73 1775 0
87 -285 -67 1776 0
-470 -383 320 1777 0
10 277 -451 1778 0
-375 337 -480 1779 0
-334 -482 -27 1780 0
-245 -238 -82 1781 0
-296 -147 -212 1782 0
374 9 57 1783 0
412 -329 9 1784 0
-81 -151 -295 1785 0
-65 103 497 1786 0
-107 -376 63 1787 0
-58 -334 -57 1788 0
-206 -20 191 1789 0
264 -118 -378 1790 0
353 -300 -144 1791 0
-241 328 300 1792 0
71 -162 -306 1793 0
-334 -156 137 1794 0
-325 492 -128 1795 0
241 320 -246 1796 0
361 -191 -262 1797 0
67 462 -58 1798 0
462 -320 98 1799 0
-293 -107 -200 1800 0
393 -116 -416 1801 0
-11 -193 -258 1802 0
-332 350 109 1803 0
183 -15 -273 1804 0
292 -291 -406 1805 0
265 -6 264 1806 0
319 147 135 1807 0
-140 -97 -390 1808 0
242 -415 201 1809 0
282 -474 -477 1810 0
-74 407 425 1811 0
391 -21 -151 1812 0
-431 331 -56 1813 0
-227 -405 -347 1814 0
-341 -280 176 1815 0
328 -169 345 1816 0
-154 15 488 1817 0
162 367 -496 1818 0
155 -68 156 1819 0
114 47 36 1820 0
185 -307 -5 1821 0
238 -329 327 1822 0
-361 423 288 1823 0
-406 129 98 1824 0
302 -29 183 1825 0
-213 -29 -78 1826 0
-434 -414 452 1827 0
273 476 475 1828 0
488 392 298 1829 0
-482 471 466 1830 0
11 -274 311 1831 0
-63 220 347 1832 0
-13 496 161 1833 0
14 134 -52 1834 0
467 -407 281 1835 0
205 432 -46 1836 0
-22 -54 -335 1837 0
354 280 -2 1838 0
-403 -413 371 1839 0
-497 146 -1 1840 0
173 -229 -247 1841 0
29 181 101 1842 0
405 -423 -346 1843 0
127 -353 -212 1844 0
-491 314 198 1845 0
149 31 183 1846 0
277 -289 24 1847 0
-143 -133 192 1848 0
-70 -396 187 1849 0
309 470 -127 1850 0
-275 88 319 1851 0
-492 -40 327 1852 0
-270 -295 165 1853 0
251 -39 245 1854 0
-191 -274 143 1855 0
-497 169 25 1856 0
316 430 389 1857 0
-475 64 -432 1858 0
-426 -68 156 1859 0
500 -187 429 1860 0
161 -49 -21 1861 0
-296 346 291 1862 0
252 235 436 1863 0
130 383 -231 1864 0
-468 52 -421 1865 0
341 -337 -107 1866 0
-194 -346 302 1867 0
-464 -94 -333 1868 0
425 112 -128 1869 0
366 267 3 1870 0
364 470 16 1871 0
110 127 138 1872 0
-191 -87 -451 1873 0
-227 -496 245 1874 0
297 -70 -198 1875 0
136 123 -393 1876 0
-394 432 489 1877 0
-277 79 35 1878 0
70 83 164 1879 0
431 60 390 1880 0
-312 -70 145 1881 0
-239 13 -2 1882 0
-76 -157 -294 1883 0
27 470 -467 1884 0
-257 136 -219 1885 0
289 481 93 1886 0
128 -176 30 1887 0
145 -353 28 1888 0
499 -277 131 1889 0
-347 402 -82 1890 0
82 -495 -415 1891 0
368 343 172 1892 0
380 -123 199 1893 0
-331 -219 -376 1894 0
459 322 -86 1895 0
-460 449 333 1896 0
311 117 102 1897 0
225 -254 -371 1898 0
394 448 155 1899 0
85 -468 369 1900 0
310 -432 305 1901 0
-257 -112 36 1902 0
-59 177 -384 1903 0
-188 420 -89 1904 0
498 -308 338 1905 0
16 221 -281 1906 0
-326 -67 -496 1907 0
-278 400 116 1908 0
-430 336 -398 1909 0
-488 191 -302 1910 0
-11 125 58 1911 0
-494 397 -248 1912 0
336 -306 -54 1913 0
-490 405 -83 1914 0
307 454 399 1915 0
-169 -389 9 1916 0
-51 437 -373 1917 0
4 334 418 1918 0
-32 155 -119 1919 0
96 -79 435 1920 0
245 -87 218 1921 0
-243 52 -28 1922 0
118 -97 -40 1923 0
-451 99 271 1924 0
305 280 427 1925 0
-56 -456 313 1926 0
232 414 9 1927 0
181 173 417 1928 0
-129 440 402 1929 0
170 480 467 1930 0
156 -473 154 1931 0
191 -208 432 1932 0
321 -24 -277 1933 0
408 -314 179 1934 0
-47 393 -78 1935 0
229 86 -129 1936 0
204 167 271 1937 0
194 -299 273 1938 0
-304 -268 -132 1939 0
58 -201 64 1940 0
-460 268 -275 1941 0
227 -294 390 1942 0
248 20 -342 1943 0
-212 -449 -388 1944 0
452 419 -175 1945 0
494 68 -392 1946 0
177 -221 -281 1947 0
-282 336 5 1948 0
-120 -415 449 1949 0
-59 413 278 1950 0
12 475 -420 1951 0
-268 -32 -409 1952 0
-393 -299 377 1953 0
-33 -188 -240 1954 0
-465 -493 -460 1955 0
-249 -473 -257 1956 0
-487 -320 -232 1957 0
190 -384 -150 1958 0
-48 -65 -399 1959 0
336 -219 -391 1960 0
-404 116 -153 1961 0
-309 134 -404 1962 0
-353 -305 232 1963 0
66 -409 -227 1964 0
434 467 11 1965 0
413 494 -414 1966 0
-105 60 121 1967 0
362 380 38 1968 0
-349 442 245 1969 0
192 -55 317 1970 0
115 -267 -278 1971 0
390 -368 136 1972 0
92 -381 277 1973 0
61 -64 484 1974 0
134 118 -422 1975 0
361 -322 -498 1976 0
349 60 500 1977 0
-268 245 -76 1978 0
344 -30 -473 1979 0
123 -191 -232 1980 0
-241 407 211 1981 0
272 -110 205 1982 0
-227 -380 -365 1983 0
307 287 261 1984 0
-429 278 167 1985 0
457 26 440 1986 0
-128 -219 342 1987 0
-275 -90 -429 1988 0
365 471 -341 1989 0
-367 392 190 1990 0
-98 -450 -126 1991 0
-468 -438 -82 1992 0
386 -169 388 1993 0
296 -67 307 1994 0
-277 -93 389 1995 0
-407 368 -496 1996 0
-268 168 -392 1997 0
274 206 -278 1998 0
434 397 200 1999 0
-282 -295 275 2000 0
-260 -39 -357 2001 0
239 92 234 2002 0
-179 -117 -124 2003 0
-345 -380 411 2004 0
-172 386 218 2005 0
-240 -262 -77 2006 0
-398 -410 -194 2007 0
-414 -379 230 2008 0
-150 429 283 2009 0
-19 168 85 2010 0
-15 -57 -1 2011 0
98 93 421 2012 0
-114 -280 377 2013 0
50 -251 29 2014 0
-7 -216 78 2015 0
-54 41 5 2016 0
355 10 142 2017 0
68 99 -449 2018 0
154 432 130 2019 0
129 96 -330 2020 0
316 -471 21 2021 0
-55 -307 -467 2022 0
-384 372 -394 2023 0
-431 337 122 2024 0
93 55 -48 2025 0
-231 421 38 2026 0
-487 297 -356 2027 0
396 345 -228 2028 0
-64 457 -173 2029 0
-152 344 448 2030 0
248 -135 291 2031 0
-13 148 -242 2032 0
229 195 435 2033 0
464 437 439 2034 0
499 -255 427 2035 0
-228 331 19 2036 0
-371 40 484 2037 0
-209 390 320 2038 0
65 -459 -34 2039 0
283 -490 -111 2040 0
-50 -432 459 2041 0
444 427 152 2042 0
-405 -247 162 2043 0
-129 -439 342 2044 0
245 -99 -334 2045 0
14 384 -374 2046 0
-453 172 425 2047 0
428 -254 403 2048 0
428 479 -53 2049 0
282 345 -244 2050 0
-205 -454 -108 2051 0
19 74 -76 2052 0
307 -136 404 2053 0
-287 496 -396 2054 0
-482 402 446 2055 0
218 -133 -76 2056 0
-292 -406 111 2057 0
136 247 481 2058 0
305 -433 122 2059 0
152 -118 444 2060 0
199 462 -445 2061 0
244 29 397 2062 0
-119 253 499 2063 0
397 48 103 2064 0
16 349 432 2065 0
304 -148 -62 2066 0
-176 133 -407 2067 0
-150 404 -477 2068 0
348 -293 402 2069 0
-388 -435 -468 2070 0
481 -353 463 2071 0
137 -50 -277 2072 0
419 46 437 2073 0
360 -43 482 2074 0
-245 -106 -378 2075 0
-221 295 -135 2076 0
-309 -15 328 2077 0
-264 -383 273 2078 0
409 -298 33 2079 0
-388 -6 322 2080 0
-342 103 -388 2081 0
301 -143 -385 2082 0
-399 93 47 2083 0
-196 24 -85 2084 0
137 -14 -332 2085 0
421 313 362 2086 0
-77 -127 228 2087 0
407 -94 -8 2088 0
141 442 -420 2089 0
-10 37 447 2090 0
109 -495 -491 2091 0
-245 -207 178 2092 0
185 -396 495 2093 0
38 219 172 2094 0
-95 212 452 2095 0
244 465 -425 2096 0
85 -417 -113 2097 0
492 117 410 2098 0
-401 327 -168 2099 0
-422 315 81 2100 0
99 -143 118 2101 0
-380 -227 -251 2102 0
-259 -136 -183 2103 0
-451 -321 -80 2104 0
279 -3 175 2105 0
-68 -190 108 2106 0
-356 -392 -228 2107 0
437 46 -137 2108 0
-190 -120 59 2109 0
111 360 -2 2110 0
-10 425 335 2111 0
-481 -400 49 2112 0
367 -388 -265 2113 0
-473 -450 286 2114 0
330 348 344 2115 0
-148 -142 -376 2116 0
-195 455 -21 2117 0
-10 -213 287 2118 0
258 -498 -455 2119 0
-485 400 196 2120 0
-384 93 -126 2121 0
-190 -91 170 2122 0
305 -31 -428 2123 0
476 -242 -266 2124 0
27 164 249 2125 0
-197 -99 -430 2126 0
474 88 -109 2127 0
-135 38 350 2128 0
-322 293 450 2129 0
-320 -283 435 2130 0
173 -198 -65 2131 0
-341 228 248 2132 0
292 -102 -272 2133 0
15 -312 319 2134 0
306 471 -219 2135 0
159 227 -476 2136 0
-328 199 371 2137 0
441 319 -87 2138 0
-288 79 -254 2139 0
-350 153 477 2140 0
-477 -68 314 2141 0
-153 291 370 2142 0
-322 227 281 2143 0
-500 -50 480 2144 0
61 -231 -187 2145 0
216 256 -386 2146 0
-370 440 66 2147 0
-62 39 -414 2148 0
-231 169 1 2149 0
380 -301 -241 2150 0
452 157 -16 2151 0
13 -163 96 2152 0
246 -435 -281 2153 0
-316 -289 -139 2154 0
37 372 408 2155 0
349 474 128 2156 0
195 -351 79 2157 0
361 -12 251 2158 0
-25 81 -86 2159 0
486 -187 -450 2160 0
114 -311 -229 2161 0
-423 -264 -54 2162 0
-71 384 105 2163 0
64 -435 -112 2164 0
-82 113 -392 2165 0
-240 -92 -447 2166 0
-454 -452 485 2167 0
396 481 -203 2168 0
-266 -366 184 2169 0
318 104 2 2170 0
-254 138 -172 2171 0
32 -242 -397 2172 0
28 207 408 2173 0
-341 184 -478 2174 0
209 70 458 2175 0
288 1 -490 2176 0
316 -400 -66 2177 0
199 -391 -321 2178 0
76 165 -462 2179 0
-258 -302 -42 2180 0
83 493 -309 2181 0
-279 -308 -61 2182 0
-419 319 408 2183 0
-69 132 43 2184 0
-94 -331 -393 2185 0
190 200 -261 2186 0
-300 -63 99 2187 0
-441 -331 201 2188 0
277 409 149 2189 0
295 349 264 2190 0
-224 418 413 2191 0
-392 -443 -102 2192 0
286 -134 -264 2193 0
-462 -302 274 2194 0
305 -40 93 2195 0
405 75 -211 2196 0
-54 320 188 2197 0
43 -369 -387 2198 0
-246 -415 -477 2199 0
-245 12 304 2200 0
-355 118 -53 2201 0
-282 442 36 2202 0
-117 160 -456 2203 0
377 486 493 2204 0
369 -353 -89 2205 0
277 419 360 2206 0
-31 203 230 2207 0
331 125 333 2208 0
-57 -247 -188 2209 0
334 267 -124 2210 0
-472 -12 173 2211 0
206 345 -371 2212 0
-274 -369 -341 2213 0
-183 132 -296 2214 0
-378 -66 437 2215 0
56 203 -482 2216 0
241 179 47 2217 0
105 256 -44 2218 0
-19 -400 69 2219 0
-225 381 52 2220 0
185 -24 292 2221 0
-42 100 -405 2222 0
-364 -431 90 2223 0
459 257 -5 2224 0
-130 -388 -341 2225 0
-327 -58 463 2226 0
59 -159 64 2227 0
-3 403 303 2228 0
-369 476 -175 2229 0
106 -457 -88 2230 0
-40 -169 -352 2231 0
-198 179 129 2232 0
101 226 397 2233 0
471 -60 -470 2234 0
-403 -427 223 2235 0
-244 396 456 2236 0
439 430 -422 2237 0
-92 -43 96 2238 0
-130 -57 -332 2239 0
-385 -228 -73 2240 0
-333 320 -6 2241 0
311 253 281 2242 0
404 298 457 2243 0
-108 322 197 2244 0
352 -49 341 2245 0
-317 454 422 2246 0
-231 164 -324 2247 0
-218 -105 388 2248 0
-475 -55 -235 2249 0
-53 391 -309 2250 0
206 198 -173 2251 0
254 332 -408 2252 0
283 8 68 2253 0
439 304 4 2254 0
382 -376 465 2255 0
-316 44 320 2256 0
-242 -63 -399 2257 0
213 359 440 2258 0
-74 464 291 2259 0
227 194 -160 2260 0
279 394 -190 2261 0
383 -217 -266 2262 0
316 51 319 2263 0
-241 -490 -270 2264 0
278 79 -393 2265 0
-158 329 -79 2266 0
-114 -297 -271 2267 0
343 -88 9 2268 0
123 -266 -240 2269 0
121 214 -185 2270 0
-393 21 -428 2271 0
431 -206 34 2272 0
37 377 429 2273 0
-246 -185 -144 2274 0
-419 -104 -268 2275 0
-47 -171 -324 2276 0
-27 -220 106 2277 0
161 335 -402 2278 0
-148 466 342 2279 0
44 -61 -177 2280 0
229 -415 -354 2281 0
-299 -329 -496 2282 0
423 -301 -491 2283 0
205 380 391 2284 0
32 36 -333 2285 0
-202 66 12 2286 0
-17 420 159 2287 0
36 -381 -86 2288 0
-220 -184 -326 2289 0
199 497 -38 2290 0
281 108 -448 2291 0
264 26 466 2292 0
429 412 -322 2293 0
-201 -168 346 2294 0
-490 192 258 2295 0
-475 -182 -158 2296 0
-84 38 -73 2297 0
-140 409 -450 2298 0
387 -80 -483 2299 0
282 -243 90 2300 0
-63 73 180 2301 0
-127 -285 47 2302 0
341 479 385 2303 0
-265 322 -208 2304 0
-450 -248 206 2305 0
-334 241 471 2306 0
-152 54 279 2307 0
-359 -30 -61 2308 0
157 298 247 2309 0
46 -206 -457 2310 0
221 -208 199 2311 0
9 162 -59 2312 0
8 -392 387 2313 0
390 -443 -293 2314 0
-81 -194 -468 2315 0
-113 -388 313 2316 0
-284 248 108 2317 0
313 60 392 2318 0
-339 211 182 2319 0
86 -246 -476 2320 0
-425 -301 237 2321 0
-198 -270 -84 2322 0
-498 387 -378 2323 0
-452 -472 -405 2324 0
-88 149 -116 2325 0
-268 490 394 2326 0
-455 74 -390 2327 0
-449 34 -470 2328 0
190 -361 -318 2329 0
356 -199 -60 2330 0
423 95 370 2331 0
51 140 268 2332 0
465 -249 166 2333 0
471 -430 -225 2334 0
481 -387 223 2335 0
321 -456 466 2336 0
-184 488 -213 2337 0
-412 -434 -66 2338 0
367 -395 244 2339 0
407 201 447 2340 0
342 116 -383 2341 0
-84 -193 99 2342 0
-124 -304 88 2343 0
385 -237 13 2344 0
-146 -497 332 2345 0
210 -449 354 2346 0
-92 -445 -452 2347 0
453 487 -400 2348 0
269 -146 -339 2349 0
342 -240 242 2350 0
-251 -449 -83 2351 0
321 -475 498 2352 0
473 -12 416 2353 0
391 -292 -178 2354 0
-388 -437 -102 2355 0
-156 493 -189 2356 0
344 -304 9 2357 0
-179 321 -20 2358 0
443 292 382 2359 0
285 437 139 2360 0
-425 -92 -338 2361 0
114 -484 38 2362 0
-111 -128 -96 2363 0
-423 156 285 2364 0
308 234 -41 2365 0
193 285 459 2366 0
-55 190 181 2367 0
456 -61 -70 2368 0
498 -256 75 2369 0
28 325 309 2370 0
-93 139 -360 2371 0
225 282 181 2372 0
324 -277 351 2373 0
391 -341 308 2374 0
51 -101 -417 2375 0
-387 166 156 2376 0
-346 -184 477 2377 0
-427 -125 217 2378 0
32 -262 152 2379 0
385 36 124 2380 0
244 335 351 2381 0
-139 262 -214 2382 0
-267 -424 188 2383 0
-62 350 409 2384 0
464 191 -155 2385 0
269 341 -84 2386 0
444 -113 321 2387 0
-468 -265 367 2388 0
146 -358 -407 2389 0
-396 64 257 2390 0
340 -65 -360 2391 0
301 342 366 2392 0
118 337 493 2393 0
-234 -250 142 2394 0
203 297 381 2395 0
189 -66 486 2396 0
-15 26 -450 2397 0
466 356 -25 2398 0
-453 92 -190 2399 0
491 85 68 2400 0
-416 -450 -384 2401 0
50 -428 219 2402 0
-121 136 402 2403 0
-19 -461 25 2404 0
-421 -413 -471 2405 0
190 -487 22 2406 0
144 -139 -200 2407 0
-334 354 -140 2408 0
336 374 27 2409 0
467 -221 -298 2410 0
-412 -17 327 2411 0
256 -215 450 2412 0
-328 -334 103 2413 0
-95 234 -485 2414 0
-217 -213 403 2415 0
91 201 468 2416 0
-159 -119 -201 2417 0
-314 -494 29 2418 0
261 159 -293 2419 0
216 241 -73 2420 0
-439 -200 -34 2421 0
144 470 232 2422 0
468 -19 256 2423 0
-385 386 -259 2424 0
447 437 -473 2425 0
356 -161 -320 2426 0
-2 360 307 2427 0
107 -419 451 2428 0
-380 -159 171 2429 0
403 -365 -434 2430 0
95 272 -148 2431 0
-357 263 422 2432 0
427 413 161 2433 0
297 24 -86 2434 0
-298 -190 433 2435 0
-334 -8 -478 2436 0
-324 128 -134 2437 0
23 147 -42 2438 0
494 18 -391 2439 0
202 -394 -24 2440 0
-304 -110 -36 2441 0
464 352 292 2442 0
463 2 -346 2443 0
148 -426 -39 2444 0
248 -22 -184 2445 0
157 454 291 2446 0
127 49 -130 2447 0
199 441 187 2448 0
-273 210 414 2449 0
342 -292 -437 2450 0
-170 -212 277 2451 0
200 450 291 2452 0
293 281 403 2453 0
449 -411 -354 2454 0
436 209 227 2455 0
-235 -177 -209 2456 0
389 143 357 2457 0
48 -229 -95 2458 0
263 -255 -206 2459 0
-117 425 -201 2460 0
483 305 25 2461 0
267 385 -427 2462 0
-166 -31 293 2463 0
-94 -163 41 2464 0
-484 327 -177 2465 0
-20 469 83 2466 0
386 -8 226 2467 0
-445 4 -156 2468 0
-122 458 -101 2469 0
27 128 -34 2470 0
-14 226 379 2471 0
180 -46 -334 2472 0
87 47 97 2473 0
420 24 100 2474 0
200 -215 -492 2475 0
302 -60 213 2476 0
233 -183 -362 2477 0
-473 75 -455 2478 0
188 369 88 2479 0
199 -311 -260 2480 0
396 55 386 2481 0
-120 -71 -335 2482 0
4 444 436 2483 0
-385 -313 420 2484 0
-422 143 -94 2485 0
35 -120 -21 2486 0
-484 163 -433 2487 0
67 458 -427 2488 0
-175 -500 -388 2489 0
264 -419 119 2490 0
424 426 145 2491 0
195 403 215 2492 0
-7 436 -148 2493 0
223 120 488 2494 0
-53 -283 452 2495 0
83 -14 -237 2496 0
-411 -314 -454 2497 0
-448 113 -252 2498 0
-71 -376 -131 2499 0
-61 -441 -134 2500 0
58 452 3 2501 0
155 -326 483 2502 0
-356 99 413 2503 0
191 222 492 2504 0
301 139 -495 2505 0
-73 -434 -176 2506 0
-345 -96 -183 2507 0
178 353 157 2508 0
372 422 226 2509 0
-303 -189 -388 2510 0
24 390 -462 2511 0
396 480 -174 2512 0
-485 -107 346 2513 0
-442 366 413 2514 0
-146 -226 -495 2515 0
-260 93 -263 2516 0
-108 -366 205 2517 0
62 69 -188 2518 0
-230 -68 -295 2519 0
-90 273 -309 2520 0
-39 -474 -23 2521 0
-278 492 196 2522 0
-243 -76 -173 2523 0
98 -398 -52 2524 0
82 290 25 2525 0
-484 417 298 2526 0
439 193 361 2527 0
313 -318 -182 2528 0
374 459 250 2529 0
82 -427 -474 2530 0
-440 -64 51 2531 0
-85 400 61 2532 0
-496 -333 -27 2533 0
141 403 450 2534 0
-348 195 -440 2535 0
-208 -485 78 2536 0
47 252 -85 2537 0
-417 -54 -95 2538 0
379 -91 -344 2539 0
17 -244 -321 2540 0
406 -147 142 2541 0
-465 -71 53 2542 0
431 462 -437 2543 0
-495 385 -252 2544 0
243 -18 -281 2545 0
-380 -498 -5 2546 0
311 248 111 2547 0
162 -141 -396 2548 0
366 -414 -48 2549 0
-260 -290 -19 2550 0
-457 -102 11 2551 0
-280 153 102 2552 0
-270 -481 37 2553 0
198 318 -207 2554 0
-285 299 -386 2555 0
316 472 -81 2556 0
-496 -255 226 2557 0
9 419 -41 2558 0
-192 -414 309 2559 0
-57 -440 -352 2560 0
-185 -241 -111 2561 0
-207 394 313 2562 0
479 -491 -45 2563 0
144 -442 18 2564 0
-261 -487 232 2565 0
-169 211 465 2566 0
115 -65 -480 2567 0
143 -448 155 2568 0
-499 -153 -225 2569 0
278 -303 383 2570 0
365 328 96 2571 0
-243 451 -68 2572 0
-441 217 2 2573 0
106 267 -236 2574 0
-44 454 25 2575 0
-262 -160 -120 2576 0
494 451 134 2577 0
-414 -482 -404 2578 0
305 27 -285 2579 0
215 313 -148 2580 0
-471 205 136 2581 0
391 112 277 2582 0
207 12 266 2583 0
53 30 -37 2584 0
186 -38 246 2585 0
191 250 426 2586 0
78 212 135 2587 0
62 -16 369 2588 0
280 -169 -326 2589 0
-438 439 -464 2590 0
-499 261 62 2591 0
-69 199 -233 2592 0
-238 130 340 2593 0
259 81 -362 2594 0
-230 -116 -455 2595 0
251 333 -212 2596 0
161 285 329 2597 0
-500 -318 36 2598 0
-250 -144 -58 2599 0
-481 137 -466 2600 0
-76 3 259 2601 0
-435 103 -215 2602 0
184 183 353 2603 0
-280 -252 455 2604 0
-470 -215 166 2605 0
-262 -349 173 2606 0
-210 425 -322 2607 0
-22 -149 87 2608 0
-369 -434 -499 2609 0
-31 104 -377 2610 0
-101 -249 133 2611 0
-137 -337 -418 2612 0
161 178 173 2613 0
-232 86 -88 2614 0
-163 -265 319 2615 0
-492 -19 -237 2616 0
-321 -161 322 2617 0
266 125 -251 2618 0
197 -309 87 2619 0
-273 167 289 2620 0
381 -65 -417 2621 0
216 -154 -283 2622 0
-475 -322 -95 2623 0
-180 -70 -257 2624 0
8 -56 -87 2625 0
-123 320 383 2626 0
31 274 456 2627 0
170 254 243 2628 0
188 -170 409 2629 0
193 -88 301 2630 0
-80 -85 -388 2631 0
208 -136 377 2632 0
-42 -114 39 2633 0
312 -286 490 2634 0
238 162 343 2635 0
-221 -190 97 2636 0
-463 304 482 2637 0
-437 180 40 2638 0
124 -327 -439 2639 0
238 -159 -434 2640 0
374 -414 218 2641 0
253 96 271 2642 0
170 -290 448 2643 0
326 -282 -122 2644 0
114 -82 -101 2645 0
38 69 129 2646 0
-89 26 -70 2647 0
296 227 327 2648 0
-175 -21 389 2649 0
-16 -19 -358 2650 0
