p cnf 2650 2150
190 -446 321 501 0
88 -16 -129 502 0
-194 308 -202 503 0
104 -470 226 504 0
93 483 -39 505 0
-448 -32 -118 506 0
-327 422 400 507 0
489 -220 398 508 0
-98 19 303 509 0
-71 -381 -284 510 0
-465 388 486 511 0
146 307 -398 512 0
-403 271 232 513 0
-333 -486 -255 514 0
-365 -128 -259 515 0
-277 -290 3 516 0
272 -16 358 517 0
496 179 163 518 0
83 -370 50 519 0
322 281 181 520 0
380 72 454 521 0
269 227 -340 522 0
417 -225 -352 523 0
-13 -381 -364 524 0
-352 99 150 525 0
267 -220 252 526 0
-48 289 -118 527 0
-284 -115 -406 528 0
-352 -144 100 529 0
425 491 -337 530 0
54 438 6 531 0
-390 -95 -498 532 0
-112 -326 204 533 0
384 -472 254 534 0
392 48 -413 535 0
-17 -481 -94 536 0
455 360 -58 537 0
77 455 164 538 0
-272 25 70 539 0
181 23 -460 540 0
-92 -163 -353 541 0
25 152 349 542 0
-496 -14 -155 543 0
267 449 -395 544 0
-232 -124 -478 545 0
-361 282 303 546 0
277 -159 -267 547 0
372 169 23 548 0
-127 444 378 549 0
-434 -23 -118 550 0
217 -436 482 551 0
384 313 188 552 0
-311 -93 379 553 0
-111 339 494 554 0
34 396 68 555 0
65 349 -440 556 0
363 212 386 557 0
302 -444 -394 558 0
313 -429 226 559 0
225 -1 -11 560 0
113 -94 352 561 0
-284 15 166 562 0
219 -305 174 563 0
388 360 103 564 0
-160 -13 339 565 0
406 258 473 566 0
-56 -186 -478 567 0
429 -77 364 568 0
-276 336 -252 569 0
23 -99 -381 570 0
74 -163 432 571 0
71 -203 356 572 0
44 -487 -89 573 0
-388 189 -353 574 0
-79 -182 -308 575 0
94 95 395 576 0
-217 493 45 577 0
13 -201 -22 578 0
394 58 30 579 0
-244 136 289 580 0
119 -377 -118 581 0
-7 -249 -432 582 0
-492 268 -426 583 0
-29 443 313 584 0
444 156 430 585 0
42 16 -332 586 0
274 254 133 587 0
-286 101 -453 588 0
471 21 489 589 0
27 266 297 590 0
264 -425 -476 591 0
-369 280 -247 592 0
-368 487 130 593 0
-216 -227 -165 594 0
227 -172 -200 595 0
55 -459 -87 596 0
462 -348 -106 597 0
-452 311 389 598 0
-207 189 401 599 0
137 -297 -199 600 0
-277 56 -379 601 0
318 234 -82 602 0
359 -5 -103 603 0
-468 -159 -397 604 0
-96 -496 -379 605 0
-441 -155 337 606 0
344 -313 -372 607 0
-21 479 291 608 0
-473 -284 282 609 0
-283 486 16 610 0
-416 342 -98 611 0
336 440 487 612 0
-70 -462 327 613 0
300 -29 -78 614 0
-21 5 -206 615 0
-296 460 -392 616 0
76 488 43 617 0
239 480 357 618 0
-97 133 -211 619 0
499 -285 -274 620 0
88 -188 -330 621 0
-218 -246 419 622 0
-277 -442 191 623 0
-284 -442 -467 624 0
449 127 -241 625 0
217 166 126 626 0
431 480 58 627 0
-49 -469 -291 628 0
-495 -93 162 629 0
376 243 474 630 0
499 254 -250 631 0
-62 421 -376 632 0
189 464 -326 633 0
465 -223 -224 634 0
-85 -29 40 635 0
-118 -285 -370 636 0
-419 241 -122 637 0
-493 248 -125 638 0
361 206 -62 639 0
-90 173 -382 640 0
27 473 -103 641 0
-482 13 -103 642 0
496 -44 170 643 0
105 74 -218 644 0
312 -167 -90 645 0
-351 500 78 646 0
-17 -391 109 647 0
101 176 164 648 0
-316 390 406 649 0
-218 364 252 650 0
-57 387 71 651 0
-413 -497 -48 652 0
43 76 -291 653 0
-177 382 -78 654 0
415 315 306 655 0
58 -27 -496 656 0
-267 -474 212 657 0
-452 228 336 658 0
-485 -265 -273 659 0
314 468 -139 660 0
327 -94 -338 661 0
-353 390 192 662 0
-382 135 249 663 0
129 104 -16 664 0
459 -447 -120 665 0
475 474 211 666 0
-233 424 406 667 0
-159 347 -318 668 0
78 -315 97 669 0
-395 -196 297 670 0
-321 -251 -313 671 0
-410 115 54 672 0
-406 -13 197 673 0
-265 -22 -395 674 0
359 283 -213 675 0
-254 -425 -489 676 0
-467 332 113 677 0
-328 494 -129 678 0
327 -480 -341 679 0
217 467 -331 680 0
-308 428 328 681 0
-221 144 -263 682 0
-240 119 308 683 0
43 -34 382 684 0
-366 57 -200 685 0
-225 128 24 686 0
164 -49 -433 687 0
91 -323 -399 688 0
-492 -325 -412 689 0
-473 443 372 690 0
-65 39 128 691 0
-157 -201 370 692 0
-249 55 -23 693 0
-302 -388 144 694 0
437 186 342 695 0
-264 -368 -60 696 0
-53 439 -431 697 0
166 -430 336 698 0
255 -102 -225 699 0
-100 -435 -424 700 0
78 317 -133 701 0
-221 -363 -460 702 0
-229 -303 173 703 0
38 -35 489 704 0
7 -184 132 705 0
229 -421 -335 706 0
498 -223 91 707 0
30 328 76 708 0
345 -205 -133 709 0
-208 -462 56 710 0
-391 -412 -30 711 0
-367 342 -214 712 0
22 -402 -288 713 0
344 284 285 714 0
-74 481 -126 715 0
-459 173 -158 716 0
-464 -118 497 717 0
-6 1 -265 718 0
361 249 407 719 0
-340 -356 237 720 0
472 -20 6 721 0
-94 74 -36 722 0
-194 155 -307 723 0
-435 -193 -337 724 0
488 -461 84 725 0
477 -413 -271 726 0
-173 179 353 727 0
-15 78 -239 728 0
175 275 303 729 0
-334 -39 319 730 0
68 351 -78 731 0
-49 445 157 732 0
-20 -421 286 733 0
-166 -482 73 734 0
-131 198 183 735 0
-400 -139 210 736 0
269 -426 -444 737 0
285 367 482 738 0
-161 -347 -13 739 0
-494 312 -93 740 0
54 443 -118 741 0
-138 -405 -296 742 0
89 -448 -377 743 0
146 305 478 744 0
18 -350 -229 745 0
118 464 69 746 0
-242 -313 82 747 0
-276 313 -425 748 0
32 -109 279 749 0
342 398 227 750 0
-83 100 -295 751 0
-347 -349 7 752 0
155 -93 -458 753 0
218 -388 219 754 0
-483 -284 34 755 0
166 -171 211 756 0
-4 -13 -281 757 0
-285 -392 -393 758 0
213 384 -37 759 0
-232 -370 -6 760 0
390 270 -15 761 0
-458 -126 83 762 0
-266 -393 -385 763 0
222 -122 -304 764 0
239 -306 391 765 0
413 -49 -340 766 0
-33 141 -304 767 0
-426 49 -315 768 0
-135 345 -327 769 0
114 -113 -423 770 0
175 276 434 771 0
290 -257 -366 772 0
-6 486 369 773 0
36 -250 -70 774 0
-136 248 99 775 0
-131 335 -485 776 0
-402 -287 -165 777 0
-191 -271 -461 778 0
189 6 -238 779 0
273 432 399 780 0
-290 -63 351 781 0
-69 -198 -141 782 0
222 97 154 783 0
22 90 385 784 0
-137 465 -493 785 0
-26 -228 -273 786 0
-476 303 -337 787 0
377 -196 452 788 0
490 -272 186 789 0
219 -452 -188 790 0
-181 220 -83 791 0
102 -475 -352 792 0
4 -73 -148 793 0
385 -410 -36 794 0
22 7 263 795 0
-250 492 278 796 0
-255 360 -262 797 0
331 440 275 798 0
-235 269 13 799 0
-379 -109 296 800 0
29 -402 137 801 0
413 -492 -281 802 0
414 -334 -428 803 0
-99 -158 -66 804 0
102 291 -319 805 0
217 56 372 806 0
-1 -409 -172 807 0
170 266 21 808 0
-189 -484 -403 809 0
-257 345 -380 810 0
-397 -56 -4 811 0
-216 -442 356 812 0
-59 -210 58 813 0
489 1 491 814 0
229 -84 -13 815 0
432 56 -467 816 0
-220 -447 -11 817 0
-76 -94 -423 818 0
31 99 437 819 0
-310 19 44 820 0
121 428 -216 821 0
-112 470 106 822 0
-76 -436 -167 823 0
355 193 -187 824 0
256 -207 267 825 0
236 -486 482 826 0
122 -202 -412 827 0
-50 -470 51 828 0
-424 246 -454 829 0
-469 230 25 830 0
-239 -468 -174 831 0
385 -241 195 832 0
-261 238 -142 833 0
-276 -322 431 834 0
257 -315 -292 835 0
411 -438 -199 836 0
-137 -70 284 837 0
-242 -234 -246 838 0
224 -395 261 839 0
-308 -2 -216 840 0
-442 132 84 841 0
206 -403 -202 842 0
20 104 -108 843 0
-475 -197 407 844 0
41 -249 63 845 0
431 296 -308 846 0
215 490 461 847 0
233 269 -153 848 0
451 -448 -499 849 0
109 421 168 850 0
-74 439 391 851 0
357 88 -259 852 0
-142 -174 280 853 0
-335 259 490 854 0
-67 -227 417 855 0
-240 145 -165 856 0
131 -361 -157 857 0
362 203 -94 858 0
-311 -259 225 859 0
117 372 -167 860 0
-388 -404 -447 861 0
180 -298 282 862 0
59 173 -221 863 0
338 -495 163 864 0
108 -380 13 865 0
-14 -91 178 866 0
31 -332 368 867 0
-391 -30 162 868 0
33 374 491 869 0
-343 153 -493 870 0
-277 -450 -132 871 0
-112 41 -237 872 0
58 64 379 873 0
-243 -52 -479 874 0
111 -30 259 875 0
-270 -226 335 876 0
-427 22 135 877 0
-459 -410 -264 878 0
-89 413 -172 879 0
-138 290 -69 880 0
180 -168 -325 881 0
11 -262 144 882 0
440 -284 -194 883 0
95 -52 -437 884 0
-236 275 -48 885 0
221 -14 -54 886 0
464 -182 249 887 0
325 -119 -169 888 0
207 -76 -175 889 0
-287 304 161 890 0
432 -417 -10 891 0
-488 -174 -203 892 0
-306 -492 -395 893 0
-191 392 -65 894 0
-31 -48 -61 895 0
-489 500 362 896 0
213 439 -420 897 0
-192 99 250 898 0
167 18 -381 899 0
55 128 489 900 0
298 99 -358 901 0
-179 398 470 902 0
443 36 -86 903 0
-209 160 -294 904 0
-163 207 222 905 0
29 251 -327 906 0
-430 282 -468 907 0
96 460 -162 908 0
27 87 111 909 0
-265 494 -36 910 0
-96 -89 -182 911 0
-488 143 -434 912 0
-441 147 -452 913 0
-121 -179 391 914 0
482 190 -147 915 0
177 10 -323 916 0
264 156 -63 917 0
-391 -49 -276 918 0
429 -4 -455 919 0
423 27 396 920 0
-7 111 -401 921 0
-452 38 270 922 0
-275 386 334 923 0
-301 247 -465 924 0
-10 275 -255 925 0
451 15 41 926 0
415 62 -402 927 0
-91 -50 315 928 0
-417 152 37 929 0
399 -50 -340 930 0
-490 -143 -437 931 0
257 -86 191 932 0
-188 180 32 933 0
-338 430 -309 934 0
448 206 -289 935 0
169 -85 -280 936 0
-165 -305 76 937 0
-175 279 -358 938 0
-212 -259 346 939 0
-34 300 -478 940 0
-404 434 161 941 0
488 -232 -338 942 0
182 119 105 943 0
-282 182 -148 944 0
-31 -474 440 945 0
95 111 225 946 0
362 203 -236 947 0
183 -19 395 948 0
109 22 -422 949 0
-454 -105 410 950 0
134 -280 243 951 0
-181 -487 -119 952 0
-343 165 449 953 0
-149 -337 103 954 0
159 -108 129 955 0
433 8 413 956 0
-64 -395 -372 957 0
-353 -307 -148 958 0
-143 378 -279 959 0
247 179 -480 960 0
215 -87 181 961 0
-28 65 -448 962 0
494 -341 90 963 0
342 -208 58 964 0
-488 426 308 965 0
290 18 168 966 0
450 -462 -174 967 0
-43 36 403 968 0
-75 -383 -344 969 0
443 -458 374 970 0
15 313 155 971 0
-474 36 -110 972 0
395 276 99 973 0
-77 181 -221 974 0
10 209 269 975 0
-61 25 -387 976 0
350 85 -356 977 0
332 337 47 978 0
-162 -396 227 979 0
108 280 286 980 0
-142 -143 403 981 0
122 -94 393 982 0
-202 482 130 983 0
499 150 -361 984 0
-219 -107 198 985 0
-52 18 -320 986 0
-179 -147 -58 987 0
457 -471 199 988 0
-443 -37 -64 989 0
-271 372 51 990 0
369 448 -128 991 0
177 393 281 992 0
-387 -383 163 993 0
-394 113 -183 994 0
-291 24 118 995 0
110 -330 231 996 0
396 312 342 997 0
-343 -479 -375 998 0
189 -264 -79 999 0
-47 490 -386 1000 0
-57 445 122 1001 0
196 -371 -380 1002 0
-237 -390 479 1003 0
-279 -19 -235 1004 0
141 -154 363 1005 0
428 -112 -366 1006 0
68 -120 -32 1007 0
-161 142 -66 1008 0
-348 328 68 1009 0
407 -237 26 1010 0
292 193 8 1011 0
347 -432 -489 1012 0
156 299 -263 1013 0
-98 177 -51 1014 0
276 -264 199 1015 0
93 415 32 1016 0
469 81 -491 1017 0
-230 474 260 1018 0
-319 -223 -350 1019 0
-306 -221 -167 1020 0
-332 -386 -60 1021 0
67 275 259 1022 0
20 -5 -171 1023 0
-295 210 -251 1024 0
329 396 -67 1025 0
404 252 -255 1026 0
321 218 -248 1027 0
-88 -247 322 1028 0
309 473 -462 1029 0
107 -218 -251 1030 0
217 413 64 1031 0
260 -470 -60 1032 0
334 342 -289 1033 0
-158 177 -45 1034 0
-82 -485 297 1035 0
328 -475 32 1036 0
-480 41 -492 1037 0
-152 -284 169 1038 0
182 371 60 1039 0
131 -134 479 1040 0
305 -213 275 1041 0
-134 -261 -38 1042 0
356 -440 -309 1043 0
235 95 346 1044 0
116 54 166 1045 0
447 94 344 1046 0
-421 -495 413 1047 0
-48 -442 -362 1048 0
284 440 442 1049 0
-461 272 323 1050 0
-293 149 140 1051 0
-57 147 208 1052 0
358 -254 91 1053 0
-272 -66 114 1054 0
154 117 94 1055 0
105 185 -131 1056 0
-216 -471 -45 1057 0
328 102 -337 1058 0
246 -20 -196 1059 0
-108 460 34 1060 0
-390 478 -224 1061 0
394 263 -197 1062 0
-260 -360 -181 1063 0
-498 -318 -478 1064 0
-93 -24 33 1065 0
-310 -171 415 1066 0
400 -433 262 1067 0
39 -399 -41 1068 0
196 -248 436 1069 0
355 -136 -314 1070 0
-386 -379 467 1071 0
-319 345 418 1072 0
-434 449 -209 1073 0
-27 446 273 1074 0
-498 -276 27 1075 0
-208 -325 120 1076 0
-31 -8 -129 1077 0
184 -453 -402 1078 0
-182 215 198 1079 0
-135 410 -386 1080 0
352 -83 197 1081 0
-466 -483 -445 1082 0
-282 -20 -394 1083 0
95 -89 -382 1084 0
389 383 -447 1085 0
-1 398 319 1086 0
-194 209 -371 1087 0
331 -62 -324 1088 0
-57 134 493 1089 0
-235 -117 -471 1090 0
230 -54 -421 1091 0
44 104 481 1092 0
-288 -347 5 1093 0
253 -395 -157 1094 0
-67 269 22 1095 0
-185 -491 -31 1096 0
27 -275 32 1097 0
496 -144 -456 1098 0
78 -371 -150 1099 0
469 377 -242 1100 0
430 330 -318 1101 0
-2 193 -139 1102 0
-37 -348 -237 1103 0
296 -272 -489 1104 0
-219 -230 221 1105 0
-378 -349 43 1106 0
297 -5 -489 1107 0
-360 186 -343 1108 0
123 174 391 1109 0
-127 -341 -86 1110 0
-41 -317 -23 1111 0
-224 -472 -25 1112 0
175 -393 300 1113 0
-264 274 434 1114 0
399 66 82 1115 0
71 -213 13 1116 0
-259 480 -162 1117 0
483 -477 -115 1118 0
401 440 256 1119 0
-333 -169 361 1120 0
295 -379 -446 1121 0
-457 249 -383 1122 0
-403 -256 -118 1123 0
-480 -272 199 1124 0
26 286 -427 1125 0
452 209 -259 1126 0
351 180 -390 1127 0
-141 -257 -18 1128 0
-36 -296 289 1129 0
84 -330 267 1130 0
-397 -349 -21 1131 0
282 449 401 1132 0
173 -392 476 1133 0
467 -391 166 1134 0
410 -373 242 1135 0
495 135 -462 1136 0
192 254 -69 1137 0
-320 452 -229 1138 0
-28 447 351 1139 0
241 199 -105 1140 0
434 -134 -295 1141 0
175 -236 -37 1142 0
242 53 -447 1143 0
-269 -107 -414 1144 0
-430 390 -291 1145 0
462 248 -478 1146 0
76 317 -425 1147 0
-342 -252 -142 1148 0
-311 -125 368 1149 0
237 13 -476 1150 0
495 -199 102 1151 0
-67 458 -29 1152 0
255 -399 318 1153 0
147 -412 -398 1154 0
-443 451 -326 1155 0
-323 496 93 1156 0
-439 276 -296 1157 0
-498 -103 119 1158 0
-45 -132 308 1159 0
-483 213 -106 1160 0
-404 96 228 1161 0
17 55 246 1162 0
92 -164 133 1163 0
-469 -449 429 1164 0
280 191 429 1165 0
-413 322 81 1166 0
-443 -110 -376 1167 0
-343 -92 40 1168 0
143 334 -108 1169 0
360 409 166 1170 0
119 167 260 1171 0
-53 -76 359 1172 0
397 221 -468 1173 0
480 -122 101 1174 0
4 356 160 1175 0
-345 455 -73 1176 0
278 -439 -53 1177 0
-351 -71 -399 1178 0
10 -294 -408 1179 0
-364 443 370 1180 0
-379 -21 -71 1181 0
452 -151 -190 1182 0
-284 -161 -269 1183 0
125 -218 130 1184 0
290 389 91 1185 0
-345 -113 429 1186 0
-209 -415 -204 1187 0
-250 398 372 1188 0
-90 373 -471 1189 0
370 172 -45 1190 0
260 283 356 1191 0
162 -382 124 1192 0
-351 -15 -235 1193 0
65 -308 -458 1194 0
-242 -141 192 1195 0
-312 -300 -244 1196 0
354 63 -458 1197 0
490 415 330 1198 0
-262 -460 -378 1199 0
161 -395 -122 1200 0
477 -67 -7 1201 0
120 380 -122 1202 0
36 402 115 1203 0
-118 301 104 1204 0
360 -95 -250 1205 0
295 246 44 1206 0
322 -311 -276 1207 0
458 83 76 1208 0
-500 23 -195 1209 0
-314 35 -348 1210 0
-369 -333 -17 1211 0
-47 -440 367 1212 0
-490 359 190 1213 0
-310 172 -30 1214 0
-397 487 -114 1215 0
481 -184 381 1216 0
-148 423 353 1217 0
-84 280 -168 1218 0
-188 424 191 1219 0
-268 350 484 1220 0
-255 -451 -143 1221 0
7 -483 470 1222 0
-298 460 290 1223 0
-424 443 -112 1224 0
-127 277 -217 1225 0
190 48 83 1226 0
169 -36 -281 1227 0
105 -412 477 1228 0
277 -18 -419 1229 0
-273 -247 -19 1230 0
-46 -316 257 1231 0
275 136 -473 1232 0
-37 -348 401 1233 0
328 61 -170 1234 0
409 -221 -19 1235 0
469 389 -99 1236 0
-124 142 395 1237 0
423 -26 334 1238 0
-450 -61 -387 1239 0
-373 414 -349 1240 0
62 -108 354 1241 0
488 409 391 1242 0
62 -98 442 1243 0
177 -292 450 1244 0
-33 -472 -289 1245 0
321 307 -210 1246 0
447 -113 327 1247 0
-90 337 -170 1248 0
-454 -252 -209 1249 0
-56 -383 72 1250 0
-82 -13 -208 1251 0
-319 -198 -294 1252 0
109 -436 417 1253 0
121 -247 -407 1254 0
-380 -239 2 1255 0
-434 -78 -274 1256 0
-400 -352 -418 1257 0
-102 -10 63 1258 0
-182 3 -303 1259 0
449 495 80 1260 0
-246 357 370 1261 0
285 -473 -269 1262 0
231 433 -319 1263 0
446 108 155 1264 0
180 265 210 1265 0
130 -258 446 1266 0
356 -488 -51 1267 0
403 319 248 1268 0
113 134 425 1269 0
-371 -223 -494 1270 0
-203 322 -470 1271 0
-319 239 409 1272 0
423 -230 -353 1273 0
71 -422 -367 1274 0
289 4 -12 1275 0
487 138 149 1276 0
87 115 -230 1277 0
301 405 -266 1278 0
-98 245 -268 1279 0
396 -377 -21 1280 0
-341 18 138 1281 0
-147 -231 -2 1282 0
303 -137 -94 1283 0
-73 301 -231 1284 0
384 -428 -301 1285 0
231 -66 -250 1286 0
184 5 -166 1287 0
317 119 -36 1288 0
233 -418 68 1289 0
-445 351 193 1290 0
-214 -136 -460 1291 0
-40 -496 -452 1292 0
-158 228 -457 1293 0
224 390 -438 1294 0
-100 147 -167 1295 0
-471 301 70 1296 0
488 -152 -375 1297 0
-436 62 439 1298 0
-86 -202 -225 1299 0
101 -385 399 1300 0
-164 207 -79 1301 0
-94 -481 -479 1302 0
444 -276 -327 1303 0
-289 -495 -321 1304 0
69 -287 258 1305 0
3 229 148 1306 0
166 2 -363 1307 0
477 89 -330 1308 0
364 -190 -30 1309 0
-45 -46 -212 1310 0
352 96 -318 1311 0
484 29 223 1312 0
-149 -401 -269 1313 0
450 -381 -75 1314 0
-281 -399 -14 1315 0
-448 -500 245 1316 0
-499 -254 157 1317 0
-349 431 197 1318 0
327 275 -286 1319 0
-451 106 256 1320 0
-394 -442 -488 1321 0
20 29 345 1322 0
189 266 -388 1323 0
-61 90 -142 1324 0
220 155 -249 1325 0
335 69 -169 1326 0
-212 -67 341 1327 0
-32 -437 493 1328 0
43 370 -226 1329 0
-123 -214 -41 1330 0
-65 301 24 1331 0
-39 86 29 1332 0
401 397 137 1333 0
348 -14 401 1334 0
-116 -90 -108 1335 0
-12 271 -407 1336 0
-140 23 -66 1337 0
73 -160 234 1338 0
266 283 -14 1339 0
294 -398 -281 1340 0
-27 -435 -179 1341 0
62 -248 116 1342 0
-273 50 -40 1343 0
-86 -351 286 1344 0
277 -94 -216 1345 0
-332 407 -2 1346 0
314 -429 131 1347 0
-415 55 -340 1348 0
151 348 262 1349 0
357 198 285 1350 0
46 275 427 1351 0
-162 331 -206 1352 0
53 -312 -99 1353 0
-213 212 431 1354 0
411 99 374 1355 0
27 54 -288 1356 0
363 -72 311 1357 0
-256 -445 376 1358 0
-160 -66 418 1359 0
-296 92 -163 1360 0
17 455 -160 1361 0
-224 108 363 1362 0
191 -448 -251 1363 0
129 188 32 1364 0
-375 114 -159 1365 0
407 -303 -387 1366 0
500 -134 -79 1367 0
-266 336 -493 1368 0
-291 -204 -181 1369 0
-239 -120 -207 1370 0
431 -334 499 1371 0
-159 -9 -253 1372 0
5 -302 355 1373 0
-12 -481 -456 1374 0
-351 396 422 1375 0
-466 392 84 1376 0
338 -421 -146 1377 0
-493 227 -306 1378 0
-260 -378 -446 1379 0
409 296 -210 1380 0
46 431 442 1381 0
331 -6 199 1382 0
-80 391 487 1383 0
370 -68 -466 1384 0
-404 -463 -141 1385 0
111 -409 285 1386 0
198 116 -424 1387 0
-10 -130 -436 1388 0
28 367 410 1389 0
-468 -392 -378 1390 0
263 -403 172 1391 0
275 -44 -414 1392 0
405 307 -260 1393 0
334 -35 176 1394 0
148 5 -216 1395 0
-233 -39 -62 1396 0
-291 -164 1 1397 0
277 -82 -466 1398 0
-197 -328 -226 1399 0
399 -443 355 1400 0
-368 -344 -160 1401 0
-405 356 -419 1402 0
-334 358 -188 1403 0
167 43 -308 1404 0
456 476 274 1405 0
-417 -420 -204 1406 0
-239 342 -439 1407 0
486 330 -149 1408 0
273 -108 247 1409 0
-431 418 -159 1410 0
392 491 -483 1411 0
-91 -338 -314 1412 0
-395 -486 -45 1413 0
-104 -217 -49 1414 0
477 -36 -149 1415 0
40 208 135 1416 0
458 -156 452 1417 0
269 73 324 1418 0
220 224 365 1419 0
230 198 346 1420 0
-342 -114 -429 1421 0
430 -474 215 1422 0
135 -34 140 1423 0
408 233 345 1424 0
-199 -74 -251 1425 0
-329 -160 -135 1426 0
-283 268 30 1427 0
294 444 -326 1428 0
496 -472 -220 1429 0
459 369 455 1430 0
-331 -307 -161 1431 0
122 -169 357 1432 0
-429 16 102 1433 0
214 -369 -207 1434 0
-305 200 -371 1435 0
-432 39 -418 1436 0
381 229 -470 1437 0
-52 -415 78 1438 0
-496 -314 -474 1439 0
-317 32 152 1440 0
-11 134 156 1441 0
76 -470 106 1442 0
-33 296 58 1443 0
-210 174 -302 1444 0
-301 -246 80 1445 0
-136 169 -9 1446 0
476 -454 -328 1447 0
267 -45 296 1448 0
25 -126 -355 1449 0
-341 217 196 1450 0
-433 -60 -266 1451 0
243 -277 -2 1452 0
229 87 -215 1453 0
246 -356 -471 1454 0
-32 -121 94 1455 0
370 -438 445 1456 0
-111 448 223 1457 0
164 293 -13 1458 0
-497 -404 140 1459 0
-369 128 -20 1460 0
-159 1 458 1461 0
-220 -84 149 1462 0
-451 -14 -161 1463 0
-303 -292 -114 1464 0
-218 -154 -399 1465 0
-449 -278 235 1466 0
89 178 -53 1467 0
346 360 -460 1468 0
183 -101 275 1469 0
-6 276 497 1470 0
-401 281 32 1471 0
-294 409 441 1472 0
-212 262 -315 1473 0
-131 307 -122 1474 0
6 -194 479 1475 0
33 312 -350 1476 0
199 437 -387 1477 0
-376 -248 -386 1478 0
-143 357 -407 1479 0
-441 3 136 1480 0
-8 461 202 1481 0
-97 331 318 1482 0
-84 451 213 1483 0
-125 -260 -323 1484 0
-57 13 -375 1485 0
-409 -482 335 1486 0
497 -212 -318 1487 0
345 228 -269 1488 0
26 -81 -454 1489 0
43 -106 -369 1490 0
-435 -291 429 1491 0
-148 -482 -21 1492 0
-226 6 84 1493 0
316 414 345 1494 0
-458 -105 107 1495 0
196 -454 -489 1496 0
424 74 105 1497 0
-87 146 388 1498 0
-427 -322 186 1499 0
-285 -487 -484 1500 0
433 -496 -324 1501 0
-191 283 -91 1502 0
281 5 -276 1503 0
451 -78 -311 1504 0
-264 218 -355 1505 0
-34 310 -474 1506 0
190 -295 -111 1507 0
204 -185 451 1508 0
105 -269 275 1509 0
310 311 399 1510 0
-434 110 159 1511 0
31 -97 -73 1512 0
121 -265 -333 1513 0
86 413 3 1514 0
-125 36 328 1515 0
-25 -305 461 1516 0
-405 10 -289 1517 0
-417 -322 343 1518 0
-192 225 457 1519 0
-474 -255 -422 1520 0
53 244 -122 1521 0
-32 -257 390 1522 0
54 110 279 1523 0
14 -327 194 1524 0
-209 -385 -185 1525 0
-405 224 -362 1526 0
-243 -241 -315 1527 0
172 -253 152 1528 0
212 -383 338 1529 0
405 489 166 1530 0
307 385 -126 1531 0
252 400 308 1532 0
-446 -100 -351 1533 0
170 235 127 1534 0
-131 120 57 1535 0
353 443 -338 1536 0
402 86 -147 1537 0
449 85 -380 1538 0
-237 -35 -162 1539 0
-382 -258 241 1540 0
43 235 259 1541 0
-91 271 362 1542 0
397 322 485 1543 0
155 -54 13 1544 0
-312 -416 429 1545 0
-99 -143 330 1546 0
-349 -366 309 1547 0
27 -428 440 1548 0
249 -205 -28 1549 0
-20 157 -6 1550 0
126 -211 11 1551 0
402 -142 10 1552 0
3 -164 -248 1553 0
24 -115 408 1554 0
230 342 50 1555 0
139 218 99 1556 0
-425 -92 -162 1557 0
-226 285 377 1558 0
-383 459 138 1559 0
-264 397 271 1560 0
369 -320 -406 1561 0
63 -28 -290 1562 0
-222 -334 309 1563 0
-286 418 -258 1564 0
-391 408 -317 1565 0
-292 -282 -397 1566 0
461 -488 497 1567 0
-464 463 -95 1568 0
-341 -197 -91 1569 0
237 -224 219 1570 0
484 149 -60 1571 0
371 348 -486 1572 0
-296 9 -262 1573 0
164 -85 -46 1574 0
-140 242 -185 1575 0
389 261 -294 1576 0
466 -106 -458 1577 0
-482 -490 -416 1578 0
470 369 211 1579 0
-182 434 347 1580 0
-321 -203 -422 1581 0
301 30 -33 1582 0
-288 202 -67 1583 0
199 -455 -211 1584 0
-445 223 -217 1585 0
500 -442 -106 1586 0
-361 220 -191 1587 0
-78 -486 -223 1588 0
58 -46 -284 1589 0
119 -223 446 1590 0
499 479 430 1591 0
-139 -151 204 1592 0
-82 -429 -160 1593 0
-479 266 296 1594 0
442 182 -459 1595 0
-162 -247 319 1596 0
-323 -334 363 1597 0
-17 -304 369 1598 0
-492 144 103 1599 0
-362 209 -4 1600 0
159 -184 -304 1601 0
494 203 -465 1602 0
-229 -307 98 1603 0
-201 249 116 1604 0
305 355 102 1605 0
-86 -239 326 1606 0
-67 260 -462 1607 0
171 -27 359 1608 0
-50 -215 484 1609 0
41 255 344 1610 0
486 468 352 1611 0
139 -423 -169 1612 0
482 -353 160 1613 0
-322 143 -358 1614 0
-64 -26 -441 1615 0
104 -159 -125 1616 0
30 -281 -365 1617 0
-232 -418 385 1618 0
217 -74 -36 1619 0
-169 -481 159 1620 0
-200 476 -286 1621 0
331 -304 174 1622 0
408 90 -26 1623 0
370 -31 -13 1624 0
-336 -271 -193 1625 0
-363 425 -248 1626 0
52 -134 -150 1627 0
-283 -464 -277 1628 0
467 -30 329 1629 0
-123 -345 159 1630 0
-321 -412 46 1631 0
341 174 -394 1632 0
-458 -111 -63 1633 0
455 -446 470 1634 0
-153 217 -32 1635 0
432 -280 -263 1636 0
-332 143 -378 1637 0
210 -312 325 1638 0
-394 381 -9 1639 0
-480 20 -95 1640 0
-210 428 149 1641 0
-271 233 -36 1642 0
-328 -49 -398 1643 0
-68 220 157 1644 0
-273 250 -11 1645 0
-404 -174 -180 1646 0
-285 381 9 1647 0
-500 -431 -15 1648 0
-303 305 453 1649 0
-94 174 443 1650 0
41 -331 -50 1651 0
407 250 -423 1652 0
208 187 73 1653 0
76 490 -102 1654 0
227 -318 -480 1655 0
-252 239 263 1656 0
-445 391 57 1657 0
172 199 413 1658 0
441 48 299 1659 0
-317 478 313 1660 0
20 42 353 1661 0
408 -53 -319 1662 0
-10 63 165 1663 0
-304 -312 242 1664 0
-307 274 -10 1665 0
-438 -141 332 1666 0
-361 121 -105 1667 0
244 322 222 1668 0
82 64 -454 1669 0
355 370 -489 1670 0
264 -196 41 1671 0
67 1 -19 1672 0
-479 -323 -136 1673 0
-290 -339 -493 1674 0
-151 -498 -128 1675 0
-423 -147 166 1676 0
240 129 92 1677 0
105 70 -196 1678 0
-362 -405 -462 1679 0
338 242 22 1680 0
159 -474 -396 1681 0
434 -261 -108 1682 0
-69 -248 -199 1683 0
-380 290 -492 1684 0
-393 -10 57 1685 0
-452 -262 378 1686 0
-334 263 188 1687 0
192 166 39 1688 0
-152 31 237 1689 0
477 -275 411 1690 0
-470 67 259 1691 0
177 27 -199 1692 0
-294 488 -375 1693 0
34 -207 -475 1694 0
498 349 -297 1695 0
-204 -39 -20 1696 0
163 -22 50 1697 0
-295 347 314 1698 0
-54 -275 155 1699 0
-320 -80 -299 1700 0
190 191 219 1701 0
-352 406 -180 1702 0
-236 37 430 1703 0
-136 346 482 1704 0
467 -387 477 1705 0
-342 305 103 1706 0
-235 -240 -245 1707 0
-320 296 426 1708 0
-107 170 286 1709 0
-491 -161 222 1710 0
-3 -119 -260 1711 0
439 17 423 1712 0
-25 213 333 1713 0
476 -118 -102 1714 0
101 497 346 1715 0
-147 -225 454 1716 0
152 -31 425 1717 0
433 -26 -388 1718 0
-214 -427 55 1719 0
72 -472 -355 1720 0
-313 -216 57 1721 0
47 -454 319 1722 0
18 193 267 1723 0
491 106 -419 1724 0
158 -307 381 1725 0
51 -15 267 1726 0
-153 388 -415 1727 0
395 -64 -256 1728 0
109 -159 51 1729 0
-232 -482 113 1730 0
252 54 -76 1731 0
458 -101 163 1732 0
336 395 150 1733 0
-11 295 458 1734 0
183 -49 334 1735 0
-210 198 48 1736 0
-300 -213 -432 1737 0
-230 -346 -438 1738 0
-433 -329 -59 1739 0
-478 445 373 1740 0
85 -335 -33 1741 0
-198 -463 99 1742 0
-286 -78 498 1743 0
-392 91 296 1744 0
-142 376 241 1745 0
-444 172 -307 1746 0
63 401 50 1747 0
345 -427 163 1748 0
-200 306 -84 1749 0
-187 -451 439 1750 0
75 286 41 1751 0
440 386 412 1752 0
-319 268 474 1753 0
-198 -456 -272 1754 0
350 -468 207 1755 0
215 -128 471 1756 0
37 236 -389 1757 0
-124 487 -288 1758 0
95 103 254 1759 0
-239 -359 -118 1760 0
-369 496 -485 1761 0
483 26 -473 1762 0
254 -244 155 1763 0
-316 -240 -253 1764 0
-30 -17 -9 1765 0
-272 237 -115 1766 0
229 306 -386 1767 0
-203 -190 -275 1768 0
417 -196 -429 1769 0
221 -399 -473 1770 0
-110 -417 -399 1771 0
-148 469 464 1772 0
-35 -390 323 1773 0
431 465 12 1774 0
-336 216 -233 1775 0
439 187 -28 1776 0
-239 -99 375 1777 0
128 -373 414 1778 0
251 -369 -137 1779 0
99 -339 -379 1780 0
-219 -190 424 1781 0
378 220 274 1782 0
120 -407 108 1783 0
95 -385 371 1784 0
-363 -360 59 1785 0
-389 186 308 1786 0
120 132 -89 1787 0
497 35 477 1788 0
190 206 68 1789 0
413 -375 -498 1790 0
453 -454 149 1791 0
248 133 481 1792 0
443 347 -140 1793 0
297 292 242 1794 0
-346 -413 -169 1795 0
-370 -300 81 1796 0
280 -80 -257 1797 0
-151 43 20 1798 0
360 255 -144 1799 0
413 279 -483 1800 0
293 441 -299 1801 0
315 -169 481 1802 0
152 291 -440 1803 0
467 -133 -68 1804 0
127 -56 237 1805 0
-138 -60 373 1806 0
47 99 118 1807 0
-417 38 -268 1808 0
-100 385 348 1809 0
-280 466 240 1810 0
450 -386 362 1811 0
-243 -26 -437 1812 0
-331 -276 225 1813 0
-472 -146 63 1814 0
107 -106 170 1815 0
290 363 -209 1816 0
-299 124 -226 1817 0
-291 -275 193 1818 0
200 325 57 1819 0
-171 300 -143 1820 0
-411 13 235 1821 0
-1 463 -329 1822 0
-225 -1 -356 1823 0
358 446 254 1824 0
-22 321 -242 1825 0
-174 374 -408 1826 0
65 -121 22 1827 0
481 -300 191 1828 0
-100 -286 -425 1829 0
-94 201 -417 1830 0
274 315 411 1831 0
451 -341 -104 1832 0
190 -376 -68 1833 0
8 -268 -261 1834 0
256 -41 404 1835 0
-100 461 65 1836 0
385 230 -488 1837 0
499 -69 398 1838 0
-407 51 343 1839 0
465 475 -264 1840 0
217 -330 322 1841 0
-138 -179 234 1842 0
109 -364 -307 1843 0
488 152 -299 1844 0
-359 -148 35 1845 0
63 435 228 1846 0
-500 -123 -50 1847 0
104 191 -404 1848 0
392 413 -25 1849 0
125 -103 417 1850 0
89 -443 371 1851 0
-491 -215 472 1852 0
-392 -386 164 1853 0
-323 -140 126 1854 0
-45 431 -323 1855 0
-364 284 65 1856 0
-298 -4 -447 1857 0
402 358 375 1858 0
315 -458 389 1859 0
-57 -471 283 1860 0
-115 -226 466 1861 0
-192 -59 -126 1862 0
-189 330 -319 1863 0
264 450 322 1864 0
425 -68 -163 1865 0
7 -77 72 1866 0
-471 14 -449 1867 0
290 240 -145 1868 0
487 77 284 1869 0
332 -116 -334 1870 0
459 234 -153 1871 0
254 431 -175 1872 0
-449 390 -181 1873 0
354 -309 459 1874 0
-407 -76 96 1875 0
81 385 349 1876 0
-498 144 -8 1877 0
-169 -137 -311 1878 0
206 226 404 1879 0
-101 -326 142 1880 0
-498 142 383 1881 0
227 351 -70 1882 0
403 168 -141 1883 0
-415 -266 -318 1884 0
-422 -300 280 1885 0
177 -429 84 1886 0
183 -193 -259 1887 0
-467 112 -416 1888 0
-450 455 407 1889 0
326 410 -316 1890 0
-205 482 -425 1891 0
137 -48 -60 1892 0
-306 -474 482 1893 0
-10 233 2 1894 0
-387 307 -163 1895 0
479 -421 -36 1896 0
-332 -303 264 1897 0
-158 -2 311 1898 0
69 -154 -242 1899 0
90 -301 -222 1900 0
81 -225 -151 1901 0
327 395 186 1902 0
-42 -343 454 1903 0
-309 50 -68 1904 0
-362 -211 83 1905 0
-98 245 71 1906 0
-419 234 -14 1907 0
457 28 -466 1908 0
382 435 245 1909 0
462 -386 -428 1910 0
-330 260 -107 1911 0
-459 -315 -369 1912 0
-15 246 485 1913 0
57 -437 414 1914 0
-354 321 136 1915 0
-347 288 -65 1916 0
-241 173 365 1917 0
-453 211 -87 1918 0
-192 456 -396 1919 0
-323 -282 -477 1920 0
251 15 27 1921 0
182 -104 335 1922 0
117 -56 -195 1923 0
-459 -155 165 1924 0
-82 382 -193 1925 0
-456 410 181 1926 0
-459 -50 -303 1927 0
-495 -167 -368 1928 0
-49 93 36 1929 0
-172 -385 -142 1930 0
-323 202 -281 1931 0
212 1 385 1932 0
-182 463 425 1933 0
429 386 2 1934 0
117 496 -498 1935 0
10 137 -222 1936 0
310 307 -421 1937 0
-146 -336 154 1938 0
130 90 -53 1939 0
-251 93 30 1940 0
-328 357 -110 1941 0
389 43 205 1942 0
26 -126 -475 1943 0
-253 260 -345 1944 0
-95 -265 -429 1945 0
-397 41 -425 1946 0
474 67 -443 1947 0
476 -239 283 1948 0
334 -331 25 1949 0
-229 60 -479 1950 0
295 -261 -118 1951 0
-4 130 412 1952 0
425 -381 -301 1953 0
-397 160 -490 1954 0
-184 457 74 1955 0
-309 393 -93 1956 0
-101 -330 -258 1957 0
-61 301 -131 1958 0
-343 -42 -210 1959 0
-8 86 -121 1960 0
-456 44 251 1961 0
-248 -341 304 1962 0
6 308 -222 1963 0
-412 458 368 1964 0
-480 251 144 1965 0
-85 -145 -464 1966 0
-167 165 217 1967 0
-466 449 -34 1968 0
-370 -401 325 1969 0
445 -113 175 1970 0
-188 -449 75 1971 0
255 -403 -227 1972 0
-119 -371 -148 1973 0
-61 -318 299 1974 0
70 467 324 1975 0
343 228 285 1976 0
437 361 -310 1977 0
-368 39 -116 1978 0
-408 197 -103 1979 0
-383 -500 362 1980 0
-204 276 -38 1981 0
-301 303 -158 1982 0
294 -63 -56 1983 0
-405 498 320 1984 0
-362 -449 186 1985 0
-65 5 -218 1986 0
-47 -181 -459 1987 0
-4 -467 214 1988 0
249 -242 -6 1989 0
135 -347 313 1990 0
49 379 -65 1991 0
146 -211 -264 1992 0
213 -47 -384 1993 0
204 -368 -178 1994 0
-247 354 141 1995 0
-406 38 -193 1996 0
476 2 -500 1997 0
36 188 35 1998 0
-294 290 -378 1999 0
-220 411 155 2000 0
-300 275 12 2001 0
-471 -8 -193 2002 0
457 -141 100 2003 0
344 -457 116 2004 0
6 104 195 2005 0
-198 413 321 2006 0
148 250 -162 2007 0
149 -428 -87 2008 0
473 433 499 2009 0
353 -493 354 2010 0
-112 -308 -157 2011 0
-335 -180 -258 2012 0
-156 23 192 2013 0
-212 447 148 2014 0
236 242 -383 2015 0
237 83 425 2016 0
-413 240 362 2017 0
-403 399 267 2018 0
467 -464 276 2019 0
159 -180 -418 2020 0
-35 147 -48 2021 0
264 407 -63 2022 0
198 212 -178 2023 0
441 -222 409 2024 0
138 273 -392 2025 0
153 398 -456 2026 0
-209 13 -330 2027 0
402 -25 390 2028 0
183 -24 55 2029 0
336 306 -380 2030 0
-131 -176 -494 2031 0
-348 -492 106 2032 0
234 -191 -368 2033 0
377 236 3 2034 0
-150 -147 -497 2035 0
233 352 230 2036 0
-182 -332 189 2037 0
-382 -439 -273 2038 0
-54 317 -272 2039 0
-36 89 179 2040 0
-460 -64 -18 2041 0
39 -90 -471 2042 0
181 105 310 2043 0
173 48 -484 2044 0
149 -223 -288 2045 0
-309 -110 195 2046 0
-136 181 263 2047 0
-176 216 -4 2048 0
-82 -449 261 2049 0
493 28 -148 2050 0
234 437 186 2051 0
2 447 147 2052 0
240 292 359 2053 0
9 -365 210 2054 0
-69 463 -90 2055 0
359 307 -8 2056 0
235 446 -485 2057 0
-230 317 -138 2058 0
-96 300 298 2059 0
-9 359 -158 2060 0
-140 363 -240 2061 0
-412 180 -249 2062 0
-27 367 -322 2063 0
150 278 418 2064 0
69 -175 89 2065 0
231 326 -337 2066 0
-179 -234 475 2067 0
-279 398 38 2068 0
-407 -38 -26 2069 0
-182 -131 -36 2070 0
269 366 -121 2071 0
-245 -361 -67 2072 0
-337 113 398 2073 0
-214 -33 213 2074 0
403 -386 418 2075 0
177 353 221 2076 0
176 59 358 2077 0
-401 466 -200 2078 0
-23 -24 -112 2079 0
448 -317 253 2080 0
490 143 6 2081 0
-208 -328 470 2082 0
100 -432 -447 2083 0
-173 -393 140 2084 0
91 18 119 2085 0
374 186 -448 2086 0
-145 -9 47 2087 0
-239 -339 -482 2088 0
412 489 -108 2089 0
-251 -230 -477 2090 0
396 -323 366 2091 0
-287 -199 -253 2092 0
81 2 -229 2093 0
-176 157 -448 2094 0
219 -416 -286 2095 0
-45 426 261 2096 0
340 -314 34 2097 0
-381 -225 -149 2098 0
-35 -96 223 2099 0
400 -102 237 2100 0
103 447 110 2101 0
-385 140 -238 2102 0
283 -332 90 2103 0
489 -101 -61 2104 0
-39 257 -143 2105 0
394 253 -295 2106 0
14 463 -81 2107 0
-275 -223 -307 2108 0
120 -267 -318 2109 0
-123 -443 475 2110 0
46 -153 240 2111 0
352 226 446 2112 0
375 445 133 2113 0
293 -495 -217 2114 0
-203 379 -213 2115 0
21 -302 196 2116 0
151 -395 76 2117 0
-136 -459 206 2118 0
353 -233 -89 2119 0
-198 457 -35 2120 0
-383 60 -462 2121 0
18 -278 -377 2122 0
-187 78 -262 2123 0
-66 165 -431 2124 0
-124 -315 359 2125 0
-309 76 -90 2126 0
-131 76 -71 2127 0
-368 202 -394 2128 0
-151 379 -260 2129 0
-189 171 99 2130 0
62 -50 101 2131 0
226 375 -446 2132 0
394 -29 -191 2133 0
-338 -182 164 2134 0
229 398 83 2135 0
120 -287 -307 2136 0
301 -234 -292 2137 0
54 -388 -377 2138 0
-146 -160 -70 2139 0
373 290 218 2140 0
211 153 -352 2141 0
23 -307 177 2142 0
-260 -417 -350 2143 0
32 109 -209 2144 0
-484 395 -85 2145 0
132 98 62 2146 0
52 -70 -497 2147 0
-133 179 486 2148 0
-69 253 -179 2149 0
-258 471 -107 2150 0
239 -491 -145 2151 0
99 -180 -26 2152 0
-360 295 258 2153 0
353 -474 -57 2154 0
92 -456 408 2155 0
-408 -325 -137 2156 0
-102 131 -154 2157 0
-262 67 306 2158 0
462 405 234 2159 0
-365 -436 119 2160 0
-300 81 474 2161 0
-85 160 184 2162 0
458 256 313 2163 0
-199 -260 -80 2164 0
-219 -195 -351 2165 0
-3 -398 -211 2166 0
-55 393 -432 2167 0
185 -417 -345 2168 0
-493 -244 -438 2169 0
481 412 -355 2170 0
-45 427 -229 2171 0
-448 -200 -486 2172 0
454 -445 443 2173 0
56 103 473 2174 0
180 -361 200 2175 0
-172 -73 240 2176 0
131 137 317 2177 0
-445 -71 165 2178 0
-461 233 92 2179 0
-264 80 43 2180 0
-244 -339 -438 2181 0
396 491 446 2182 0
-498 486 -461 2183 0
-498 -49 139 2184 0
-192 15 -325 2185 0
-112 -371 41 2186 0
335 468 -5 2187 0
191 -493 73 2188 0
411 125 390 2189 0
-96 455 -212 2190 0
-138 366 -307 2191 0
-464 -448 293 2192 0
37 -283 143 2193 0
319 150 -86 2194 0
-364 223 -471 2195 0
336 102 -335 2196 0
-414 -169 23 2197 0
-2 -431 7 2198 0
-22 -59 -369 2199 0
-79 58 253 2200 0
468 -313 222 2201 0
-315 -335 198 2202 0
211 138 -226 2203 0
483 310 376 2204 0
-435 -306 33 2205 0
-54 462 -28 2206 0
-392 -6 259 2207 0
302 -267 5 2208 0
-469 -132 463 2209 0
-141 26 465 2210 0
-123 -237 361 2211 0
-153 -263 365 2212 0
266 -436 -445 2213 0
-48 -332 463 2214 0
370 326 -229 2215 0
409 17 463 2216 0
-454 313 138 2217 0
102 314 216 2218 0
-462 426 -151 2219 0
380 -415 210 2220 0
273 -121 393 2221 0
106 219 333 2222 0
-357 -215 -153 2223 0
475 43 -130 2224 0
296 349 185 2225 0
167 157 41 2226 0
-369 -220 -155 2227 0
-498 -148 -214 2228 0
488 -41 294 2229 0
277 337 -73 2230 0
-449 -280 42 2231 0
-471 123 -198 2232 0
-112 301 111 2233 0
-335 436 -227 2234 0
423 -239 -442 2235 0
91 57 -273 2236 0
-219 -123 -429 2237 0
-306 -344 53 2238 0
479 -417 460 2239 0
29 247 -56 2240 0
-60 295 -448 2241 0
463 -297 179 2242 0
252 321 17 2243 0
78 -387 416 2244 0
500 -220 304 2245 0
457 -331 -272 2246 0
294 -375 -210 2247 0
-212 -311 326 2248 0
-163 124 -202 2249 0
-471 -77 143 2250 0
239 -79 84 2251 0
372 13 -162 2252 0
-30 97 450 2253 0
462 -343 370 2254 0
225 342 -492 2255 0
451 181 46 2256 0
435 10 379 2257 0
-109 275 -405 2258 0
-53 183 297 2259 0
35 -269 -385 2260 0
-391 -385 -368 2261 0
129 158 -457 2262 0
-376 -468 91 2263 0
43 340 -297 2264 0
205 184 52 2265 0
196 304 -285 2266 0
-163 -232 -477 2267 0
402 -48 250 2268 0
378 154 -324 2269 0
-34 -336 -440 2270 0
-192 -468 407 2271 0
-15 168 279 2272 0
-313 365 384 2273 0
-306 -496 134 2274 0
186 -393 392 2275 0
411 56 186 2276 0
246 487 -117 2277 0
392 -297 120 2278 0
-64 358 -426 2279 0
323 -185 412 2280 0
485 -280 474 2281 0
-499 -180 -56 2282 0
-343 328 400 2283 0
233 -174 28 2284 0
-42 192 -438 2285 0
21 -303 -362 2286 0
-387 -272 -361 2287 0
277 176 394 2288 0
-441 262 -301 2289 0
219 114 100 2290 0
307 327 45 2291 0
325 241 480 2292 0
-279 484 12 2293 0
-202 -58 -28 2294 0
462 305 150 2295 0
257 195 459 2296 0
151 389 -448 2297 0
119 56 382 2298 0
-276 -317 348 2299 0
-93 -148 476 2300 0
268 -20 -227 2301 0
288 -77 -203 2302 0
10 -376 -29 2303 0
36 74 92 2304 0
228 -120 -115 2305 0
-303 223 -12 2306 0
-197 -344 -325 2307 0
-468 93 243 2308 0
69 -231 416 2309 0
-365 -404 -153 2310 0
30 82 -353 2311 0
326 383 200 2312 0
144 -379 -313 2313 0
86 -431 -142 2314 0
83 342 -297 2315 0
209 193 398 2316 0
-188 -310 465 2317 0
186 368 97 2318 0
-247 -114 99 2319 0
474 172 467 2320 0
-99 29 -175 2321 0
-324 356 210 2322 0
-418 106 473 2323 0
-390 -11 426 2324 0
185 -272 402 2325 0
477 7 -134 2326 0
-376 450 448 2327 0
-498 316 -209 2328 0
388 284 -170 2329 0
-280 -261 -215 2330 0
24 -295 -308 2331 0
-62 104 -401 2332 0
-176 -200 -444 2333 0
-443 -185 217 2334 0
-321 -201 310 2335 0
-207 -307 -36 2336 0
247 11 396 2337 0
424 -229 -351 2338 0
-158 493 -364 2339 0
-382 299 466 2340 0
356 459 32 2341 0
486 499 196 2342 0
289 -488 -473 2343 0
491 373 -256 2344 0
229 -482 -287 2345 0
-250 204 -457 2346 0
-384 -19 382 2347 0
118 134 -338 2348 0
115 10 284 2349 0
-426 -317 -281 2350 0
326 -164 229 2351 0
26 -500 -465 2352 0
334 -360 -476 2353 0
52 -61 -155 2354 0
427 -213 178 2355 0
152 291 18 2356 0
103 -54 149 2357 0
-306 -316 -101 2358 0
-13 288 -413 2359 0
-266 -422 -318 2360 0
-233 330 -227 2361 0
-73 184 -129 2362 0
-494 401 -26 2363 0
238 228 484 2364 0
224 -221 -363 2365 0
-284 -117 488 2366 0
29 399 21 2367 0
308 164 214 2368 0
442 240 -77 2369 0
389 472 -72 2370 0
417 141 -477 2371 0
118 -405 -380 2372 0
-54 273 -321 2373 0
-124 108 -253 2374 0
471 -331 -182 2375 0
-405 451 -13 2376 0
205 -179 157 2377 0
-235 -12 -88 2378 0
-337 294 426 2379 0
-204 383 -412 2380 0
-460 401 -190 2381 0
-69 -206 184 2382 0
-206 432 -462 2383 0
-330 -13 437 2384 0
-64 -347 -481 2385 0
262 162 -500 2386 0
-362 -411 -108 2387 0
-244 173 21 2388 0
-474 487 -192 2389 0
-438 -206 322 2390 0
-221 181 -425 2391 0
-307 423 -29 2392 0
370 360 100 2393 0
28 -10 25 2394 0
-236 373 457 2395 0
231 419 -213 2396 0
-73 488 414 2397 0
100 194 245 2398 0
76 280 -147 2399 0
102 103 -441 2400 0
-155 319 -100 2401 0
14 370 68 2402 0
-496 388 -20 2403 0
-5 -404 -231 2404 0
-443 -317 168 2405 0
-249 -344 141 2406 0
-477 369 62 2407 0
95 134 56 2408 0
-4 -409 -101 2409 0
497 306 350 2410 0
288 -132 331 2411 0
381 225 262 2412 0
430 -360 294 2413 0
392 -443 428 2414 0
463 471 95 2415 0
-361 202 496 2416 0
356 249 58 2417 0
-56 -388 -379 2418 0
-254 14 342 2419 0
327 84 86 2420 0
356 27 410 2421 0
331 235 -484 2422 0
56 -289 -30 2423 0
475 -498 210 2424 0
-45 -344 -287 2425 0
-440 308 -50 2426 0
482 166 113 2427 0
-413 -160 203 2428 0
438 71 15 2429 0
195 -169 372 2430 0
371 -265 -139 2431 0
14 -11 464 2432 0
-295 -78 357 2433 0
219 -314 474 2434 0
-221 201 -226 2435 0
-367 161 141 2436 0
57 279 21 2437 0
380 -443 153 2438 0
436 59 -179 2439 0
1 -234 230 2440 0
-408 -114 150 2441 0
-131 256 -447 2442 0
-215 -410 416 2443 0
338 347 -322 2444 0
-128 429 341 2445 0
448 270 -132 2446 0
227 -117 239 2447 0
63 482 423 2448 0
-397 299 -119 2449 0
-445 -455 182 2450 0
-5 398 -306 2451 0
-460 237 -36 2452 0
-44 -116 27 2453 0
203 -293 152 2454 0
493 175 -72 2455 0
309 403 -461 2456 0
305 -227 -189 2457 0
338 214 -422 2458 0
-382 -135 -37 2459 0
-361 223 391 2460 0
-286 59 411 2461 0
-263 -370 430 2462 0
323 211 484 2463 0
60 403 -41 2464 0
387 -130 140 2465 0
-456 294 -17 2466 0
55 281 483 2467 0
389 -25 -470 2468 0
185 318 -481 2469 0
-97 494 -65 2470 0
58 -404 319 2471 0
7 457 -72 2472 0
-448 -172 374 2473 0
20 451 452 2474 0
-390 -247 169 2475 0
-300 -150 -491 2476 0
38 88 -99 2477 0
-168 -62 214 2478 0
147 -136 -27 2479 0
131 -295 422 2480 0
-495 -346 -206 2481 0
-134 -366 270 2482 0
-409 -62 -316 2483 0
-43 -437 180 2484 0
383 -290 209 2485 0
-443 -165 400 2486 0
172 123 -77 2487 0
500 306 -274 2488 0
307 294 -171 2489 0
419 -232 -305 2490 0
-190 -244 -270 2491 0
146 -413 -100 2492 0
-397 74 451 2493 0
202 -458 324 2494 0
212 -361 260 2495 0
42 -193 465 2496 0
-486 254 -316 2497 0
469 -496 -106 2498 0
-122 -462 29 2499 0
369 -30 61 2500 0
366 14 -466 2501 0
-77 419 170 2502 0
363 -499 4 2503 0
38 -17 117 2504 0
-191 238 114 2505 0
270 -183 -434 2506 0
335 444 410 2507 0
475 -423 -339 2508 0
345 343 -194 2509 0
96 149 475 2510 0
-192 218 -146 2511 0
-22 437 -362 2512 0
-46 3 -328 2513 0
335 486 208 2514 0
-400 -5 1 2515 0
-451 68 46 2516 0
-301 276 83 2517 0
131 -257 333 2518 0
133 198 427 2519 0
-137 -259 -368 2520 0
15 -75 -446 2521 0
-26 345 125 2522 0
18 128 57 2523 0
-242 292 107 2524 0
199 79 278 2525 0
239 -262 473 2526 0
-373 -313 -392 2527 0
290 -13 139 2528 0
232 413 -42 2529 0
7 -212 97 2530 0
49 -389 -296 2531 0
7 24 116 2532 0
-453 -13 270 2533 0
-60 -37 -165 2534 0
-128 -375 132 2535 0
349 397 216 2536 0
304 -466 489 2537 0
-361 32 -267 2538 0
441 7 320 2539 0
-42 52 91 2540 0
-425 494 356 2541 0
-195 -479 366 2542 0
-347 241 -96 2543 0
-342 274 -232 2544 0
214 -275 166 2545 0
371 -227 -233 2546 0
265 -221 453 2547 0
87 462 120 2548 0
-20 77 -496 2549 0
-227 -196 -462 2550 0
-190 374 309 2551 0
455 -427 -36 2552 0
494 -498 358 2553 0
-24 -106 -494 2554 0
117 -61 30 2555 0
-456 463 -273 2556 0
-286 454 500 2557 0
339 -299 132 2558 0
198 382 304 2559 0
31 152 257 2560 0
419 137 3 2561 0
396 474 238 2562 0
-302 -117 300 2563 0
168 -74 270 2564 0
328 288 -23 2565 0
228 26 472 2566 0
-18 295 251 2567 0
-115 -442 146 2568 0
-356 -104 -410 2569 0
-290 82 119 2570 0
65 -314 -60 2571 0
318 238 -142 2572 0
62 243 -444 2573 0
-392 -361 -324 2574 0
-178 -388 270 2575 0
126 471 -374 2576 0
-15 463 -336 2577 0
165 -197 -428 2578 0
-305 -50 8 2579 0
244 3 57 2580 0
93 193 228 2581 0
-89 24 -490 2582 0
90 -193 -150 2583 0
115 -20 -355 2584 0
-249 -11 66 2585 0
-382 372 -13 2586 0
-280 43 59 2587 0
13 381 318 2588 0
-298 -341 260 2589 0
-454 233 -253 2590 0
366 -388 -384 2591 0
98 -62 -86 2592 0
-212 -252 -116 2593 0
488 -235 434 2594 0
-172 -46 -22 2595 0
338 -348 33 2596 0
392 94 128 2597 0
60 -49 223 2598 0
378 -274 267 2599 0
-316 222 69 2600 0
210 -166 -436 2601 0
263 -226 -275 2602 0
-207 -368 -172 2603 0
194 480 147 2604 0
69 288 183 2605 0
-120 270 32 2606 0
-330 -473 257 2607 0
480 -265 -431 2608 0
288 335 -301 2609 0
268 110 -78 2610 0
215 -317 -454 2611 0
-397 -206 -222 2612 0
149 -38 483 2613 0
-89 -51 122 2614 0
320 154 406 2615 0
426 -376 142 2616 0
354 465 -321 2617 0
460 -188 -150 2618 0
212 217 345 2619 0
-482 -423 -13 2620 0
-495 -140 274 2621 0
-137 80 -395 2622 0
-225 -181 -397 2623 0
40 -15 -64 2624 0
-491 354 255 2625 0
-222 -315 -411 2626 0
132 -389 -459 2627 0
336 105 -38 2628 0
188 186 46 2629 0
-341 159 -276 2630 0
133 -426 100 2631 0
-465 -397 -338 2632 0
202 195 237 2633 0
-431 491 -296 2634 0
-207 -316 -71 2635 0
241 330 -343 2636 0
-78 -304 -331 2637 0
466 482 -374 2638 0
170 210 -80 2639 0
-465 463 -95 2640 0
-75 -301 330 2641 0
483 246 393 2642 0
106 -450 459 2643 0
498 331 -104 2644 0
-310 362 281 2645 0
-165 205 -98 2646 0
-352 32 145 2647 0
422 320 -384 2648 0
-355 -82 193 2649 0
146 -35 -283 2650 0
