p cnf 2650 2150
-485 -429 287 501 0
92 -289 -251 502 0
418 -409 -113 503 0
-19 -84 -188 504 0
-380 320 439 505 0
-221 468 -120 506 0
-20 -207 -352 507 0
156 456 -181 508 0
442 -377 319 509 0
-152 -341 481 510 0
240 -476 -108 511 0
57 340 68 512 0
-235 398 420 513 0
486 465 -101 514 0
422 206 -123 515 0
-236 -448 -145 516 0
322 -325 407 517 0
41 234 238 518 0
-135 -137 -422 519 0
-58 -238 122 520 0
88 456 316 521 0
-9 42 393 522 0
108 205 219 523 0
271 -129 226 524 0
-205 -317 -345 525 0
96 81 156 526 0
-248 48 -165 527 0
397 432 279 528 0
160 -59 66 529 0
-464 247 434 530 0
-439 305 -461 531 0
-251 429 348 532 0
-169 327 120 533 0
-332 -324 15 534 0
130 179 -292 535 0
-425 -144 28 536 0
211 -456 18 537 0
55 -209 321 538 0
-306 443 -445 539 0
-409 237 -25 540 0
21 -289 -41 541 0
308 -279 -157 542 0
-430 21 -387 543 0
-242 -144 462 544 0
-317 181 -104 545 0
-342 -19 -411 546 0
343 -270 99 547 0
284 -379 -332 548 0
-284 -481 91 549 0
-288 491 -332 550 0
-423 260 -67 551 0
-34 -1 -49 552 0
235 414 148 553 0
-449 -39 -124 554 0
487 -143 50 555 0
-175 448 228 556 0
124 316 13 557 0
-347 -296 318 558 0
-195 419 -360 559 0
-437 201 239 560 0
265 -434 351 561 0
308 -376 -15 562 0
286 290 411 563 0
-100 104 43 564 0
-239 226 324 565 0
128 -491 -388 566 0
-124 271 286 567 0
196 340 -297 568 0
-406 -134 -127 569 0
-88 -426 120 570 0
-136 474 145 571 0
434 110 206 572 0
120 444 -500 573 0
-103 369 -120 574 0
-283 -284 230 575 0
396 399 182 576 0
130 304 90 577 0
461 86 -84 578 0
-76 -459 261 579 0
164 78 -399 580 0
182 -325 -381 581 0
269 74 -216 582 0
55 -282 -210 583 0
284 -6 -217 584 0
466 -409 315 585 0
366 364 363 586 0
-295 -213 284 587 0
60 420 -415 588 0
-443 -22 224 589 0
181 -219 235 590 0
92 -241 440 591 0
-388 306 -106 592 0
316 403 -207 593 0
112 -478 460 594 0
-323 -366 -183 595 0
45 -43 -158 596 0
89 -264 -410 597 0
-113 -491 279 598 0
-355 93 -254 599 0
-360 -120 -385 600 0
125 -326 480 601 0
196 -54 390 602 0
32 -83 -414 603 0
223 399 205 604 0
-55 -460 424 605 0
188 -119 -256 606 0
439 286 -78 607 0
-102 -19 -170 608 0
-75 -41 444 609 0
53 380 154 610 0
-495 -225 -12 611 0
218 -372 -175 612 0
-440 334 104 613 0
-126 331 386 614 0
-495 -142 329 615 0
45 -127 387 616 0
-280 254 140 617 0
425 283 355 618 0
70 411 269 619 0
-129 -290 254 620 0
466 -254 -39 621 0
261 102 103 622 0
234 -72 205 623 0
-397 138 487 624 0
374 350 138 625 0
-315 -410 -144 626 0
-144 -103 -232 627 0
-223 340 38 628 0
-453 287 -146 629 0
484 -385 300 630 0
299 -67 -467 631 0
163 69 -218 632 0
-18 404 -285 633 0
-66 226 349 634 0
-198 220 212 635 0
-40 -126 192 636 0
-500 477 -237 637 0
-255 132 312 638 0
41 -239 417 639 0
-205 -129 -101 640 0
67 -201 -490 641 0
55 115 390 642 0
-464 -221 103 643 0
376 2 324 644 0
58 290 -471 645 0
423 442 414 646 0
468 -6 217 647 0
364 -138 -380 648 0
236 357 -82 649 0
351 179 -426 650 0
-395 -124 -129 651 0
422 94 167 652 0
179 -208 -109 653 0
-3 -443 451 654 0
-449 -110 -369 655 0
-318 455 52 656 0
-326 197 -498 657 0
-174 21 -178 658 0
122 -125 4 659 0
-17 18 312 660 0
-368 338 139 661 0
13 182 -152 662 0
-398 266 68 663 0
-79 179 -487 664 0
370 -72 -7 665 0
-443 6 -94 666 0
451 -337 418 667 0
-74 -166 -485 668 0
-374 210 -334 669 0
-358 -252 -72 670 0
-479 411 -465 671 0
204 475 168 672 0
-277 463 -286 673 0
231 -141 388 674 0
313 114 -272 675 0
-258 -73 -183 676 0
452 195 118 677 0
497 171 206 678 0
358 -316 -234 679 0
-230 -250 473 680 0
-442 304 339 681 0
340 306 399 682 0
412 23 432 683 0
-308 331 355 684 0
-2 -91 438 685 0
-101 123 43 686 0
-394 235 237 687 0
206 109 36 688 0
-218 -124 445 689 0
65 -395 -310 690 0
-320 384 -34 691 0
-453 -114 -362 692 0
-139 -375 -219 693 0
386 -173 49 694 0
71 -288 170 695 0
337 -183 -272 696 0
428 -62 149 697 0
493 -245 349 698 0
97 61 400 699 0
-404 166 360 700 0
20 476 -201 701 0
-27 -280 -411 702 0
401 -360 -312 703 0
-154 -398 -123 704 0
38 -282 -267 705 0
144 -440 473 706 0
-372 289 31 707 0
371 -380 57 708 0
347 -433 312 709 0
-16 -289 -437 710 0
360 61 424 711 0
293 100 -252 712 0
168 -105 170 713 0
-231 477 -197 714 0
-188 -41 -110 715 0
-279 66 443 716 0
-327 243 319 717 0
-454 -142 464 718 0
327 -257 -209 719 0
469 380 11 720 0
65 319 286 721 0
-105 57 96 722 0
488 167 -160 723 0
379 -456 -24 724 0
-385 474 469 725 0
52 -177 227 726 0
-29 -156 206 727 0
-364 -191 -188 728 0
139 258 -317 729 0
-187 -189 -441 730 0
217 -491 475 731 0
210 -178 -255 732 0
79 451 227 733 0
-6 104 -131 734 0
-2 324 -306 735 0
-490 -383 58 736 0
50 416 68 737 0
425 376 -190 738 0
124 331 -489 739 0
-261 222 -364 740 0
184 325 31 741 0
177 -90 381 742 0
-295 119 314 743 0
-115 61 490 744 0
61 390 -63 745 0
-54 -144 -122 746 0
382 -13 -409 747 0
-305 -39 -485 748 0
-413 -288 233 749 0
-237 -7 -432 750 0
-328 488 163 751 0
-276 -412 -471 752 0
250 271 -438 753 0
-105 -309 -23 754 0
377 -43 435 755 0
-72 -187 -327 756 0
-344 -249 96 757 0
-148 -434 470 758 0
312 423 293 759 0
313 434 70 760 0
440 434 230 761 0
379 237 169 762 0
-33 -131 456 763 0
-346 -312 -370 764 0
-98 -60 -376 765 0
31 -455 -231 766 0
-133 484 -234 767 0
41 123 -293 768 0
443 -117 -411 769 0
262 -139 159 770 0
437 264 -228 771 0
287 -329 -350 772 0
173 120 25 773 0
484 -425 339 774 0
-68 479 459 775 0
419 496 -14 776 0
-486 348 492 777 0
-373 193 -494 778 0
-313 -441 73 779 0
224 -141 67 780 0
206 499 375 781 0
-179 -403 49 782 0
85 197 318 783 0
-468 242 -57 784 0
-119 -190 367 785 0
459 -129 446 786 0
-226 407 171 787 0
30 182 -296 788 0
2 -112 118 789 0
-22 95 -30 790 0
-373 361 -430 791 0
-381 67 -254 792 0
-159 -282 -211 793 0
438 479 197 794 0
105 107 -236 795 0
193 267 480 796 0
-431 39 479 797 0
-121 390 20 798 0
101 389 224 799 0
192 290 369 800 0
16 -345 23 801 0
475 419 41 802 0
20 -173 -88 803 0
-362 -100 -294 804 0
-309 -482 -145 805 0
231 -100 -293 806 0
-260 263 94 807 0
194 -119 -45 808 0
425 245 -60 809 0
-1 107 -478 810 0
38 -227 -40 811 0
105 -282 439 812 0
-112 -464 487 813 0
498 106 467 814 0
382 250 151 815 0
-384 -490 -439 816 0
-420 175 -419 817 0
-179 441 -220 818 0
-38 307 225 819 0
-314 -1 381 820 0
427 390 362 821 0
116 -462 -328 822 0
337 -245 -369 823 0
84 -339 33 824 0
-362 -262 163 825 0
138 -441 99 826 0
238 -346 -125 827 0
179 339 -42 828 0
-184 383 44 829 0
268 -245 -283 830 0
-342 194 10 831 0
110 -179 -236 832 0
-254 11 306 833 0
-459 -307 -281 834 0
-38 368 317 835 0
158 -86 290 836 0
-274 -206 -278 837 0
312 -280 65 838 0
489 -381 280 839 0
-336 -459 -404 840 0
466 -47 -449 841 0
-146 -367 -442 842 0
226 -228 178 843 0
70 192 -106 844 0
-101 123 -10 845 0
395 111 110 846 0
-290 -493 -262 847 0
287 109 -397 848 0
111 425 468 849 0
67 459 -333 850 0
-397 313 -115 851 0
-185 -154 73 852 0
368 -374 -42 853 0
-309 -391 -35 854 0
-1 476 247 855 0
226 -164 -48 856 0
-244 -195 -224 857 0
221 -123 89 858 0
197 -461 -336 859 0
209 205 276 860 0
-242 -154 -251 861 0
-59 -172 171 862 0
122 -30 -25 863 0
-388 97 -44 864 0
-159 -40 -175 865 0
122 -430 329 866 0
200 158 -319 867 0
-171 -27 -332 868 0
-428 145 219 869 0
376 446 401 870 0
321 293 203 871 0
-111 219 103 872 0
283 -394 303 873 0
-214 359 -315 874 0
101 -486 386 875 0
-413 -402 51 876 0
-54 -48 278 877 0
79 -348 -122 878 0
405 -375 301 879 0
-285 -37 -30 880 0
348 -457 -121 881 0
284 -299 -56 882 0
117 387 -351 883 0
31 87 -79 884 0
-92 -426 -165 885 0
-142 -102 336 886 0
-372 324 476 887 0
497 21 -242 888 0
441 301 -282 889 0
-266 -287 -221 890 0
162 -69 98 891 0
-2 493 80 892 0
-205 480 -50 893 0
205 477 395 894 0
-41 -225 -367 895 0
-327 -244 496 896 0
-279 -415 -263 897 0
89 496 201 898 0
33 500 413 899 0
-79 187 495 900 0
-418 130 -457 901 0
-407 362 -78 902 0
397 -97 -452 903 0
-313 330 -438 904 0
464 442 205 905 0
105 -210 323 906 0
76 237 -444 907 0
62 329 292 908 0
-91 493 -267 909 0
380 348 -23 910 0
-212 -245 -149 911 0
-65 272 -90 912 0
286 -439 -103 913 0
-294 -274 -148 914 0
-99 -365 -36 915 0
154 330 379 916 0
445 92 282 917 0
229 218 381 918 0
473 206 -262 919 0
477 -186 -202 920 0
466 -329 346 921 0
428 -139 310 922 0
-55 -397 366 923 0
373 182 236 924 0
277 210 69 925 0
378 -170 326 926 0
-261 -323 364 927 0
251 69 279 928 0
-114 474 -308 929 0
-215 -359 -239 930 0
-240 -87 -198 931 0
228 -384 221 932 0
-332 47 -420 933 0
-123 -172 237 934 0
34 -17 -19 935 0
-392 -12 -209 936 0
113 196 74 937 0
439 -445 303 938 0
-386 -10 -75 939 0
-470 -95 25 940 0
193 -319 369 941 0
278 408 -38 942 0
95 329 319 943 0
-481 11 425 944 0
-42 462 -243 945 0
-404 -305 276 946 0
-281 -268 233 947 0
140 373 -488 948 0
-161 130 327 949 0
-399 -360 -344 950 0
262 135 40 951 0
-93 202 -108 952 0
68 293 -229 953 0
-294 -477 -149 954 0
-331 125 -187 955 0
31 -133 -459 956 0
180 -1 -491 957 0
-84 -273 -35 958 0
-152 400 72 959 0
112 -252 299 960 0
-69 283 -454 961 0
480 -371 -113 962 0
60 397 128 963 0
90 279 -115 964 0
275 -19 194 965 0
479 -199 301 966 0
99 110 -431 967 0
-175 310 -193 968 0
-142 -18 101 969 0
-330 -336 246 970 0
412 -124 -116 971 0
-189 437 -2 972 0
462 -226 -321 973 0
66 471 -304 974 0
-137 329 -250 975 0
-111 122 311 976 0
-359 -294 328 977 0
31 -166 -353 978 0
-127 310 414 979 0
398 -4 -283 980 0
266 422 -115 981 0
293 -497 -43 982 0
-167 283 -114 983 0
340 -83 393 984 0
321 318 -142 985 0
370 -120 134 986 0
-476 -294 152 987 0
-429 317 -201 988 0
164 297 -52 989 0
-264 321 -408 990 0
-490 -89 -409 991 0
299 496 -42 992 0
206 -249 -45 993 0
9 2 -50 994 0
171 -87 141 995 0
92 415 78 996 0
366 -441 494 997 0
61 -129 -159 998 0
422 9 -300 999 0
493 109 55 1000 0
-459 355 333 1001 0
371 -220 335 1002 0
413 126 285 1003 0
170 181 114 1004 0
51 -338 322 1005 0
-484 -182 436 1006 0
-112 -472 81 1007 0
-236 397 -63 1008 0
-323 -221 55 1009 0
-358 216 91 1010 0
134 -339 -437 1011 0
-239 -331 -327 1012 0
392 284 -316 1013 0
428 341 121 1014 0
-45 -55 -292 1015 0
-125 234 -113 1016 0
-35 487 279 1017 0
-18 -76 35 1018 0
-442 -255 -27 1019 0
-438 -324 448 1020 0
484 -244 -19 1021 0
-479 -212 -499 1022 0
-148 234 290 1023 0
147 -66 464 1024 0
-281 -362 354 1025 0
-15 -440 -475 1026 0
-14 353 213 1027 0
-224 -363 318 1028 0
425 171 -261 1029 0
-343 478 211 1030 0
-330 318 -498 1031 0
235 -112 113 1032 0
-88 201 -317 1033 0
188 -369 -281 1034 0
-392 -75 -436 1035 0
410 408 -140 1036 0
50 -232 218 1037 0
-226 333 -492 1038 0
-287 -346 -213 1039 0
311 346 255 1040 0
61 139 -382 1041 0
191 60 -184 1042 0
-400 159 377 1043 0
-225 -110 209 1044 0
-160 463 -396 1045 0
-119 138 495 1046 0
-309 -244 -238 1047 0
440 -250 -178 1048 0
169 112 -434 1049 0
83 -264 272 1050 0
40 -490 45 1051 0
-247 170 441 1052 0
-386 233 -395 1053 0
123 -51 343 1054 0
420 -168 41 1055 0
-151 -132 317 1056 0
-350 -10 -137 1057 0
-180 -270 -303 1058 0
-19 -246 387 1059 0
-264 286 183 1060 0
-193 122 -332 1061 0
489 400 352 1062 0
433 -361 210 1063 0
-199 -40 -153 1064 0
-283 1 -445 1065 0
-195 -393 486 1066 0
-268 309 -274 1067 0
204 -439 206 1068 0
389 -71 203 1069 0
-340 -330 -80 1070 0
83 -489 101 1071 0
64 -54 129 1072 0
-141 257 51 1073 0
109 304 -420 1074 0
181 51 -213 1075 0
331 -293 102 1076 0
482 461 348 1077 0
124 189 -248 1078 0
-148 -202 -65 1079 0
71 -92 -299 1080 0
50 264 207 1081 0
-319 -195 440 1082 0
357 342 -47 1083 0
177 -262 -105 1084 0
-338 -351 105 1085 0
246 349 152 1086 0
-115 315 -481 1087 0
-299 -47 -46 1088 0
15 260 25 1089 0
12 -199 204 1090 0
284 157 -323 1091 0
256 3 411 1092 0
63 -112 -211 1093 0
289 250 263 1094 0
331 -465 393 1095 0
-222 -287 -387 1096 0
-400 -149 -296 1097 0
466 494 -26 1098 0
271 -372 194 1099 0
-80 83 483 1100 0
431 -470 -175 1101 0
402 -319 252 1102 0
373 -170 458 1103 0
-103 -64 463 1104 0
-392 381 283 1105 0
-157 79 -194 1106 0
-196 284 327 1107 0
-77 -190 239 1108 0
-309 -488 211 1109 0
43 359 268 1110 0
197 252 -69 1111 0
-366 267 -427 1112 0
381 -417 -294 1113 0
-287 -30 -174 1114 0
-330 -327 206 1115 0
-378 -475 -328 1116 0
147 -126 207 1117 0
-405 256 386 1118 0
-308 441 -490 1119 0
496 31 -382 1120 0
260 222 -15 1121 0
-14 -202 442 1122 0
-257 -117 -346 1123 0
459 362 -268 1124 0
-392 -143 202 1125 0
-176 -117 -405 1126 0
-201 481 366 1127 0
372 311 -417 1128 0
138 356 -104 1129 0
-109 210 108 1130 0
201 469 256 1131 0
-155 499 -492 1132 0
151 90 275 1133 0
-21 49 -106 1134 0
-13 465 89 1135 0
-195 -425 377 1136 0
206 455 258 1137 0
105 -213 84 1138 0
-99 463 -438 1139 0
-285 34 -367 1140 0
12 385 404 1141 0
330 -211 442 1142 0
51 489 -498 1143 0
-333 -277 -424 1144 0
320 376 -101 1145 0
208 -280 465 1146 0
63 -165 -91 1147 0
399 337 -307 1148 0
96 3 430 1149 0
159 -397 -316 1150 0
317 10 113 1151 0
2 358 46 1152 0
-316 437 -51 1153 0
108 413 429 1154 0
-34 -308 -127 1155 0
282 200 314 1156 0
-245 393 -128 1157 0
51 -168 250 1158 0
202 394 -364 1159 0
-156 -123 -52 1160 0
440 18 -96 1161 0
-313 -288 146 1162 0
246 233 -370 1163 0
-465 44 -247 1164 0
-148 -2 221 1165 0
-46 156 51 1166 0
347 -365 262 1167 0
-47 262 483 1168 0
-442 -11 466 1169 0
312 334 -424 1170 0
-59 -484 -10 1171 0
483 369 -349 1172 0
111 298 278 1173 0
274 26 -409 1174 0
-386 -327 -206 1175 0
-130 -412 -342 1176 0
241 -133 440 1177 0
130 165 288 1178 0
-74 419 161 1179 0
-5 344 44 1180 0
254 -485 -440 1181 0
-383 -400 -228 1182 0
499 392 -261 1183 0
452 211 -100 1184 0
-367 463 101 1185 0
-437 -456 114 1186 0
-177 12 -278 1187 0
-406 -101 231 1188 0
169 -228 -313 1189 0
186 -445 116 1190 0
437 -33 92 1191 0
-354 181 -406 1192 0
256 382 97 1193 0
449 -300 -263 1194 0
-210 -22 344 1195 0
-227 -403 -63 1196 0
-35 95 246 1197 0
340 -361 426 1198 0
87 -151 -353 1199 0
48 -150 349 1200 0
-147 279 -309 1201 0
56 -63 491 1202 0
380 -207 382 1203 0
-314 -126 -216 1204 0
-24 -289 279 1205 0
467 253 -364 1206 0
-149 -276 -209 1207 0
-216 -378 171 1208 0
324 233 119 1209 0
-198 -124 411 1210 0
-213 441 -211 1211 0
323 248 -356 1212 0
184 382 113 1213 0
-252 -66 85 1214 0
-88 -155 112 1215 0
1 356 412 1216 0
14 -298 181 1217 0
-476 -302 313 1218 0
92 119 -251 1219 0
452 -67 161 1220 0
-251 391 -282 1221 0
-343 100 201 1222 0
-413 326 80 1223 0
377 492 395 1224 0
80 -401 -195 1225 0
-476 320 415 1226 0
71 44 -420 1227 0
155 63 -435 1228 0
-207 284 356 1229 0
41 -98 -241 1230 0
122 -467 -429 1231 0
304 -274 21 1232 0
-205 -405 -398 1233 0
-447 22 316 1234 0
-488 -378 395 1235 0
-325 -173 417 1236 0
1 -375 -15 1237 0
215 -259 -326 1238 0
-192 424 -43 1239 0
285 -295 -442 1240 0
338 443 -19 1241 0
-103 -165 -497 1242 0
246 21 -108 1243 0
49 -286 -37 1244 0
205 -385 -152 1245 0
-139 -249 -10 1246 0
213 369 -174 1247 0
212 -403 249 1248 0
210 -491 -84 1249 0
84 -22 81 1250 0
-335 -313 84 1251 0
-363 374 488 1252 0
363 374 -133 1253 0
-185 -343 -440 1254 0
214 -301 -466 1255 0
340 -392 78 1256 0
395 -101 371 1257 0
-322 68 400 1258 0
-61 139 469 1259 0
-353 33 125 1260 0
-396 -40 -352 1261 0
-359 -237 -264 1262 0
-351 -31 79 1263 0
109 142 -343 1264 0
-242 -413 113 1265 0
-463 303 -296 1266 0
494 -365 -500 1267 0
-498 415 25 1268 0
-361 -428 73 1269 0
-268 55 74 1270 0
-164 235 -41 1271 0
297 -86 -15 1272 0
-64 178 419 1273 0
-335 -234 143 1274 0
436 380 316 1275 0
-348 353 496 1276 0
-279 138 208 1277 0
-182 -369 311 1278 0
473 260 -272 1279 0
311 233 431 1280 0
110 -38 -191 1281 0
-339 -330 -144 1282 0
-141 -405 -491 1283 0
75 -387 -366 1284 0
474 -329 -136 1285 0
355 115 445 1286 0
296 28 472 1287 0
-99 399 -484 1288 0
366 38 473 1289 0
-297 442 -8 1290 0
229 49 151 1291 0
114 -474 -352 1292 0
-394 1 323 1293 0
279 114 -315 1294 0
330 249 -420 1295 0
164 -14 155 1296 0
331 437 -355 1297 0
-239 -396 382 1298 0
314 289 -414 1299 0
-276 406 262 1300 0
-425 414 -231 1301 0
-380 -312 254 1302 0
200 254 -315 1303 0
414 249 -59 1304 0
-236 -458 450 1305 0
-220 31 264 1306 0
70 -205 -331 1307 0
395 90 477 1308 0
89 182 412 1309 0
-210 224 170 1310 0
491 149 -450 1311 0
-205 -306 -214 1312 0
105 -187 139 1313 0
44 -136 -99 1314 0
-437 -315 256 1315 0
471 -266 -333 1316 0
64 -123 133 1317 0
-479 388 439 1318 0
94 195 -57 1319 0
266 -315 327 1320 0
-315 384 30 1321 0
-101 184 53 1322 0
247 -432 409 1323 0
-19 -138 257 1324 0
-436 -84 -141 1325 0
-217 90 -84 1326 0
11 27 447 1327 0
-493 65 415 1328 0
-293 -236 -338 1329 0
20 -398 450 1330 0
451 -476 -210 1331 0
261 -18 -422 1332 0
-26 270 315 1333 0
-244 -281 -343 1334 0
428 -260 -1 1335 0
78 -177 390 1336 0
488 -325 84 1337 0
168 -341 -137 1338 0
408 -39 173 1339 0
22 207 103 1340 0
-224 374 -225 1341 0
-196 -34 377 1342 0
-395 -111 -471 1343 0
-305 224 416 1344 0
-343 -223 -363 1345 0
-154 51 -232 1346 0
402 492 481 1347 0
216 36 -461 1348 0
240 -392 416 1349 0
193 90 237 1350 0
-60 161 -233 1351 0
-364 -387 -59 1352 0
-238 404 -374 1353 0
-180 -167 372 1354 0
244 389 419 1355 0
359 442 419 1356 0
286 158 12 1357 0
-274 475 -66 1358 0
478 158 2 1359 0
430 -327 -60 1360 0
-397 -493 -40 1361 0
164 -460 485 1362 0
431 33 -270 1363 0
446 443 -42 1364 0
-165 -213 345 1365 0
51 126 226 1366 0
-482 -183 -178 1367 0
-297 342 -428 1368 0
48 -383 -219 1369 0
470 281 123 1370 0
357 -29 -279 1371 0
444 330 -201 1372 0
139 -448 -119 1373 0
237 -93 412 1374 0
138 17 -353 1375 0
488 232 19 1376 0
262 127 76 1377 0
-307 322 255 1378 0
394 427 213 1379 0
-150 387 97 1380 0
135 -335 284 1381 0
-67 -422 95 1382 0
290 -329 82 1383 0
-87 263 317 1384 0
409 443 -424 1385 0
-257 -193 297 1386 0
-315 35 -68 1387 0
-299 41 -418 1388 0
-104 490 -3 1389 0
160 -156 -264 1390 0
394 285 315 1391 0
113 222 -191 1392 0
111 160 -352 1393 0
164 101 -282 1394 0
256 -323 -113 1395 0
353 -351 -195 1396 0
293 276 -114 1397 0
-264 -248 106 1398 0
-485 111 -236 1399 0
229 7 -12 1400 0
485 -462 375 1401 0
-21 82 -391 1402 0
-460 279 86 1403 0
-358 -281 -17 1404 0
8 474 -438 1405 0
473 -175 -255 1406 0
-53 -76 443 1407 0
-341 347 67 1408 0
-164 -181 -314 1409 0
386 -455 -402 1410 0
8 -290 -12 1411 0
-275 116 -455 1412 0
-50 -75 128 1413 0
434 -155 -24 1414 0
-148 136 -485 1415 0
-339 -23 -409 1416 0
-278 -401 -428 1417 0
125 -282 359 1418 0
-93 -343 -238 1419 0
-288 -80 -357 1420 0
339 68 -227 1421 0
188 -241 -172 1422 0
159 160 -36 1423 0
-243 -51 324 1424 0
255 227 -48 1425 0
-216 -490 -411 1426 0
-193 -451 480 1427 0
-155 -238 366 1428 0
-75 439 -275 1429 0
79 -30 274 1430 0
496 321 387 1431 0
-274 -456 472 1432 0
7 -303 317 1433 0
45 449 -233 1434 0
266 -203 -133 1435 0
-423 433 -89 1436 0
258 -401 440 1437 0
-126 3 -79 1438 0
-417 -458 -187 1439 0
181 -2 320 1440 0
303 195 -61 1441 0
220 -106 -216 1442 0
327 436 495 1443 0
-347 66 -303 1444 0
231 -69 -157 1445 0
-351 -321 -357 1446 0
114 330 -487 1447 0
151 112 -413 1448 0
-315 -351 -328 1449 0
407 21 -18 1450 0
-85 247 426 1451 0
-257 -449 115 1452 0
201 486 -280 1453 0
362 -489 -204 1454 0
-275 446 468 1455 0
390 -384 233 1456 0
374 97 -165 1457 0
235 -365 405 1458 0
462 -211 73 1459 0
335 -101 53 1460 0
401 159 493 1461 0
-3 113 361 1462 0
250 268 470 1463 0
341 125 13 1464 0
326 -481 214 1465 0
-472 434 52 1466 0
-20 -252 -144 1467 0
291 215 13 1468 0
256 -120 -242 1469 0
-378 -175 106 1470 0
447 357 -185 1471 0
-26 74 -453 1472 0
441 395 -310 1473 0
364 112 244 1474 0
407 284 -321 1475 0
-207 -32 438 1476 0
377 237 -114 1477 0
-144 407 -132 1478 0
257 108 -305 1479 0
405 388 -351 1480 0
393 -366 25 1481 0
332 -248 -96 1482 0
408 -442 -484 1483 0
365 313 267 1484 0
323 -283 -305 1485 0
-400 19 264 1486 0
-223 -382 -482 1487 0
104 -231 -64 1488 0
-235 196 -486 1489 0
98 -305 419 1490 0
-169 -324 -413 1491 0
-480 19 56 1492 0
68 378 -289 1493 0
177 -452 -84 1494 0
261 419 478 1495 0
165 448 196 1496 0
142 -221 -22 1497 0
-278 -273 479 1498 0
-484 -134 323 1499 0
-182 273 473 1500 0
-244 -456 229 1501 0
11 -317 91 1502 0
-146 421 407 1503 0
387 -35 159 1504 0
446 -20 -67 1505 0
-66 199 485 1506 0
-223 -18 111 1507 0
330 -342 -448 1508 0
-268 369 488 1509 0
-384 308 -250 1510 0
450 366 425 1511 0
360 -302 -201 1512 0
-66 -315 344 1513 0
-122 387 99 1514 0
67 485 6 1515 0
-125 -368 -159 1516 0
86 76 222 1517 0
205 -16 -112 1518 0
451 -79 -381 1519 0
296 -271 478 1520 0
54 -400 -461 1521 0
379 -26 495 1522 0
72 159 -33 1523 0
178 -277 -176 1524 0
321 489 377 1525 0
-82 140 -292 1526 0
44 400 -198 1527 0
-318 239 344 1528 0
-328 -451 357 1529 0
-88 146 492 1530 0
40 -116 -299 1531 0
-393 -318 -312 1532 0
186 436 -45 1533 0
35 179 -85 1534 0
-61 -20 -403 1535 0
-189 251 -283 1536 0
120 -396 84 1537 0
-485 -245 -158 1538 0
70 -429 -76 1539 0
74 -240 -56 1540 0
-66 485 376 1541 0
-198 98 381 1542 0
-195 -71 -437 1543 0
-250 242 127 1544 0
95 -368 -9 1545 0
-272 130 -479 1546 0
415 101 -36 1547 0
-120 -235 -371 1548 0
185 25 170 1549 0
-376 -24 318 1550 0
147 382 153 1551 0
57 102 419 1552 0
280 500 29 1553 0
-73 62 384 1554 0
-487 420 -333 1555 0
-61 204 101 1556 0
324 -463 -209 1557 0
-302 78 -221 1558 0
322 -468 411 1559 0
-389 -150 -487 1560 0
253 125 -191 1561 0
-94 -331 63 1562 0
-170 476 -201 1563 0
-275 -318 43 1564 0
-206 40 45 1565 0
391 -134 -124 1566 0
-2 -326 440 1567 0
147 -466 -378 1568 0
-237 -451 -372 1569 0
-181 262 -375 1570 0
-256 -324 381 1571 0
32 469 -121 1572 0
-91 342 -78 1573 0
468 -403 -306 1574 0
148 69 -335 1575 0
-123 285 -41 1576 0
-251 51 219 1577 0
-5 305 -147 1578 0
27 375 -437 1579 0
-275 245 -218 1580 0
-24 470 -244 1581 0
-335 338 43 1582 0
52 -213 339 1583 0
-411 -404 412 1584 0
-379 -357 -291 1585 0
79 205 -246 1586 0
453 -204 260 1587 0
-45 -288 -47 1588 0
-271 79 235 1589 0
-298 -49 46 1590 0
452 -304 -44 1591 0
-176 -368 -467 1592 0
-78 -211 426 1593 0
-107 -489 -90 1594 0
420 360 -184 1595 0
188 203 64 1596 0
-6 278 271 1597 0
253 458 495 1598 0
-202 443 -378 1599 0
-39 75 154 1600 0
36 328 203 1601 0
142 -85 276 1602 0
-61 203 473 1603 0
-390 -149 91 1604 0
370 461 -416 1605 0
135 -168 -165 1606 0
-255 306 -328 1607 0
-55 -483 263 1608 0
-192 400 -118 1609 0
219 -447 -79 1610 0
340 258 -156 1611 0
-168 -333 5 1612 0
-15 -293 413 1613 0
-465 46 285 1614 0
170 366 380 1615 0
-85 -63 -3 1616 0
-220 -468 131 1617 0
112 -347 279 1618 0
-457 -389 398 1619 0
335 60 454 1620 0
408 -439 227 1621 0
342 371 -41 1622 0
390 280 -275 1623 0
-253 250 -231 1624 0
326 288 237 1625 0
167 283 487 1626 0
239 486 -85 1627 0
341 -191 45 1628 0
380 -362 106 1629 0
-162 -158 -443 1630 0
204 457 -448 1631 0
303 -431 -16 1632 0
-69 -196 363 1633 0
448 213 -273 1634 0
100 134 422 1635 0
-480 245 -274 1636 0
188 -309 424 1637 0
300 243 -43 1638 0
61 -365 -392 1639 0
492 -212 456 1640 0
85 298 226 1641 0
-169 -382 -183 1642 0
-371 475 -401 1643 0
421 256 -125 1644 0
472 -99 -108 1645 0
418 278 -88 1646 0
35 173 -487 1647 0
-463 -136 -227 1648 0
38 -227 259 1649 0
17 -481 -276 1650 0
-114 436 305 1651 0
-84 300 371 1652 0
-139 -387 67 1653 0
290 -67 -227 1654 0
-488 4 -290 1655 0
-90 -263 -409 1656 0
6 163 -126 1657 0
-347 41 -437 1658 0
-148 -15 -481 1659 0
8 -469 -84 1660 0
-147 264 83 1661 0
-498 447 6 1662 0
423 -229 253 1663 0
-251 -278 -320 1664 0
477 -16 364 1665 0
466 -199 -5 1666 0
-23 -497 21 1667 0
-318 95 212 1668 0
-293 -494 -306 1669 0
35 -170 459 1670 0
-21 120 -380 1671 0
-192 -173 -13 1672 0
202 141 299 1673 0
381 279 -200 1674 0
-225 -50 -57 1675 0
-267 -157 -260 1676 0
-334 -366 -90 1677 0
-416 399 -462 1678 0
454 500 7 1679 0
-262 -363 4 1680 0
-353 152 322 1681 0
384 -33 -251 1682 0
345 -238 -192 1683 0
-277 -22 -478 1684 0
396 393 282 1685 0
-275 -75 34 1686 0
59 -357 208 1687 0
-93 448 99 1688 0
47 133 34 1689 0
-108 32 -37 1690 0
-158 201 -172 1691 0
-442 -68 357 1692 0
274 -134 12 1693 0
-291 125 -472 1694 0
185 191 343 1695 0
-363 197 489 1696 0
499 -62 -281 1697 0
398 -370 -264 1698 0
6 19 414 1699 0
384 -438 173 1700 0
331 -495 -242 1701 0
-191 -107 -125 1702 0
225 102 -188 1703 0
-226 41 22 1704 0
-448 -78 185 1705 0
-382 -440 -349 1706 0
-246 -124 294 1707 0
272 209 20 1708 0
112 -236 281 1709 0
458 286 18 1710 0
91 -54 -276 1711 0
-434 -437 456 1712 0
323 -378 -23 1713 0
-140 -117 20 1714 0
-22 -413 -397 1715 0
-320 187 48 1716 0
18 -204 -347 1717 0
-56 -122 -348 1718 0
-465 472 58 1719 0
-353 52 -280 1720 0
-427 381 -408 1721 0
-279 -129 -459 1722 0
54 -154 -205 1723 0
464 -114 5 1724 0
-134 -194 -316 1725 0
-490 133 365 1726 0
124 441 -198 1727 0
368 265 161 1728 0
-64 395 -60 1729 0
-210 99 -93 1730 0
-485 -66 -85 1731 0
-238 -490 251 1732 0
-325 -492 -64 1733 0
271 -31 -135 1734 0
153 185 -158 1735 0
499 281 2 1736 0
-360 -288 61 1737 0
-309 58 350 1738 0
-404 -265 71 1739 0
-91 -292 436 1740 0
305 -49 -221 1741 0
298 203 313 1742 0
-157 206 110 1743 0
-71 408 285 1744 0
419 322 -141 1745 0
-200 314 424 1746 0
-481 424 -243 1747 0
-71 185 50 1748 0
157 -444 -463 1749 0
104 -321 478 1750 0
-356 -220 -102 1751 0
-202 -438 -375 1752 0
217 326 -48 1753 0
94 134 -10 1754 0
-151 -282 110 1755 0
-191 13 -269 1756 0
-373 453 -397 1757 0
230 -372 494 1758 0
440 -174 -488 1759 0
-30 169 226 1760 0
159 380 -250 1761 0
242 163 -247 1762 0
278 -340 -425 1763 0
333 -176 -410 1764 0
220 332 -196 1765 0
-181 131 258 1766 0
-14 -5 323 1767 0
-228 -400 -306 1768 0
-43 -170 166 1769 0
394 -151 90 1770 0
298 256 251 1771 0
425 349 -361 1772 0
58 -306 30 1773 0
-194 16 374 1774 0
281 -80 172 1775 0
354 264 -233 1776 0
191 -313 112 1777 0
420 -124 63 1778 0
-276 56 -58 1779 0
367 -46 410 1780 0
-248 12 364 1781 0
-471 -317 165 1782 0
288 -32 224 1783 0
-47 -457 285 1784 0
292 459 397 1785 0
39 -461 -381 1786 0
-179 366 -395 1787 0
-134 370 166 1788 0
225 414 3 1789 0
306 36 189 1790 0
-212 119 -473 1791 0
-51 230 -98 1792 0
245 -137 494 1793 0
-150 -214 -424 1794 0
119 130 319 1795 0
161 -131 296 1796 0
-322 -133 366 1797 0
433 221 324 1798 0
2 -498 224 1799 0
-336 -322 394 1800 0
-27 -30 309 1801 0
406 -37 483 1802 0
468 -200 -28 1803 0
299 98 244 1804 0
-238 -241 52 1805 0
9 392 -14 1806 0
463 -177 -205 1807 0
-427 307 372 1808 0
-373 -232 -38 1809 0
495 9 330 1810 0
-422 18 -161 1811 0
6 130 -95 1812 0
143 152 481 1813 0
221 -114 131 1814 0
-272 428 183 1815 0
-483 306 397 1816 0
-310 -123 52 1817 0
-267 -145 -293 1818 0
209 -8 498 1819 0
-393 380 -152 1820 0
-313 -331 199 1821 0
-72 -210 208 1822 0
-138 375 -153 1823 0
-120 -11 -338 1824 0
-27 -288 -197 1825 0
347 469 66 1826 0
483 -252 -175 1827 0
-479 -322 394 1828 0
295 -183 -151 1829 0
-31 195 57 1830 0
-128 476 178 1831 0
385 55 -212 1832 0
-343 234 32 1833 0
488 -320 -76 1834 0
-451 -40 136 1835 0
-330 -372 -261 1836 0
-126 77 98 1837 0
453 -129 -342 1838 0
34 -482 320 1839 0
308 312 -24 1840 0
-447 -13 175 1841 0
-375 -224 464 1842 0
-431 -441 -126 1843 0
213 396 497 1844 0
172 -77 -42 1845 0
395 5 -497 1846 0
-27 289 65 1847 0
-423 -206 -200 1848 0
-267 -483 -175 1849 0
326 243 467 1850 0
250 494 -48 1851 0
-200 -165 -239 1852 0
203 -7 -469 1853 0
16 -76 -279 1854 0
-129 -118 -269 1855 0
-172 -346 73 1856 0
-60 -275 -280 1857 0
-491 -475 -199 1858 0
-29 138 232 1859 0
-369 31 -244 1860 0
-181 402 -410 1861 0
153 298 -351 1862 0
-266 -257 63 1863 0
360 -379 -267 1864 0
314 13 71 1865 0
436 481 -380 1866 0
-35 111 392 1867 0
-348 490 -227 1868 0
117 193 -15 1869 0
-236 -107 -456 1870 0
-432 492 60 1871 0
-436 -199 -490 1872 0
17 -165 -103 1873 0
179 -474 -333 1874 0
-435 97 -67 1875 0
-368 -61 -451 1876 0
177 289 60 1877 0
416 472 -150 1878 0
-343 195 -328 1879 0
204 -374 -70 1880 0
-198 -330 -252 1881 0
-290 -283 177 1882 0
-61 194 420 1883 0
354 175 314 1884 0
-403 378 -336 1885 0
-212 -33 262 1886 0
284 -388 427 1887 0
-316 290 40 1888 0
164 -424 367 1889 0
333 101 -290 1890 0
463 433 -112 1891 0
-79 -111 -154 1892 0
-213 416 -11 1893 0
-39 499 -438 1894 0
317 258 -225 1895 0
-48 -307 -434 1896 0
-8 319 -290 1897 0
-59 -475 -318 1898 0
328 128 -397 1899 0
275 118 -121 1900 0
218 -212 -431 1901 0
213 -478 339 1902 0
367 25 -400 1903 0
-253 -373 -65 1904 0
-90 215 458 1905 0
-255 -430 -392 1906 0
379 -320 -499 1907 0
285 -228 -114 1908 0
288 196 233 1909 0
-271 -458 488 1910 0
230 54 -177 1911 0
450 -285 -144 1912 0
-177 -423 -291 1913 0
355 -279 370 1914 0
246 -431 171 1915 0
451 173 308 1916 0
-55 -191 -193 1917 0
-493 -115 -105 1918 0
-313 -101 -316 1919 0
-365 -399 45 1920 0
30 -22 -163 1921 0
-258 247 491 1922 0
-335 -226 -383 1923 0
498 -297 -47 1924 0
45 -225 72 1925 0
270 -433 456 1926 0
-365 -479 -234 1927 0
-185 -67 -154 1928 0
-69 -248 163 1929 0
-492 298 -53 1930 0
-387 194 215 1931 0
481 -248 -330 1932 0
294 -33 -296 1933 0
376 -119 -416 1934 0
-243 -498 -419 1935 0
-106 390 -119 1936 0
344 422 -84 1937 0
-473 60 292 1938 0
-302 115 185 1939 0
138 -419 212 1940 0
-389 -71 -495 1941 0
-144 143 57 1942 0
33 80 -316 1943 0
-479 -461 -345 1944 0
-269 -99 92 1945 0
367 426 327 1946 0
206 -247 -14 1947 0
-129 394 -323 1948 0
-113 315 -32 1949 0
23 412 352 1950 0
-452 -440 -400 1951 0
-282 -78 -177 1952 0
356 478 110 1953 0
-303 -441 267 1954 0
170 -115 -345 1955 0
223 -326 473 1956 0
100 116 -26 1957 0
-333 -410 -226 1958 0
-275 -458 356 1959 0
477 -146 174 1960 0
254 163 -278 1961 0
242 -376 126 1962 0
-220 379 -462 1963 0
396 158 -109 1964 0
-321 -301 234 1965 0
-255 56 133 1966 0
-240 4 349 1967 0
-262 345 3 1968 0
392 -225 -375 1969 0
94 -481 -345 1970 0
-272 16 164 1971 0
-441 379 384 1972 0
-199 287 19 1973 0
-426 150 456 1974 0
-371 257 -111 1975 0
-229 -307 -187 1976 0
-2 180 -433 1977 0
-45 58 -405 1978 0
38 -315 367 1979 0
61 378 -146 1980 0
-119 -493 -19 1981 0
-362 386 -371 1982 0
-307 41 -499 1983 0
426 -43 -241 1984 0
235 232 140 1985 0
372 408 424 1986 0
-129 -12 -459 1987 0
193 393 391 1988 0
-420 93 380 1989 0
11 405 -338 1990 0
-255 265 -334 1991 0
-138 -69 -279 1992 0
-103 134 -66 1993 0
-335 -389 -299 1994 0
-389 355 257 1995 0
-138 42 -404 1996 0
403 67 -287 1997 0
-122 321 104 1998 0
-235 172 -37 1999 0
56 -111 286 2000 0
-479 380 264 2001 0
294 126 275 2002 0
46 372 -393 2003 0
96 -169 346 2004 0
110 -444 317 2005 0
-45 68 408 2006 0
-124 -484 -447 2007 0
-298 -214 258 2008 0
-220 106 -155 2009 0
92 -337 373 2010 0
154 -158 -238 2011 0
59 484 -358 2012 0
-269 -150 377 2013 0
-214 -465 -318 2014 0
4 -63 267 2015 0
-74 203 -489 2016 0
90 267 424 2017 0
-194 -220 113 2018 0
224 478 313 2019 0
-163 363 -468 2020 0
92 252 -272 2021 0
-36 -303 -153 2022 0
-432 272 483 2023 0
422 -423 -356 2024 0
-276 -395 366 2025 0
399 -56 -194 2026 0
386 396 -244 2027 0
-351 23 87 2028 0
-189 330 -394 2029 0
153 49 -416 2030 0
-131 -128 -335 2031 0
67 2 -401 2032 0
-373 426 -334 2033 0
473 -442 -58 2034 0
56 84 62 2035 0
448 43 -483 2036 0
224 -34 -479 2037 0
133 108 -164 2038 0
66 -80 -327 2039 0
-92 -244 129 2040 0
-123 347 -201 2041 0
-445 8 14 2042 0
324 361 91 2043 0
-3 -327 352 2044 0
-278 -263 163 2045 0
255 447 29 2046 0
489 48 -388 2047 0
45 448 129 2048 0
-138 303 365 2049 0
-319 -20 -404 2050 0
264 -250 -45 2051 0
364 -314 -110 2052 0
-89 160 389 2053 0
-420 -16 245 2054 0
-141 330 97 2055 0
-416 -253 -408 2056 0
-426 112 484 2057 0
-410 -485 -271 2058 0
-322 223 -309 2059 0
-260 -9 -364 2060 0
-65 14 -423 2061 0
100 116 -19 2062 0
20 35 -309 2063 0
-249 -299 -202 2064 0
-293 444 -271 2065 0
-55 237 -96 2066 0
-434 -185 19 2067 0
366 -416 -390 2068 0
170 -277 252 2069 0
410 292 181 2070 0
41 -402 -60 2071 0
-396 -245 287 2072 0
270 264 430 2073 0
472 -226 -471 2074 0
433 147 -475 2075 0
-254 461 -205 2076 0
-212 -467 -242 2077 0
-319 378 331 2078 0
88 -26 146 2079 0
159 277 60 2080 0
255 194 -93 2081 0
-277 -204 172 2082 0
89 448 -441 2083 0
480 307 217 2084 0
-167 213 -248 2085 0
98 -307 -366 2086 0
-296 446 140 2087 0
-86 291 -448 2088 0
480 -29 98 2089 0
-114 -206 215 2090 0
463 -477 263 2091 0
493 -350 -109 2092 0
392 -484 23 2093 0
-294 155 446 2094 0
-129 -247 -144 2095 0
-310 -330 388 2096 0
182 -479 260 2097 0
-432 18 -264 2098 0
-69 -91 -93 2099 0
282 326 252 2100 0
-94 -183 -302 2101 0
90 -439 -113 2102 0
182 130 201 2103 0
-104 75 242 2104 0
159 -325 -254 2105 0
403 -334 465 2106 0
443 -337 -300 2107 0
-438 -462 -408 2108 0
47 -320 478 2109 0
191 -413 -299 2110 0
-161 -353 -464 2111 0
-25 -351 161 2112 0
245 -461 11 2113 0
-132 357 -211 2114 0
-238 280 -325 2115 0
101 153 264 2116 0
107 410 -287 2117 0
-253 329 -280 2118 0
-142 -478 -148 2119 0
-315 -452 146 2120 0
-426 -424 -354 2121 0
-136 -403 -189 2122 0
174 21 30 2123 0
-330 471 -219 2124 0
-305 -57 259 2125 0
-295 153 462 2126 0
272 205 -474 2127 0
411 -369 -242 2128 0
203 -376 399 2129 0
-241 108 475 2130 0
250 475 -288 2131 0
473 1 278 2132 0
281 65 -483 2133 0
287 -141 143 2134 0
222 -232 407 2135 0
343 -311 -43 2136 0
-268 479 -426 2137 0
441 -88 317 2138 0
150 51 2 2139 0
13 -163 -239 2140 0
319 331 -360 2141 0
-142 25 144 2142 0
-469 386 62 2143 0
232 -122 164 2144 0
-269 401 463 2145 0
-2 -450 -445 2146 0
-457 -411 243 2147 0
-370 445 -86 2148 0
120 478 -246 2149 0
386 127 -468 2150 0
313 -110 -373 2151 0
-253 2 -23 2152 0
73 141 -406 2153 0
-454 400 -473 2154 0
-219 -82 71 2155 0
38 -249 371 2156 0
53 384 168 2157 0
-256 -415 269 2158 0
397 -56 -180 2159 0
-265 395 89 2160 0
-303 499 5 2161 0
-57 215 243 2162 0
-483 -212 -72 2163 0
-220 -142 -3 2164 0
206 -228 376 2165 0
-477 -312 -290 2166 0
90 157 -51 2167 0
35 -495 309 2168 0
-390 343 -340 2169 0
-141 -406 205 2170 0
-337 142 241 2171 0
91 -126 51 2172 0
-130 111 -11 2173 0
-222 223 460 2174 0
-483 -199 -312 2175 0
-463 -336 -212 2176 0
-381 68 -216 2177 0
49 -314 -35 2178 0
-129 -383 421 2179 0
-192 345 329 2180 0
-98 -307 450 2181 0
-56 87 58 2182 0
235 -340 457 2183 0
-138 189 53 2184 0
15 304 -59 2185 0
-185 146 -159 2186 0
382 411 -11 2187 0
-35 125 -140 2188 0
-252 -151 275 2189 0
199 -185 -72 2190 0
314 169 432 2191 0
53 -442 244 2192 0
-270 380 -390 2193 0
-92 411 380 2194 0
-110 227 -65 2195 0
386 206 189 2196 0
489 -453 494 2197 0
-126 -401 289 2198 0
-294 -50 356 2199 0
373 185 38 2200 0
170 -281 262 2201 0
333 123 27 2202 0
23 -149 -406 2203 0
-169 -38 -309 2204 0
-170 211 -96 2205 0
151 -47 215 2206 0
-427 271 320 2207 0
500 -152 -226 2208 0
-115 164 -86 2209 0
-21 6 -331 2210 0
-382 466 209 2211 0
413 213 57 2212 0
500 152 439 2213 0
473 -387 289 2214 0
-281 63 185 2215 0
88 147 -247 2216 0
400 -422 -253 2217 0
251 -398 340 2218 0
-198 500 346 2219 0
258 488 333 2220 0
-354 285 -474 2221 0
-485 288 -467 2222 0
-242 -108 453 2223 0
-152 -480 -327 2224 0
190 -220 -41 2225 0
162 490 -371 2226 0
-47 -190 -222 2227 0
-301 -68 -354 2228 0
254 212 -449 2229 0
189 -480 236 2230 0
-284 301 233 2231 0
390 -424 177 2232 0
109 247 73 2233 0
-320 -473 -319 2234 0
258 63 162 2235 0
485 499 -262 2236 0
320 -186 451 2237 0
108 -366 46 2238 0
-260 199 -356 2239 0
-416 134 411 2240 0
384 344 -365 2241 0
374 87 -303 2242 0
226 -116 -426 2243 0
345 -67 480 2244 0
403 -337 406 2245 0
-208 327 -90 2246 0
384 -295 -348 2247 0
213 17 476 2248 0
-490 -412 -232 2249 0
365 -436 -447 2250 0
66 159 292 2251 0
-471 469 -18 2252 0
391 354 -374 2253 0
-42 132 410 2254 0
-100 412 -310 2255 0
-99 -89 292 2256 0
-329 -208 -367 2257 0
-229 -487 -155 2258 0
490 86 -386 2259 0
61 181 220 2260 0
-324 -432 131 2261 0
256 -52 425 2262 0
171 -427 -186 2263 0
32 56 15 2264 0
21 84 -433 2265 0
-468 63 296 2266 0
-247 -82 14 2267 0
373 -473 374 2268 0
-25 388 -242 2269 0
333 369 -249 2270 0
357 360 -496 2271 0
-130 167 489 2272 0
67 241 -446 2273 0
-84 -445 -116 2274 0
379 254 -285 2275 0
-121 499 298 2276 0
443 253 -100 2277 0
-453 -137 481 2278 0
61 -497 -6 2279 0
-274 -442 -391 2280 0
79 66 -112 2281 0
57 386 -123 2282 0
323 304 -145 2283 0
-136 -432 -327 2284 0
-69 -184 6 2285 0
357 -173 55 2286 0
67 4 205 2287 0
241 -458 -36 2288 0
477 -282 -254 2289 0
275 -473 -21 2290 0
-434 433 37 2291 0
-212 116 373 2292 0
188 -351 240 2293 0
-202 -178 -9 2294 0
-329 486 -136 2295 0
-343 198 113 2296 0
-431 -294 -297 2297 0
253 -144 340 2298 0
-329 -219 450 2299 0
-374 280 440 2300 0
-107 74 -367 2301 0
401 51 -435 2302 0
-458 -46 386 2303 0
-185 278 116 2304 0
172 -445 465 2305 0
101 -229 451 2306 0
-31 184 -392 2307 0
16 485 5 2308 0
-453 -154 188 2309 0
-165 128 284 2310 0
-247 131 162 2311 0
-217 -379 -14 2312 0
274 308 383 2313 0
427 -92 -20 2314 0
-69 -11 -186 2315 0
54 -120 -6 2316 0
-168 -269 -164 2317 0
224 387 241 2318 0
81 -457 -315 2319 0
-416 -213 414 2320 0
-351 478 71 2321 0
-391 368 -210 2322 0
-91 95 -269 2323 0
427 -406 -279 2324 0
-368 261 199 2325 0
86 257 -367 2326 0
-421 -409 -470 2327 0
98 -310 -176 2328 0
-149 235 -162 2329 0
2 96 491 2330 0
-84 -259 -399 2331 0
-217 417 -472 2332 0
358 49 -238 2333 0
296 349 -400 2334 0
-367 -149 8 2335 0
-51 -399 68 2336 0
-52 448 129 2337 0
465 -182 -445 2338 0
86 441 287 2339 0
-486 -220 319 2340 0
-195 326 -336 2341 0
-108 88 213 2342 0
314 -224 226 2343 0
28 -453 123 2344 0
-279 -295 480 2345 0
-104 227 212 2346 0
-148 114 11 2347 0
309 -458 199 2348 0
242 428 -485 2349 0
45 448 -129 2350 0
365 436 -444 2351 0
-422 349 -309 2352 0
58 241 -498 2353 0
111 73 -60 2354 0
108 259 230 2355 0
-367 -323 -472 2356 0
431 148 -283 2357 0
-276 -298 87 2358 0
420 -213 -328 2359 0
67 184 284 2360 0
-33 -128 298 2361 0
-350 355 -97 2362 0
415 -251 -238 2363 0
-373 110 -46 2364 0
-370 -174 315 2365 0
370 394 -433 2366 0
-329 -47 -175 2367 0
213 241 78 2368 0
244 -296 -484 2369 0
-474 43 491 2370 0
487 -262 -178 2371 0
-198 219 -372 2372 0
-376 -467 374 2373 0
-356 -110 303 2374 0
-163 -14 421 2375 0
475 -35 127 2376 0
10 -315 143 2377 0
-19 -483 -250 2378 0
298 228 14 2379 0
-277 170 -320 2380 0
-202 -348 59 2381 0
35 -186 468 2382 0
-357 -267 -418 2383 0
107 3 -156 2384 0
-497 104 -53 2385 0
-156 403 38 2386 0
-80 154 -311 2387 0
-199 -235 171 2388 0
61 437 -418 2389 0
-108 307 -185 2390 0
464 40 8 2391 0
143 -315 -374 2392 0
-60 331 -205 2393 0
434 -93 -493 2394 0
-195 5 -21 2395 0
-382 278 1 2396 0
-146 318 491 2397 0
233 388 484 2398 0
392 308 69 2399 0
373 -164 154 2400 0
-105 223 185 2401 0
-299 215 208 2402 0
-274 -93 340 2403 0
102 -452 -145 2404 0
-162 316 267 2405 0
291 -137 -483 2406 0
-366 -252 183 2407 0
56 336 62 2408 0
-116 423 293 2409 0
-118 -108 -480 2410 0
-69 155 137 2411 0
-40 366 -198 2412 0
146 -324 74 2413 0
-84 -323 -56 2414 0
197 -427 -330 2415 0
456 -15 177 2416 0
-392 -379 349 2417 0
138 7 -368 2418 0
378 416 413 2419 0
-194 500 -201 2420 0
369 -366 19 2421 0
154 1 256 2422 0
209 257 -288 2423 0
22 15 23 2424 0
-158 415 71 2425 0
335 467 164 2426 0
-119 452 -328 2427 0
436 38 -347 2428 0
-457 21 -240 2429 0
329 85 -437 2430 0
-466 248 303 2431 0
2 -486 -186 2432 0
89 51 -29 2433 0
-159 -141 337 2434 0
-219 146 109 2435 0
-463 143 -375 2436 0
33 -296 -141 2437 0
162 330 -308 2438 0
-105 -498 302 2439 0
-197 203 277 2440 0
-396 242 309 2441 0
-11 -388 187 2442 0
-263 -83 -411 2443 0
293 345 -476 2444 0
160 -481 -413 2445 0
-380 -247 -473 2446 0
-472 -250 442 2447 0
118 -362 371 2448 0
-377 427 476 2449 0
-292 -175 219 2450 0
21 310 -47 2451 0
331 254 -375 2452 0
37 111 157 2453 0
304 15 477 2454 0
467 63 -59 2455 0
238 212 385 2456 0
416 58 322 2457 0
-174 -268 308 2458 0
-56 -114 372 2459 0
-47 157 -415 2460 0
-136 -222 -264 2461 0
453 -46 -419 2462 0
109 87 37 2463 0
160 -247 -406 2464 0
146 -191 -7 2465 0
40 -339 -258 2466 0
128 419 274 2467 0
-372 4 408 2468 0
-192 -95 -302 2469 0
46 -259 308 2470 0
173 39 412 2471 0
-489 -173 -78 2472 0
-159 8 -269 2473 0
440 -198 -282 2474 0
264 -422 -466 2475 0
437 -14 -357 2476 0
424 97 -405 2477 0
-440 210 88 2478 0
-381 -216 53 2479 0
-476 -180 376 2480 0
-289 30 494 2481 0
429 -392 -239 2482 0
412 -200 87 2483 0
-489 357 -205 2484 0
105 -241 -190 2485 0
-50 -392 -494 2486 0
424 -418 417 2487 0
368 -233 -115 2488 0
266 -321 -67 2489 0
196 316 -454 2490 0
-394 -135 -130 2491 0
-494 368 -243 2492 0
-212 389 249 2493 0
-157 -452 -355 2494 0
338 -27 223 2495 0
448 -217 297 2496 0
-391 52 -315 2497 0
-437 -377 -196 2498 0
422 430 -370 2499 0
328 45 48 2500 0
-423 -482 261 2501 0
-356 -131 396 2502 0
88 -384 -363 2503 0
462 81 429 2504 0
-218 186 -383 2505 0
237 -30 -213 2506 0
308 305 -5 2507 0
-380 100 361 2508 0
-95 -391 475 2509 0
122 -269 -84 2510 0
321 319 407 2511 0
-207 139 291 2512 0
428 342 499 2513 0
-294 -439 160 2514 0
-76 312 20 2515 0
431 162 280 2516 0
128 374 -24 2517 0
365 367 -285 2518 0
227 -287 149 2519 0
103 21 377 2520 0
9 -268 -430 2521 0
38 301 16 2522 0
445 203 458 2523 0
101 488 349 2524 0
457 -447 480 2525 0
-448 -163 -407 2526 0
69 431 -380 2527 0
392 -391 -220 2528 0
40 496 -419 2529 0
63 417 178 2530 0
156 345 -62 2531 0
-300 -412 -215 2532 0
370 -244 386 2533 0
121 155 -109 2534 0
-45 -313 367 2535 0
344 -240 78 2536 0
226 -227 -276 2537 0
-230 73 388 2538 0
369 10 339 2539 0
129 -323 -211 2540 0
485 4 -489 2541 0
-289 -378 243 2542 0
-47 204 172 2543 0
-10 -377 422 2544 0
477 224 -222 2545 0
161 -168 179 2546 0
320 -378 306 2547 0
-389 310 -243 2548 0
70 -447 478 2549 0
-365 438 67 2550 0
31 145 44 2551 0
408 -215 279 2552 0
-157 -406 -438 2553 0
-174 -252 -313 2554 0
-271 272 189 2555 0
439 8 -225 2556 0
32 57 117 2557 0
-293 260 243 2558 0
481 -66 407 2559 0
435 19 -49 2560 0
-457 -221 -275 2561 0
66 383 230 2562 0
-96 491 -105 2563 0
-280 -219 333 2564 0
-413 -373 -220 2565 0
110 240 -291 2566 0
-212 -158 -476 2567 0
280 -286 -330 2568 0
-179 -344 -42 2569 0
-402 254 171 2570 0
-283 396 -270 2571 0
-471 91 -395 2572 0
169 -384 471 2573 0
327 -396 325 2574 0
85 -39 289 2575 0
-89 98 -448 2576 0
-409 372 -465 2577 0
-414 -99 429 2578 0
326 -388 -164 2579 0
396 482 -87 2580 0
176 -110 -314 2581 0
66 161 -392 2582 0
109 389 112 2583 0
92 -2 -227 2584 0
-224 1 -390 2585 0
374 -156 -446 2586 0
-303 -301 243 2587 0
-227 165 4 2588 0
22 149 -74 2589 0
-190 -436 202 2590 0
18 -463 -294 2591 0
-342 259 3 2592 0
494 -101 -334 2593 0
-484 78 -228 2594 0
169 433 -245 2595 0
328 -232 -423 2596 0
381 -310 -352 2597 0
105 22 -234 2598 0
254 -151 481 2599 0
402 -219 -336 2600 0
-11 176 388 2601 0
-248 414 68 2602 0
-439 -93 402 2603 0
12 38 79 2604 0
109 407 350 2605 0
260 189 -139 2606 0
-54 -20 467 2607 0
104 -224 -393 2608 0
167 -381 291 2609 0
-195 -446 179 2610 0
300 355 316 2611 0
456 224 358 2612 0
-175 -106 -476 2613 0
-440 262 -281 2614 0
-159 -226 -178 2615 0
469 54 419 2616 0
-263 -144 -123 2617 0
494 -393 89 2618 0
320 42 -342 2619 0
-105 -306 452 2620 0
-5 235 -337 2621 0
-499 -41 -201 2622 0
126 -171 91 2623 0
40 98 -227 2624 0
175 -4 -381 2625 0
425 370 450 2626 0
454 59 -308 2627 0
-472 -466 166 2628 0
175 109 -112 2629 0
299 256 -264 2630 0
384 26 299 2631 0
-480 -424 257 2632 0
-187 -1 -404 2633 0
326 420 107 2634 0
304 65 66 2635 0
-184 -269 466 2636 0
-202 -408 460 2637 0
106 313 -201 2638 0
-225 -49 240 2639 0
373 -298 227 2640 0
356 -5 199 2641 0
493 -80 129 2642 0
-317 -177 466 2643 0
-256 342 97 2644 0
-157 -210 -489 2645 0
135 -489 101 2646 0
437 407 118 2647 0
-108 -231 33 2648 0
331 -484 -102 2649 0
372 -386 -205 2650 0
