p cnf 2650 2150
-385 -44 -178 501 0
-386 223 235 502 0
335 399 290 503 0
-217 -175 269 504 0
-65 94 -278 505 0
-425 56 -352 506 0
-229 264 -214 507 0
-9 -187 -91 508 0
-27 480 -224 509 0
240 -45 114 510 0
347 60 -172 511 0
-76 -471 -278 512 0
-34 149 240 513 0
-70 -245 -385 514 0
76 -354 -286 515 0
225 -217 -272 516 0
-214 360 -287 517 0
271 198 411 518 0
408 288 141 519 0
453 236 -101 520 0
-295 31 73 521 0
-292 436 -59 522 0
-43 352 -471 523 0
21 434 -52 524 0
-451 -315 36 525 0
2 -349 -369 526 0
-433 -112 -263 527 0
135 92 75 528 0
-246 -267 -398 529 0
393 184 310 530 0
-19 -221 258 531 0
-396 352 -122 532 0
-295 175 374 533 0
-139 -223 375 534 0
-424 -260 -237 535 0
440 -245 -118 536 0
298 209 39 537 0
-161 137 -478 538 0
238 -280 166 539 0
-499 -492 364 540 0
218 -242 -135 541 0
-470 -255 429 542 0
-150 -423 328 543 0
277 -29 119 544 0
-429 498 108 545 0
432 -356 340 546 0
77 -357 -432 547 0
-96 179 28 548 0
480 -193 383 549 0
461 331 499 550 0
-230 129 400 551 0
-459 140 -443 552 0
-47 379 -178 553 0
-229 -286 -75 554 0
-499 473 -216 555 0
-27 246 -41 556 0
445 401 36 557 0
-92 -352 -300 558 0
-196 470 -355 559 0
-189 169 439 560 0
-449 -96 -100 561 0
-173 81 463 562 0
-312 -487 -318 563 0
-232 50 407 564 0
-357 380 209 565 0
-346 253 154 566 0
138 -32 435 567 0
444 97 -45 568 0
-213 -356 -218 569 0
-247 -131 470 570 0
289 192 -418 571 0
-296 -64 -462 572 0
-297 -232 109 573 0
327 392 -479 574 0
-257 -448 -39 575 0
211 -429 65 576 0
412 -410 -432 577 0
-493 364 -384 578 0
112 255 75 579 0
292 9 397 580 0
490 -371 86 581 0
-193 112 68 582 0
46 -333 300 583 0
285 -424 -197 584 0
-208 456 251 585 0
-466 450 331 586 0
-99 -330 -202 587 0
-440 94 -143 588 0
403 228 251 589 0
254 -126 384 590 0
388 314 2 591 0
268 -165 399 592 0
376 -266 74 593 0
-397 182 -296 594 0
306 409 147 595 0
-289 179 228 596 0
-461 182 400 597 0
-418 -34 137 598 0
159 -389 51 599 0
-336 222 -476 600 0
184 27 -267 601 0
378 129 -223 602 0
-295 -205 107 603 0
443 462 308 604 0
214 6 -151 605 0
-242 -405 -57 606 0
-203 191 242 607 0
268 -373 -152 608 0
249 58 -92 609 0
164 351 166 610 0
-266 412 -402 611 0
318 426 -143 612 0
211 89 -164 613 0
-236 -210 409 614 0
-432 94 9 615 0
499 121 6 616 0
-165 -234 58 617 0
-256 183 261 618 0
-373 227 -458 619 0
-315 -407 -408 620 0
-57 -248 -406 621 0
304 447 -303 622 0
488 180 -340 623 0
214 106 203 624 0
14 490 82 625 0
-297 230 376 626 0
311 393 490 627 0
-157 33 -30 628 0
-48 362 -342 629 0
359 158 58 630 0
-85 -467 -311 631 0
-69 428 -121 632 0
368 -146 294 633 0
-77 -55 348 634 0
-353 93 -182 635 0
399 329 -340 636 0
138 418 -258 637 0
50 16 387 638 0
-361 100 -226 639 0
-378 177 162 640 0
-206 -342 26 641 0
-471 189 287 642 0
-138 -311 235 643 0
466 351 324 644 0
-109 -185 285 645 0
320 -70 -274 646 0
-472 404 -277 647 0
298 227 -230 648 0
-381 466 313 649 0
362 -79 -158 650 0
-406 -435 -487 651 0
-301 -246 -250 652 0
-459 -495 236 653 0
306 -280 -152 654 0
73 144 -475 655 0
-109 -318 154 656 0
-454 -318 229 657 0
36 303 9 658 0
360 -392 -284 659 0
19 36 76 660 0
386 -189 141 661 0
202 -27 -488 662 0
188 475 384 663 0
58 287 154 664 0
-108 -345 -291 665 0
104 190 189 666 0
-261 -57 -209 667 0
-2 268 145 668 0
281 340 -319 669 0
-5 -311 262 670 0
428 309 182 671 0
416 431 -384 672 0
-486 55 69 673 0
-24 -278 228 674 0
-222 432 -306 675 0
-47 492 -324 676 0
-290 107 50 677 0
178 -17 117 678 0
-81 455 -24 679 0
-146 -148 248 680 0
114 -338 301 681 0
320 208 -205 682 0
-481 -324 22 683 0
-150 124 80 684 0
276 -457 -247 685 0
-365 130 433 686 0
-34 225 425 687 0
471 236 -318 688 0
-335 116 -458 689 0
210 218 -17 690 0
-228 64 -406 691 0
-274 -88 -338 692 0
295 85 -219 693 0
434 -469 -76 694 0
-289 281 -142 695 0
-209 -384 132 696 0
-87 -51 -19 697 0
326 206 -277 698 0
-419 122 107 699 0
-493 -102 -127 700 0
-326 -292 21 701 0
111 231 50 702 0
4 -281 -106 703 0
-118 403 -303 704 0
-196 318 460 705 0
249 391 389 706 0
-152 -297 74 707 0
-171 163 131 708 0
315 493 -175 709 0
-71 -146 23 710 0
-82 -59 11 711 0
-100 186 -137 712 0
-73 264 286 713 0
415 183 -350 714 0
391 -99 -337 715 0
154 484 -261 716 0
-400 -48 483 717 0
-487 -258 198 718 0
-156 -149 -228 719 0
-403 -333 -152 720 0
-352 271 -207 721 0
-74 -124 479 722 0
-411 -26 432 723 0
-380 -378 -3 724 0
78 308 344 725 0
-260 252 -477 726 0
349 -33 184 727 0
-118 26 37 728 0
3 156 -463 729 0
397 -314 411 730 0
-321 -131 -338 731 0
408 146 384 732 0
-32 -315 -176 733 0
24 256 449 734 0
59 -457 -27 735 0
-58 192 -330 736 0
-380 468 35 737 0
-483 -185 118 738 0
-388 373 427 739 0
-174 -400 -183 740 0
-99 -14 -329 741 0
474 -445 -480 742 0
75 180 333 743 0
91 410 294 744 0
-76 308 -386 745 0
-139 -291 482 746 0
308 -231 -248 747 0
24 -35 168 748 0
-263 -73 -498 749 0
-42 96 192 750 0
-203 194 -111 751 0
244 147 -400 752 0
-5 -297 63 753 0
-195 -309 19 754 0
-126 -371 441 755 0
27 -417 385 756 0
-233 156 -304 757 0
-77 -138 400 758 0
-379 387 -149 759 0
-348 -304 -305 760 0
320 -73 -217 761 0
-467 206 -452 762 0
-371 59 -302 763 0
-414 -500 -222 764 0
126 151 -147 765 0
374 55 -226 766 0
-55 295 -122 767 0
-423 289 -26 768 0
-478 219 101 769 0
301 277 5 770 0
-327 408 266 771 0
417 448 -474 772 0
154 187 -272 773 0
341 -258 426 774 0
234 83 91 775 0
-458 373 180 776 0
21 -356 -496 777 0
464 -343 -93 778 0
-380 207 -144 779 0
459 393 -363 780 0
-325 69 -66 781 0
141 413 485 782 0
-30 -149 -371 783 0
138 107 459 784 0
-230 -10 321 785 0
-309 -139 -264 786 0
440 -322 330 787 0
480 -193 -96 788 0
30 -281 425 789 0
230 -39 -341 790 0
290 490 -386 791 0
-476 103 -475 792 0
396 -467 326 793 0
74 -415 88 794 0
314 60 424 795 0
-178 487 22 796 0
58 135 100 797 0
-277 296 66 798 0
-260 474 164 799 0
-298 -189 -431 800 0
147 -449 486 801 0
493 14 184 802 0
-422 -305 -80 803 0
356 129 -136 804 0
274 475 11 805 0
120 -341 -308 806 0
-332 174 29 807 0
481 227 -310 808 0
-138 294 411 809 0
25 84 -246 810 0
-187 -98 -488 811 0
-371 -472 137 812 0
-446 -58 -108 813 0
213 87 -227 814 0
-283 49 142 815 0
448 356 -167 816 0
18 495 225 817 0
413 385 426 818 0
-55 -169 56 819 0
134 -389 -493 820 0
-407 -75 326 821 0
476 -247 -145 822 0
161 -414 197 823 0
-80 -198 -443 824 0
475 -15 463 825 0
-304 -236 164 826 0
-414 144 397 827 0
-331 -169 288 828 0
92 395 485 829 0
489 -156 494 830 0
-240 -414 -355 831 0
85 413 -375 832 0
483 -310 392 833 0
-145 -378 -312 834 0
-366 360 338 835 0
79 94 78 836 0
153 91 -87 837 0
385 488 -476 838 0
-34 389 -45 839 0
304 422 227 840 0
-484 -96 151 841 0
-487 -11 -312 842 0
-38 117 51 843 0
-358 148 14 844 0
111 275 219 845 0
-55 90 395 846 0
156 -218 -465 847 0
17 448 49 848 0
38 443 332 849 0
415 -1 -475 850 0
380 126 -94 851 0
-326 452 -71 852 0
-200 -209 -413 853 0
-92 -299 42 854 0
462 420 -327 855 0
205 31 -491 856 0
32 -317 469 857 0
413 -336 311 858 0
-46 -474 98 859 0
196 171 315 860 0
11 -413 131 861 0
-476 8 274 862 0
-403 142 -78 863 0
-342 80 -60 864 0
-441 107 -151 865 0
493 -440 -472 866 0
-159 -317 -249 867 0
-376 347 -287 868 0
-244 -8 -11 869 0
-43 -19 -365 870 0
-308 307 -120 871 0
-5 -495 -316 872 0
87 41 -157 873 0
-152 37 -327 874 0
339 175 -219 875 0
-109 244 -299 876 0
-225 -41 -241 877 0
-324 -153 239 878 0
-68 69 -224 879 0
305 -161 474 880 0
493 -260 -500 881 0
199 151 355 882 0
-424 312 322 883 0
-232 -323 143 884 0
-421 377 -115 885 0
136 -421 106 886 0
-257 329 -200 887 0
-259 -469 29 888 0
-402 275 -386 889 0
43 173 -178 890 0
199 -60 468 891 0
-464 -340 -434 892 0
-404 -214 13 893 0
165 487 -162 894 0
37 194 285 895 0
-330 -230 294 896 0
-256 -96 297 897 0
-165 354 399 898 0
-469 -368 -98 899 0
326 -200 377 900 0
-408 -11 293 901 0
6 386 -19 902 0
-256 -78 34 903 0
249 352 61 904 0
243 -294 -189 905 0
-337 220 -172 906 0
79 -376 -343 907 0
-264 -362 69 908 0
-449 -491 -183 909 0
-463 -458 437 910 0
-85 328 407 911 0
-222 -49 212 912 0
184 -6 138 913 0
-102 36 -352 914 0
-135 -24 376 915 0
379 -195 21 916 0
-375 -492 342 917 0
-138 307 -18 918 0
345 90 470 919 0
430 -118 -101 920 0
365 375 427 921 0
-339 -29 -74 922 0
116 221 -181 923 0
-161 -398 -255 924 0
55 -332 -471 925 0
239 -353 -350 926 0
57 17 406 927 0
289 -67 484 928 0
367 -246 455 929 0
-292 498 -320 930 0
99 425 -200 931 0
-353 -105 -305 932 0
433 304 -281 933 0
-300 477 -92 934 0
164 17 -391 935 0
-89 488 19 936 0
460 -478 -339 937 0
81 -400 -469 938 0
-130 -42 248 939 0
234 297 -223 940 0
-420 414 -250 941 0
-423 21 -136 942 0
-226 -263 65 943 0
495 408 355 944 0
-338 -182 74 945 0
236 318 112 946 0
-384 -133 -102 947 0
-34 164 371 948 0
376 -375 -277 949 0
157 243 -6 950 0
166 43 391 951 0
350 463 -86 952 0
-466 -165 -256 953 0
-359 -434 38 954 0
136 94 -353 955 0
-304 -155 -38 956 0
-37 271 438 957 0
119 283 -231 958 0
142 316 407 959 0
-432 290 211 960 0
205 -375 -168 961 0
-416 -385 -102 962 0
174 -96 -394 963 0
82 -408 -44 964 0
-408 -80 460 965 0
467 289 411 966 0
-223 -280 79 967 0
81 -291 -203 968 0
-48 437 237 969 0
444 234 166 970 0
-398 349 -102 971 0
-90 324 369 972 0
-119 425 -140 973 0
-382 -440 -288 974 0
358 -142 -426 975 0
-376 -5 -241 976 0
109 431 -283 977 0
361 491 372 978 0
269 -329 424 979 0
-311 20 140 980 0
204 -444 373 981 0
124 -303 -416 982 0
188 480 -426 983 0
291 478 101 984 0
-481 495 172 985 0
175 -49 -104 986 0
311 76 -121 987 0
-405 -151 -79 988 0
-435 -27 -335 989 0
-312 328 131 990 0
-45 85 -92 991 0
-440 432 -490 992 0
-315 -242 -290 993 0
120 -76 81 994 0
314 247 386 995 0
118 -490 449 996 0
-344 -462 235 997 0
-351 -440 185 998 0
432 -319 486 999 0
-108 51 -205 1000 0
232 255 -183 1001 0
-135 424 297 1002 0
473 -80 131 1003 0
-33 483 55 1004 0
475 -21 495 1005 0
-177 -495 -258 1006 0
-43 442 285 1007 0
329 -494 80 1008 0
-174 97 188 1009 0
-245 362 -274 1010 0
-167 -403 118 1011 0
4 -175 -331 1012 0
91 -466 -244 1013 0
-357 -43 27 1014 0
388 -165 -488 1015 0
-32 2 -85 1016 0
376 180 -295 1017 0
-316 34 -156 1018 0
269 -91 -12 1019 0
17 98 108 1020 0
-356 -180 213 1021 0
447 161 383 1022 0
236 92 -429 1023 0
-279 9 66 1024 0
286 -447 232 1025 0
92 179 84 1026 0
-276 -88 -443 1027 0
-418 -372 78 1028 0
-241 280 177 1029 0
20 -87 94 1030 0
86 -417 387 1031 0
-14 -110 383 1032 0
-146 -350 -425 1033 0
-91 -495 74 1034 0
-314 -47 209 1035 0
404 192 -461 1036 0
-443 -74 -422 1037 0
393 -227 252 1038 0
-396 263 -192 1039 0
143 42 44 1040 0
-493 -422 -345 1041 0
164 -111 -199 1042 0
-436 399 -274 1043 0
265 240 -181 1044 0
-315 -325 -3 1045 0
277 393 -221 1046 0
190 -466 -220 1047 0
279 273 56 1048 0
139 23 122 1049 0
-251 -445 -494 1050 0
55 -31 66 1051 0
-163 396 -225 1052 0
-48 293 -125 1053 0
-336 133 -134 1054 0
164 404 -484 1055 0
273 -177 402 1056 0
-173 -176 415 1057 0
-154 430 -298 1058 0
-31 -431 157 1059 0
-418 202 124 1060 0
476 -143 -96 1061 0
452 280 -358 1062 0
83 469 173 1063 0
278 228 -184 1064 0
-154 315 286 1065 0
-12 -42 301 1066 0
-284 479 203 1067 0
324 -32 339 1068 0
301 81 -322 1069 0
-181 161 94 1070 0
288 -478 -158 1071 0
-325 -258 498 1072 0
-387 254 -384 1073 0
-218 42 433 1074 0
14 -19 -90 1075 0
-138 490 -100 1076 0
276 -94 278 1077 0
430 189 -88 1078 0
57 -33 143 1079 0
-287 -301 492 1080 0
316 288 191 1081 0
-315 -468 -301 1082 0
-76 384 -355 1083 0
-404 -214 -24 1084 0
281 51 237 1085 0
209 -82 295 1086 0
490 -178 -470 1087 0
83 437 435 1088 0
27 488 156 1089 0
-72 -397 316 1090 0
468 -478 293 1091 0
211 -409 -254 1092 0
249 -146 34 1093 0
208 -76 -31 1094 0
151 146 324 1095 0
-401 304 374 1096 0
298 11 -340 1097 0
-197 118 -62 1098 0
387 -185 -149 1099 0
-298 481 177 1100 0
-361 -481 -28 1101 0
-103 70 -240 1102 0
-348 104 443 1103 0
-428 -304 -96 1104 0
485 222 -155 1105 0
162 -178 -256 1106 0
-111 -458 217 1107 0
-202 -159 -473 1108 0
-364 -247 -192 1109 0
-388 -496 324 1110 0
-110 450 22 1111 0
424 -443 231 1112 0
-428 -300 177 1113 0
-40 -9 333 1114 0
7 492 -334 1115 0
475 -425 371 1116 0
328 26 -52 1117 0
-149 -75 -218 1118 0
373 365 -271 1119 0
472 388 271 1120 0
-493 213 -318 1121 0
103 -430 -429 1122 0
-273 291 444 1123 0
489 -137 463 1124 0
-28 88 331 1125 0
-334 -77 457 1126 0
251 -136 111 1127 0
188 368 465 1128 0
-213 -426 330 1129 0
-60 -231 131 1130 0
-4 465 -72 1131 0
-305 -236 -462 1132 0
-417 288 -16 1133 0
-36 -348 -431 1134 0
-215 -400 373 1135 0
-295 -355 432 1136 0
73 -84 -377 1137 0
358 -469 -102 1138 0
336 -31 374 1139 0
408 212 -348 1140 0
-62 -173 -264 1141 0
404 305 -365 1142 0
38 264 -334 1143 0
345 -4 -241 1144 0
12 -254 -430 1145 0
469 463 -390 1146 0
-176 494 -121 1147 0
-418 -395 -298 1148 0
491 -251 459 1149 0
-159 -50 116 1150 0
-398 -77 -402 1151 0
487 -155 -407 1152 0
-464 330 209 1153 0
-250 456 -327 1154 0
230 -99 -481 1155 0
392 468 344 1156 0
-471 -417 300 1157 0
159 -88 -221 1158 0
498 228 -272 1159 0
-496 237 -244 1160 0
-183 -137 -389 1161 0
-456 -186 -130 1162 0
-259 441 -191 1163 0
-450 -333 -497 1164 0
-13 -163 -467 1165 0
88 476 256 1166 0
-292 84 -327 1167 0
259 239 -140 1168 0
492 -16 243 1169 0
-318 458 331 1170 0
369 484 329 1171 0
-309 -66 241 1172 0
-203 -249 289 1173 0
-134 199 -111 1174 0
479 89 -10 1175 0
-491 379 478 1176 0
-487 35 89 1177 0
-367 32 287 1178 0
-434 67 -112 1179 0
-13 323 322 1180 0
-155 -464 55 1181 0
40 51 -174 1182 0
-51 21 180 1183 0
-307 -316 59 1184 0
-405 33 -163 1185 0
123 5 -266 1186 0
-440 -339 -194 1187 0
-157 -53 -465 1188 0
351 -393 -142 1189 0
473 467 30 1190 0
-389 -456 241 1191 0
-262 182 -49 1192 0
127 -496 -402 1193 0
166 406 -71 1194 0
293 -406 -133 1195 0
-41 440 195 1196 0
370 -397 473 1197 0
442 -180 -104 1198 0
282 223 -336 1199 0
-480 -294 -414 1200 0
407 19 102 1201 0
-427 277 -489 1202 0
79 -132 95 1203 0
-492 132 7 1204 0
-77 -186 -488 1205 0
-305 199 387 1206 0
-164 -435 265 1207 0
27 -50 -121 1208 0
-170 458 362 1209 0
294 293 -432 1210 0
460 -345 -194 1211 0
-259 139 -405 1212 0
21 -222 -137 1213 0
375 -133 -488 1214 0
378 -449 -480 1215 0
-460 23 184 1216 0
-222 480 8 1217 0
194 58 -459 1218 0
-381 -286 -293 1219 0
495 97 -150 1220 0
208 252 447 1221 0
-492 -195 -289 1222 0
182 -360 270 1223 0
23 -273 -56 1224 0
50 171 304 1225 0
339 -370 142 1226 0
60 -215 -470 1227 0
165 -135 -446 1228 0
27 43 414 1229 0
347 496 -343 1230 0
-390 120 405 1231 0
68 373 108 1232 0
38 -318 -331 1233 0
-149 -112 31 1234 0
-417 -130 413 1235 0
289 20 -239 1236 0
-273 -23 -47 1237 0
43 -28 367 1238 0
329 267 229 1239 0
-70 298 144 1240 0
-487 364 -140 1241 0
-286 311 -462 1242 0
398 -327 381 1243 0
-68 252 -219 1244 0
242 -157 -152 1245 0
187 -286 173 1246 0
160 -289 103 1247 0
-61 -142 -14 1248 0
-191 51 57 1249 0
448 -243 -464 1250 0
251 -177 -114 1251 0
335 241 57 1252 0
-203 34 429 1253 0
127 62 -429 1254 0
152 -227 24 1255 0
333 -85 103 1256 0
-444 -326 -161 1257 0
240 253 -196 1258 0
190 492 -434 1259 0
257 98 227 1260 0
206 -205 345 1261 0
-70 -364 -67 1262 0
-145 -356 107 1263 0
-168 -72 155 1264 0
-455 -478 -150 1265 0
394 210 -455 1266 0
241 282 469 1267 0
-146 331 471 1268 0
73 333 202 1269 0
430 -446 328 1270 0
498 193 -405 1271 0
304 259 -186 1272 0
445 -339 492 1273 0
336 301 -229 1274 0
-39 -485 266 1275 0
386 136 393 1276 0
-275 140 -485 1277 0
408 -358 -475 1278 0
-89 343 238 1279 0
-286 -147 28 1280 0
11 372 338 1281 0
425 -460 149 1282 0
25 240 -78 1283 0
399 -417 498 1284 0
-65 -306 -456 1285 0
231 -30 -6 1286 0
186 -122 -453 1287 0
-104 359 -478 1288 0
51 149 265 1289 0
-113 222 233 1290 0
-447 -48 -158 1291 0
-195 132 -67 1292 0
-197 -224 -441 1293 0
175 163 232 1294 0
69 -233 -106 1295 0
-438 484 296 1296 0
73 -195 -22 1297 0
289 458 -273 1298 0
194 -445 -498 1299 0
-160 342 327 1300 0
-114 -285 -99 1301 0
-347 -223 125 1302 0
-171 -442 329 1303 0
-494 455 -439 1304 0
-275 414 -292 1305 0
-362 -306 -472 1306 0
50 264 -308 1307 0
20 -257 39 1308 0
-201 -206 263 1309 0
27 271 382 1310 0
-220 140 -32 1311 0
96 115 393 1312 0
-333 -392 -456 1313 0
424 248 50 1314 0
-31 204 76 1315 0
402 -496 75 1316 0
-212 27 303 1317 0
-449 -408 -328 1318 0
227 302 -58 1319 0
22 181 -174 1320 0
145 -126 267 1321 0
14 -235 105 1322 0
190 16 500 1323 0
-234 -418 -384 1324 0
-130 -369 32 1325 0
143 260 473 1326 0
-85 -389 -291 1327 0
-365 75 -350 1328 0
367 28 413 1329 0
-437 154 95 1330 0
377 263 115 1331 0
161 498 -149 1332 0
-70 263 -84 1333 0
-385 -307 -270 1334 0
458 -431 -138 1335 0
142 90 52 1336 0
-474 134 -434 1337 0
140 8 -256 1338 0
-71 -167 183 1339 0
-68 60 -324 1340 0
33 358 97 1341 0
150 418 269 1342 0
214 434 303 1343 0
-271 -329 -62 1344 0
-429 373 343 1345 0
-26 -314 359 1346 0
13 359 423 1347 0
-351 424 444 1348 0
124 338 370 1349 0
374 24 -378 1350 0
339 311 -377 1351 0
-488 46 -255 1352 0
-1 255 -360 1353 0
498 -51 13 1354 0
-455 277 -128 1355 0
12 -113 -306 1356 0
-469 151 -64 1357 0
378 -189 -45 1358 0
-377 -314 407 1359 0
-311 421 333 1360 0
173 286 -166 1361 0
-348 315 127 1362 0
290 102 293 1363 0
267 -266 421 1364 0
393 -472 -456 1365 0
-393 375 230 1366 0
405 385 -285 1367 0
51 259 492 1368 0
-225 372 -204 1369 0
-20 -261 -27 1370 0
-478 220 378 1371 0
-51 -380 318 1372 0
260 -483 24 1373 0
-318 40 -179 1374 0
30 -453 311 1375 0
-309 214 -4 1376 0
209 342 437 1377 0
-468 -250 106 1378 0
124 -224 -430 1379 0
-485 -88 372 1380 0
-215 -26 1 1381 0
248 -12 -120 1382 0
-121 63 -308 1383 0
-118 -346 -81 1384 0
425 29 332 1385 0
173 263 -234 1386 0
436 63 -317 1387 0
159 -472 474 1388 0
-305 -487 253 1389 0
5 160 -41 1390 0
308 221 207 1391 0
395 -240 191 1392 0
-298 232 -15 1393 0
447 -337 217 1394 0
-471 -154 421 1395 0
296 251 97 1396 0
-204 -201 -305 1397 0
-214 -309 -253 1398 0
-256 -108 -404 1399 0
44 243 419 1400 0
-345 353 -325 1401 0
90 97 319 1402 0
452 230 -266 1403 0
-257 211 -346 1404 0
151 -477 -9 1405 0
34 329 -90 1406 0
76 -152 398 1407 0
353 -117 337 1408 0
16 140 63 1409 0
279 -89 226 1410 0
330 264 251 1411 0
-298 -9 70 1412 0
-12 90 43 1413 0
-494 7 -58 1414 0
60 305 449 1415 0
-339 393 -239 1416 0
100 182 272 1417 0
-415 -289 52 1418 0
369 1 -446 1419 0
-362 -128 162 1420 0
372 -45 -67 1421 0
116 -249 254 1422 0
-157 -143 466 1423 0
122 -297 86 1424 0
-377 -91 39 1425 0
-450 334 -474 1426 0
-35 319 344 1427 0
-136 35 241 1428 0
-269 -328 -417 1429 0
498 -125 143 1430 0
-203 284 -412 1431 0
109 -126 5 1432 0
312 -297 290 1433 0
-121 363 -451 1434 0
224 50 184 1435 0
-320 277 41 1436 0
-287 -31 372 1437 0
-312 135 -95 1438 0
183 -453 480 1439 0
96 -331 265 1440 0
31 -263 -424 1441 0
-380 -459 -313 1442 0
-283 490 -127 1443 0
-22 -242 -187 1444 0
-292 -330 -118 1445 0
136 173 406 1446 0
305 -345 167 1447 0
328 226 -140 1448 0
-48 -101 351 1449 0
-4 -109 -29 1450 0
290 61 -179 1451 0
375 13 -286 1452 0
-12 -374 258 1453 0
205 -370 108 1454 0
-234 195 423 1455 0
-14 -498 8 1456 0
-163 46 44 1457 0
6 112 -115 1458 0
-77 278 329 1459 0
-400 -210 486 1460 0
-495 -430 -440 1461 0
-441 -178 -485 1462 0
56 -305 -359 1463 0
220 -188 105 1464 0
-223 -312 -50 1465 0
385 127 -446 1466 0
-150 433 -338 1467 0
429 -489 201 1468 0
17 -57 -116 1469 0
-176 -151 -40 1470 0
-453 432 136 1471 0
-182 359 41 1472 0
-195 292 180 1473 0
-308 183 -281 1474 0
-182 233 55 1475 0
-118 312 -270 1476 0
-345 223 -287 1477 0
380 -446 368 1478 0
177 -305 69 1479 0
223 -423 96 1480 0
45 -104 379 1481 0
-440 -223 311 1482 0
476 5 -208 1483 0
433 488 306 1484 0
122 14 -366 1485 0
-206 -461 406 1486 0
183 318 443 1487 0
422 459 449 1488 0
-68 371 443 1489 0
-335 260 285 1490 0
-496 202 -237 1491 0
-327 -39 149 1492 0
-388 -107 -371 1493 0
-325 -10 108 1494 0
-109 223 -215 1495 0
-437 -110 197 1496 0
1 315 114 1497 0
330 -60 224 1498 0
-399 -100 418 1499 0
66 232 242 1500 0
126 -7 219 1501 0
132 422 -120 1502 0
-488 -90 319 1503 0
-240 -73 -7 1504 0
237 -247 172 1505 0
-308 325 387 1506 0
-250 5 444 1507 0
-249 21 -133 1508 0
163 -385 -142 1509 0
-203 425 450 1510 0
-28 -69 -233 1511 0
-296 -353 312 1512 0
461 444 -166 1513 0
-254 -272 -368 1514 0
-362 1 450 1515 0
150 30 -257 1516 0
473 -151 55 1517 0
266 252 -381 1518 0
-17 485 -12 1519 0
-170 87 -264 1520 0
9 230 -151 1521 0
263 304 110 1522 0
-294 165 429 1523 0
159 42 -237 1524 0
264 -471 190 1525 0
371 -405 -84 1526 0
342 -432 196 1527 0
186 -189 -429 1528 0
109 -420 194 1529 0
92 -156 -341 1530 0
-40 470 -280 1531 0
291 449 180 1532 0
-202 -269 179 1533 0
77 -144 86 1534 0
97 -104 -368 1535 0
-103 330 -430 1536 0
-392 338 -175 1537 0
28 30 440 1538 0
-73 -471 178 1539 0
-79 259 214 1540 0
245 58 294 1541 0
343 -224 403 1542 0
-401 -303 -379 1543 0
201 351 405 1544 0
-153 139 119 1545 0
-6 -209 340 1546 0
-257 -207 -305 1547 0
-450 429 -212 1548 0
-118 -350 -249 1549 0
-495 389 326 1550 0
389 -303 285 1551 0
-400 -392 221 1552 0
-393 240 -418 1553 0
395 491 -53 1554 0
419 56 474 1555 0
224 11 -18 1556 0
299 -110 -363 1557 0
-96 -261 155 1558 0
178 63 64 1559 0
414 -374 74 1560 0
150 490 74 1561 0
-398 -125 -252 1562 0
349 -46 -480 1563 0
193 -109 83 1564 0
100 422 -21 1565 0
179 63 -188 1566 0
-476 -269 -320 1567 0
100 6 -332 1568 0
-179 97 -460 1569 0
424 490 246 1570 0
428 -482 147 1571 0
-455 204 -238 1572 0
-225 -276 18 1573 0
-19 12 -286 1574 0
-5 44 83 1575 0
-359 -154 303 1576 0
320 196 -434 1577 0
175 474 -17 1578 0
-366 163 -34 1579 0
475 486 250 1580 0
-79 44 11 1581 0
-105 -133 484 1582 0
-96 -245 -333 1583 0
234 -451 -364 1584 0
473 -329 49 1585 0
95 108 -475 1586 0
-198 359 -83 1587 0
-464 109 489 1588 0
-195 435 318 1589 0
299 68 -480 1590 0
399 257 80 1591 0
-353 -139 -462 1592 0
312 375 291 1593 0
-385 -147 -475 1594 0
-216 195 33 1595 0
96 255 -338 1596 0
144 -296 -358 1597 0
-103 -104 354 1598 0
246 -2 484 1599 0
-156 424 13 1600 0
373 64 -214 1601 0
472 177 -441 1602 0
302 -296 -489 1603 0
362 -295 -78 1604 0
262 83 228 1605 0
97 137 -332 1606 0
-16 486 340 1607 0
250 -329 423 1608 0
-272 -396 -453 1609 0
59 418 269 1610 0
-305 230 447 1611 0
260 132 -474 1612 0
180 184 240 1613 0
63 -296 495 1614 0
164 -184 -67 1615 0
414 365 142 1616 0
466 413 -16 1617 0
67 378 -104 1618 0
-467 302 364 1619 0
-109 -370 128 1620 0
227 -248 -198 1621 0
-469 288 -29 1622 0
205 -310 -484 1623 0
-91 47 -474 1624 0
-80 -91 -26 1625 0
-320 -220 -364 1626 0
-55 -35 77 1627 0
58 359 -25 1628 0
143 105 196 1629 0
-37 -87 -152 1630 0
11 -199 -133 1631 0
-151 -432 459 1632 0
-453 -427 114 1633 0
38 -53 244 1634 0
134 477 287 1635 0
466 215 -420 1636 0
346 -374 -214 1637 0
276 -185 -362 1638 0
-136 -6 -36 1639 0
-382 -485 -302 1640 0
334 330 114 1641 0
106 232 -166 1642 0
-64 -65 39 1643 0
404 310 -66 1644 0
21 -210 -45 1645 0
-182 -309 -84 1646 0
418 -14 -96 1647 0
-400 252 -365 1648 0
-375 306 -193 1649 0
368 -351 385 1650 0
413 457 103 1651 0
29 438 -32 1652 0
90 -159 -152 1653 0
386 43 -480 1654 0
417 316 -337 1655 0
-182 413 -198 1656 0
-225 272 320 1657 0
-112 -13 474 1658 0
267 481 -79 1659 0
-318 -273 -170 1660 0
-187 -147 137 1661 0
-105 -337 311 1662 0
444 -184 314 1663 0
-148 452 -104 1664 0
379 424 -440 1665 0
-88 -168 100 1666 0
388 -184 38 1667 0
-197 -294 466 1668 0
-437 411 -483 1669 0
394 -275 -380 1670 0
347 193 -375 1671 0
-20 269 160 1672 0
-352 -277 -52 1673 0
188 393 -478 1674 0
-108 344 -210 1675 0
364 242 -473 1676 0
-357 -431 75 1677 0
-305 -443 220 1678 0
-109 -471 333 1679 0
151 401 -30 1680 0
423 -484 -151 1681 0
122 307 416 1682 0
9 -256 -25 1683 0
-39 -182 485 1684 0
-82 366 -48 1685 0
-50 -137 -420 1686 0
-365 -225 -141 1687 0
197 206 146 1688 0
-395 164 -339 1689 0
-231 20 -362 1690 0
165 170 -374 1691 0
57 25 -353 1692 0
-467 -275 346 1693 0
296 -246 175 1694 0
194 -408 -365 1695 0
-21 -433 328 1696 0
-28 371 -206 1697 0
386 -83 132 1698 0
175 11 -292 1699 0
-87 -495 233 1700 0
-297 -154 -324 1701 0
440 70 89 1702 0
101 -456 429 1703 0
265 300 -350 1704 0
182 490 -236 1705 0
-91 312 -255 1706 0
334 -177 -145 1707 0
423 484 -59 1708 0
423 -113 69 1709 0
-419 -155 -223 1710 0
-488 -97 -144 1711 0
233 -82 332 1712 0
95 179 15 1713 0
-52 -214 19 1714 0
10 -70 -460 1715 0
435 365 -471 1716 0
-54 256 345 1717 0
-226 134 -438 1718 0
-259 -443 461 1719 0
-409 -245 164 1720 0
11 415 -199 1721 0
-62 391 -348 1722 0
256 -337 -380 1723 0
-180 381 -239 1724 0
-416 301 347 1725 0
240 132 -141 1726 0
-21 360 -253 1727 0
204 376 428 1728 0
-184 -466 333 1729 0
413 369 59 1730 0
-41 381 147 1731 0
382 421 -350 1732 0
-165 -272 330 1733 0
478 -117 211 1734 0
321 44 -125 1735 0
411 -326 86 1736 0
3 -301 304 1737 0
135 -226 330 1738 0
-335 225 -465 1739 0
379 116 128 1740 0
-242 -62 294 1741 0
-85 162 260 1742 0
-437 387 -19 1743 0
468 -424 22 1744 0
463 353 -477 1745 0
3 196 203 1746 0
90 495 487 1747 0
-475 209 -59 1748 0
499 -235 -489 1749 0
-333 160 55 1750 0
228 -422 -434 1751 0
428 35 -433 1752 0
85 349 354 1753 0
201 281 -361 1754 0
344 227 -343 1755 0
48 322 -474 1756 0
20 -227 110 1757 0
345 -382 -322 1758 0
-385 181 383 1759 0
274 474 -147 1760 0
-499 -250 242 1761 0
491 -235 -469 1762 0
162 -29 -287 1763 0
-200 -417 337 1764 0
5 12 168 1765 0
-367 -203 479 1766 0
398 -251 32 1767 0
-369 -489 317 1768 0
-33 -216 -447 1769 0
358 100 -22 1770 0
295 -56 -214 1771 0
34 365 -26 1772 0
317 411 324 1773 0
195 48 -276 1774 0
369 -384 6 1775 0
174 10 -183 1776 0
-459 265 454 1777 0
429 334 -450 1778 0
-489 33 -304 1779 0
-172 314 50 1780 0
-131 -272 397 1781 0
346 -121 -32 1782 0
-146 -491 9 1783 0
207 128 -232 1784 0
7 111 -195 1785 0
229 -372 -295 1786 0
-311 412 61 1787 0
-13 -251 385 1788 0
494 95 153 1789 0
-115 -276 468 1790 0
303 -388 470 1791 0
-493 -44 -259 1792 0
23 260 141 1793 0
322 441 437 1794 0
84 -490 -460 1795 0
327 391 466 1796 0
408 236 474 1797 0
-261 -110 8 1798 0
-309 -101 187 1799 0
433 128 -300 1800 0
-44 -239 235 1801 0
-5 255 -452 1802 0
381 -108 -97 1803 0
236 -266 -416 1804 0
14 -7 -450 1805 0
-293 -355 -84 1806 0
-38 238 110 1807 0
-318 -498 212 1808 0
-197 193 312 1809 0
152 243 -447 1810 0
-299 371 -346 1811 0
-148 -85 248 1812 0
-298 381 196 1813 0
414 -421 344 1814 0
95 -209 -70 1815 0
-227 280 -159 1816 0
-72 -421 -371 1817 0
382 -107 -35 1818 0
325 -287 481 1819 0
-208 -239 158 1820 0
82 343 206 1821 0
-106 -355 -153 1822 0
-345 -455 59 1823 0
446 -268 -136 1824 0
32 -251 391 1825 0
26 10 248 1826 0
-212 87 -355 1827 0
-195 332 438 1828 0
31 -487 -388 1829 0
-445 -387 -111 1830 0
-430 320 -194 1831 0
474 49 169 1832 0
180 237 -466 1833 0
392 -120 -381 1834 0
-393 414 -26 1835 0
180 -307 230 1836 0
396 -475 282 1837 0
195 192 -487 1838 0
-328 -237 -310 1839 0
-146 442 298 1840 0
-50 111 -422 1841 0
273 160 -460 1842 0
-96 83 182 1843 0
-23 121 -372 1844 0
407 205 -80 1845 0
418 203 52 1846 0
-201 288 33 1847 0
-198 -380 -422 1848 0
-244 -218 -146 1849 0
-497 442 -338 1850 0
-123 -272 337 1851 0
-482 122 172 1852 0
-277 312 365 1853 0
140 212 -160 1854 0
310 404 97 1855 0
-370 115 -88 1856 0
-379 -74 180 1857 0
-418 12 -127 1858 0
-403 -424 -408 1859 0
-218 488 97 1860 0
362 377 17 1861 0
-500 -21 -378 1862 0
252 92 107 1863 0
-480 60 -195 1864 0
236 -136 -46 1865 0
363 -138 -375 1866 0
-372 360 112 1867 0
366 96 318 1868 0
153 -473 -332 1869 0
-363 390 -68 1870 0
-495 69 485 1871 0
-66 -202 219 1872 0
-402 113 -161 1873 0
134 -339 283 1874 0
71 -154 419 1875 0
-447 151 220 1876 0
-306 -463 442 1877 0
361 342 -219 1878 0
-41 312 -146 1879 0
201 -164 -94 1880 0
344 160 454 1881 0
-457 485 451 1882 0
-463 -35 -464 1883 0
7 -88 -474 1884 0
-367 -46 342 1885 0
129 -367 -377 1886 0
233 484 304 1887 0
147 -411 -215 1888 0
467 -21 392 1889 0
201 -270 -31 1890 0
175 106 137 1891 0
-352 80 -416 1892 0
-226 149 -120 1893 0
-242 -339 -345 1894 0
276 312 -9 1895 0
315 260 32 1896 0
93 102 -386 1897 0
88 -140 -337 1898 0
-138 282 492 1899 0
367 174 -295 1900 0
379 -455 -296 1901 0
50 194 418 1902 0
465 -267 144 1903 0
-103 475 -32 1904 0
310 84 -241 1905 0
-22 -77 336 1906 0
-400 164 -51 1907 0
-195 293 -6 1908 0
-490 231 310 1909 0
69 -145 51 1910 0
-21 -197 301 1911 0
189 -6 -99 1912 0
365 191 -19 1913 0
288 78 -283 1914 0
-363 -203 109 1915 0
143 -46 -23 1916 0
-402 233 -220 1917 0
356 125 -10 1918 0
-42 498 -483 1919 0
-179 -365 -228 1920 0
158 391 3 1921 0
-446 169 464 1922 0
-432 -418 -213 1923 0
-332 -67 458 1924 0
-95 -6 -486 1925 0
366 -357 -497 1926 0
169 57 -296 1927 0
362 -34 -402 1928 0
97 -409 206 1929 0
-330 445 -334 1930 0
290 -70 -275 1931 0
365 153 -431 1932 0
-23 50 211 1933 0
86 -206 -427 1934 0
-406 -397 -294 1935 0
-252 -291 188 1936 0
-412 326 -436 1937 0
-141 425 127 1938 0
471 82 -210 1939 0
440 -406 300 1940 0
-354 55 -328 1941 0
-309 68 307 1942 0
475 205 -468 1943 0
393 -189 -472 1944 0
46 -31 456 1945 0
478 311 -415 1946 0
-276 -192 -256 1947 0
326 209 -407 1948 0
68 -124 79 1949 0
347 -5 -374 1950 0
408 -38 -76 1951 0
75 319 351 1952 0
-335 337 35 1953 0
-335 133 -404 1954 0
-40 -325 272 1955 0
-180 158 300 1956 0
-245 -227 198 1957 0
-181 142 -70 1958 0
363 303 214 1959 0
67 334 -463 1960 0
484 5 -306 1961 0
180 -55 -74 1962 0
425 260 184 1963 0
418 438 -272 1964 0
350 -322 -136 1965 0
143 333 -359 1966 0
-488 -191 162 1967 0
-41 -159 158 1968 0
263 371 94 1969 0
-192 -50 104 1970 0
-482 178 142 1971 0
-6 235 -347 1972 0
467 299 305 1973 0
-249 -215 406 1974 0
-337 134 -137 1975 0
-125 239 89 1976 0
-150 -337 467 1977 0
-322 352 442 1978 0
-393 -235 -354 1979 0
113 74 60 1980 0
54 40 391 1981 0
395 480 -89 1982 0
478 24 242 1983 0
-185 179 375 1984 0
-374 -124 -157 1985 0
191 457 39 1986 0
-422 229 286 1987 0
-194 -393 91 1988 0
430 -229 -398 1989 0
156 180 281 1990 0
-485 451 -246 1991 0
10 -358 -415 1992 0
315 -147 54 1993 0
42 -135 90 1994 0
274 171 -411 1995 0
-259 184 397 1996 0
299 235 104 1997 0
-65 -276 -345 1998 0
-193 -142 -247 1999 0
479 -410 486 2000 0
385 -108 106 2001 0
-365 279 -175 2002 0
-484 -44 340 2003 0
-64 -415 -245 2004 0
-136 77 -278 2005 0
-383 301 434 2006 0
-262 -215 424 2007 0
-177 -126 -385 2008 0
272 -387 -124 2009 0
-427 251 -470 2010 0
443 -27 -421 2011 0
101 428 -391 2012 0
165 -235 198 2013 0
-165 98 -371 2014 0
25 -175 -191 2015 0
-415 -121 353 2016 0
-292 164 211 2017 0
-204 -486 459 2018 0
-272 348 -271 2019 0
486 -220 -191 2020 0
-386 -352 -13 2021 0
-247 -160 122 2022 0
-1 387 246 2023 0
323 -383 -418 2024 0
-55 446 -202 2025 0
103 97 238 2026 0
-147 -308 151 2027 0
-318 -131 -408 2028 0
-175 -196 -246 2029 0
149 374 -120 2030 0
-435 43 212 2031 0
-408 142 302 2032 0
332 -444 87 2033 0
275 281 -284 2034 0
-269 156 -204 2035 0
236 408 -233 2036 0
302 23 150 2037 0
-153 474 -52 2038 0
85 412 252 2039 0
-478 -382 15 2040 0
-383 -358 -276 2041 0
-330 -464 -377 2042 0
-49 267 -270 2043 0
271 -45 244 2044 0
51 -484 -183 2045 0
-255 -148 -303 2046 0
-173 -334 243 2047 0
-98 -381 212 2048 0
107 340 -394 2049 0
464 -64 -277 2050 0
313 325 437 2051 0
-2 467 353 2052 0
277 4 324 2053 0
73 133 175 2054 0
-204 -261 -363 2055 0
245 413 19 2056 0
-63 22 119 2057 0
-247 429 -356 2058 0
-3 -218 -225 2059 0
265 -114 123 2060 0
407 351 -424 2061 0
232 43 241 2062 0
-110 -363 285 2063 0
-399 456 -93 2064 0
87 -2 -226 2065 0
286 49 111 2066 0
481 -240 23 2067 0
141 70 -57 2068 0
1 318 12 2069 0
-103 -455 378 2070 0
400 -343 -478 2071 0
48 -236 -162 2072 0
26 257 -470 2073 0
321 -342 -105 2074 0
-487 162 -119 2075 0
47 211 -269 2076 0
112 -20 -493 2077 0
-411 -87 -443 2078 0
170 -77 -433 2079 0
-316 -492 262 2080 0
347 -356 -64 2081 0
219 232 386 2082 0
-357 168 -3 2083 0
-425 -13 -89 2084 0
-473 85 214 2085 0
374 -132 -111 2086 0
185 -141 294 2087 0
108 -399 315 2088 0
235 -216 -379 2089 0
252 -189 14 2090 0
175 194 244 2091 0
-333 -118 299 2092 0
84 -317 -217 2093 0
-61 -42 -58 2094 0
-488 -151 429 2095 0
-475 -335 416 2096 0
42 99 -26 2097 0
190 -314 -384 2098 0
-20 -315 290 2099 0
-445 -479 -454 2100 0
-83 269 116 2101 0
16 85 -360 2102 0
316 -265 -22 2103 0
334 -406 396 2104 0
-421 -304 -119 2105 0
221 284 160 2106 0
278 -315 -410 2107 0
-369 -27 58 2108 0
102 -406 -318 2109 0
145 -474 -236 2110 0
365 45 253 2111 0
-169 -470 460 2112 0
80 -111 -68 2113 0
10 -184 165 2114 0
65 70 399 2115 0
33 -219 -488 2116 0
-367 -58 -216 2117 0
-479 -250 156 2118 0
-482 329 162 2119 0
-307 390 -241 2120 0
-280 -1 471 2121 0
-414 353 344 2122 0
39 -48 233 2123 0
-339 -43 -269 2124 0
-469 -145 446 2125 0
-454 82 -452 2126 0
280 -387 -131 2127 0
67 -243 402 2128 0
-385 -278 250 2129 0
287 -450 -14 2130 0
349 492 -278 2131 0
-365 492 -109 2132 0
-52 363 258 2133 0
313 402 -207 2134 0
-53 -342 -500 2135 0
-120 -324 -494 2136 0
168 116 -271 2137 0
-463 273 71 2138 0
375 297 -326 2139 0
278 86 177 2140 0
-208 -147 -106 2141 0
-405 -294 -409 2142 0
4 278 116 2143 0
-46 -499 248 2144 0
325 276 -457 2145 0
-420 176 -161 2146 0
-367 130 35 2147 0
-292 -148 329 2148 0
-395 476 491 2149 0
-5 -235 220 2150 0
79 117 52 2151 0
398 -285 -104 2152 0
426 -101 52 2153 0
-500 -405 -47 2154 0
-94 -342 -325 2155 0
-215 340 -158 2156 0
-257 -12 -359 2157 0
-417 150 -391 2158 0
281 -499 88 2159 0
379 374 294 2160 0
-117 -146 -84 2161 0
-327 74 362 2162 0
-177 110 -493 2163 0
-263 324 428 2164 0
122 -30 24 2165 0
-30 -424 496 2166 0
424 165 -265 2167 0
-344 -427 330 2168 0
-53 -355 -356 2169 0
353 111 -174 2170 0
-460 -91 19 2171 0
317 -292 -368 2172 0
176 427 -464 2173 0
-486 181 -193 2174 0
-105 -476 428 2175 0
69 165 -313 2176 0
-445 -97 224 2177 0
97 342 117 2178 0
331 290 -64 2179 0
332 -256 -475 2180 0
-353 -104 311 2181 0
-496 427 58 2182 0
-62 -139 73 2183 0
259 -335 -239 2184 0
101 -333 -245 2185 0
238 467 -149 2186 0
247 360 41 2187 0
461 -386 356 2188 0
250 377 -262 2189 0
294 -327 234 2190 0
-480 466 -7 2191 0
-476 276 -422 2192 0
-431 -36 445 2193 0
487 285 330 2194 0
456 110 213 2195 0
-489 363 232 2196 0
-146 -233 228 2197 0
-1 334 -224 2198 0
-18 478 -298 2199 0
181 299 -280 2200 0
243 -391 29 2201 0
192 369 -33 2202 0
486 495 -244 2203 0
-181 374 -152 2204 0
-307 -382 362 2205 0
476 431 170 2206 0
-48 -367 307 2207 0
191 -262 -217 2208 0
-274 95 467 2209 0
-461 -225 392 2210 0
-287 -237 442 2211 0
102 432 -363 2212 0
-415 53 -121 2213 0
494 412 -356 2214 0
321 148 210 2215 0
-140 98 155 2216 0
187 9 -97 2217 0
-484 190 -465 2218 0
-474 377 -470 2219 0
63 5 -17 2220 0
-81 193 -243 2221 0
498 -19 380 2222 0
-490 459 227 2223 0
299 -74 -65 2224 0
486 -192 -167 2225 0
158 429 -215 2226 0
-275 355 395 2227 0
296 59 -298 2228 0
-373 -201 -150 2229 0
144 209 247 2230 0
374 264 140 2231 0
500 -498 -99 2232 0
-132 -382 -253 2233 0
188 -479 -100 2234 0
20 399 -294 2235 0
379 -463 -228 2236 0
-144 -98 11 2237 0
53 -391 -365 2238 0
357 122 -364 2239 0
57 320 -60 2240 0
459 440 -61 2241 0
81 82 -362 2242 0
-70 -348 -337 2243 0
464 -371 344 2244 0
-498 374 439 2245 0
479 -256 495 2246 0
-434 -229 498 2247 0
-223 67 232 2248 0
145 -268 -77 2249 0
16 411 -32 2250 0
360 462 475 2251 0
-392 77 -82 2252 0
17 -300 -241 2253 0
425 491 -90 2254 0
-359 -192 194 2255 0
-25 -482 -37 2256 0
-323 190 -380 2257 0
228 252 -299 2258 0
-2 176 258 2259 0
441 -136 283 2260 0
-418 -165 186 2261 0
-94 -403 379 2262 0
-421 -82 69 2263 0
119 -416 -500 2264 0
453 -409 -108 2265 0
391 289 163 2266 0
-367 130 -173 2267 0
-378 -348 -230 2268 0
-60 423 488 2269 0
-259 242 -461 2270 0
-63 -179 472 2271 0
-19 -23 -402 2272 0
-275 -110 -344 2273 0
91 -465 -307 2274 0
277 -367 -79 2275 0
-402 -370 37 2276 0
15 118 -101 2277 0
440 -313 -147 2278 0
-355 -488 284 2279 0
283 -162 -482 2280 0
210 -390 -251 2281 0
390 176 -181 2282 0
4 112 443 2283 0
-319 465 495 2284 0
182 345 399 2285 0
-105 -331 476 2286 0
-337 421 -25 2287 0
-426 327 497 2288 0
-105 -407 24 2289 0
83 62 -298 2290 0
-180 42 474 2291 0
-408 -152 288 2292 0
-27 256 -32 2293 0
205 308 64 2294 0
318 -93 494 2295 0
-349 143 114 2296 0
231 -434 328 2297 0
-49 370 -369 2298 0
474 -415 109 2299 0
-134 -306 375 2300 0
-404 -434 -10 2301 0
-284 -135 -415 2302 0
-206 -249 492 2303 0
-402 393 98 2304 0
83 305 -90 2305 0
-105 -185 -231 2306 0
168 -407 277 2307 0
221 104 228 2308 0
310 -149 -140 2309 0
-105 35 391 2310 0
-224 -18 357 2311 0
-1 -490 -476 2312 0
-205 450 -337 2313 0
477 -475 -289 2314 0
-206 67 80 2315 0
269 -398 312 2316 0
-409 18 -161 2317 0
479 -58 -399 2318 0
-153 164 24 2319 0
-389 136 -21 2320 0
17 370 -372 2321 0
-307 -272 12 2322 0
258 472 413 2323 0
-247 28 423 2324 0
143 -422 188 2325 0
-348 -107 -251 2326 0
399 -475 184 2327 0
98 162 197 2328 0
376 -91 298 2329 0
422 175 -199 2330 0
234 -292 -278 2331 0
201 425 476 2332 0
-477 249 196 2333 0
-179 61 286 2334 0
421 131 -309 2335 0
240 -18 -188 2336 0
315 210 -391 2337 0
334 148 227 2338 0
-284 -347 -421 2339 0
-102 -142 -80 2340 0
440 451 -311 2341 0
223 -493 -41 2342 0
269 132 476 2343 0
-244 -210 -8 2344 0
-258 220 -353 2345 0
-411 -170 258 2346 0
72 336 71 2347 0
93 -228 -91 2348 0
419 -304 67 2349 0
-6 -306 215 2350 0
94 -342 101 2351 0
-372 454 -379 2352 0
-128 -81 -289 2353 0
120 460 -124 2354 0
1 -180 -142 2355 0
420 -246 -325 2356 0
460 479 -388 2357 0
314 157 -428 2358 0
467 -314 -402 2359 0
-133 384 -372 2360 0
271 393 221 2361 0
-54 -78 478 2362 0
-398 -170 270 2363 0
499 -407 -195 2364 0
-204 159 129 2365 0
-30 -56 83 2366 0
260 -380 -27 2367 0
-273 -31 -256 2368 0
201 -102 -19 2369 0
-88 186 480 2370 0
-313 198 157 2371 0
-368 -347 -71 2372 0
-132 -361 -444 2373 0
-262 352 24 2374 0
-252 -358 207 2375 0
-146 -22 -207 2376 0
464 69 -98 2377 0
-415 -300 253 2378 0
-79 235 400 2379 0
-354 -45 143 2380 0
-441 -53 -78 2381 0
403 239 -459 2382 0
461 293 164 2383 0
337 484 -117 2384 0
-481 -390 -53 2385 0
-243 -53 -423 2386 0
-453 -393 -378 2387 0
-447 72 89 2388 0
-184 122 46 2389 0
77 -238 -63 2390 0
-373 299 48 2391 0
-491 -492 -3 2392 0
-320 55 -186 2393 0
153 167 459 2394 0
-305 318 -442 2395 0
257 17 231 2396 0
-301 388 218 2397 0
-42 -125 -383 2398 0
131 98 -330 2399 0
441 364 -419 2400 0
311 -171 -207 2401 0
12 -461 -254 2402 0
-71 -32 -20 2403 0
-401 -223 -361 2404 0
377 386 67 2405 0
-418 457 38 2406 0
420 36 -482 2407 0
-25 170 -195 2408 0
225 372 -25 2409 0
-447 4 353 2410 0
15 -256 383 2411 0
-223 -69 170 2412 0
-69 139 252 2413 0
-39 -207 289 2414 0
349 123 -62 2415 0
411 -427 -265 2416 0
41 -301 -145 2417 0
345 -75 -131 2418 0
139 -404 425 2419 0
61 -332 139 2420 0
-276 -71 -479 2421 0
-175 392 -376 2422 0
-146 -309 -302 2423 0
-298 371 28 2424 0
-472 317 -299 2425 0
287 -92 140 2426 0
-371 11 -329 2427 0
245 297 -323 2428 0
234 385 350 2429 0
428 -188 -281 2430 0
-147 -413 378 2431 0
469 386 427 2432 0
56 -291 -155 2433 0
401 146 -328 2434 0
-9 418 -51 2435 0
-254 -61 -316 2436 0
283 -427 159 2437 0
-418 434 183 2438 0
-285 393 51 2439 0
346 23 -439 2440 0
-52 79 319 2441 0
-365 -179 435 2442 0
-376 98 -280 2443 0
-483 104 -353 2444 0
286 -109 403 2445 0
454 -328 188 2446 0
-474 480 458 2447 0
223 454 166 2448 0
-152 -388 -101 2449 0
286 -462 -272 2450 0
-474 200 -311 2451 0
-24 -100 59 2452 0
-199 69 55 2453 0
51 -126 -403 2454 0
269 475 128 2455 0
206 -97 -120 2456 0
381 -117 303 2457 0
75 -36 166 2458 0
-470 -79 121 2459 0
-356 441 -421 2460 0
289 -113 82 2461 0
163 239 -171 2462 0
250 -236 36 2463 0
114 -304 -163 2464 0
-45 292 53 2465 0
356 199 -191 2466 0
384 316 215 2467 0
-492 111 142 2468 0
8 178 35 2469 0
-52 -329 248 2470 0
-83 320 71 2471 0
109 -359 279 2472 0
-485 356 -192 2473 0
452 184 -120 2474 0
482 437 -244 2475 0
-13 -394 63 2476 0
-35 81 -178 2477 0
-381 -159 496 2478 0
-464 163 61 2479 0
-300 374 -405 2480 0
-191 -240 489 2481 0
170 -348 -194 2482 0
-18 -364 317 2483 0
-343 -371 262 2484 0
-24 177 271 2485 0
482 117 -457 2486 0
-63 -24 -201 2487 0
-46 -99 -453 2488 0
479 -151 -280 2489 0
296 -192 150 2490 0
483 -191 447 2491 0
-391 212 -264 2492 0
-207 102 98 2493 0
106 -432 -492 2494 0
-177 231 462 2495 0
282 -224 167 2496 0
-44 -412 -427 2497 0
210 -476 224 2498 0
-434 -366 162 2499 0
-60 -38 31 2500 0
414 480 -16 2501 0
-80 267 192 2502 0
178 235 153 2503 0
-4 -159 439 2504 0
-328 -382 -377 2505 0
395 127 -287 2506 0
129 -368 -2 2507 0
419 231 255 2508 0
159 -169 391 2509 0
268 120 376 2510 0
130 -364 -382 2511 0
-499 -31 -390 2512 0
46 -448 454 2513 0
251 437 172 2514 0
403 221 -65 2515 0
138 -174 -299 2516 0
237 -441 -303 2517 0
468 -223 269 2518 0
453 116 -99 2519 0
-374 247 -220 2520 0
432 -258 117 2521 0
-88 -434 107 2522 0
-127 107 -240 2523 0
227 344 454 2524 0
200 -196 -98 2525 0
275 53 15 2526 0
-45 -488 -224 2527 0
406 147 297 2528 0
-359 -102 -305 2529 0
-449 -44 -496 2530 0
-327 312 -95 2531 0
-101 -297 49 2532 0
-328 -456 -465 2533 0
396 -165 37 2534 0
109 -235 427 2535 0
443 33 57 2536 0
-127 -12 56 2537 0
8 161 -367 2538 0
470 497 34 2539 0
-180 157 28 2540 0
-291 -214 -371 2541 0
180 -338 -250 2542 0
-460 -215 -499 2543 0
42 -98 187 2544 0
-186 139 400 2545 0
-72 163 117 2546 0
199 -74 -58 2547 0
-72 133 149 2548 0
-69 332 -251 2549 0
446 145 428 2550 0
-347 -144 216 2551 0
-261 -383 -476 2552 0
34 -156 111 2553 0
-182 373 355 2554 0
218 279 -232 2555 0
226 -298 421 2556 0
304 -76 27 2557 0
279 -418 440 2558 0
-410 162 -397 2559 0
134 -206 475 2560 0
-111 247 -451 2561 0
84 263 161 2562 0
441 -230 -149 2563 0
385 471 -290 2564 0
-75 117 -476 2565 0
311 264 -1 2566 0
462 -98 -359 2567 0
-168 383 370 2568 0
51 -427 -90 2569 0
381 24 426 2570 0
147 -394 463 2571 0
-98 433 -396 2572 0
-134 48 420 2573 0
38 -420 229 2574 0
247 -76 -364 2575 0
-109 -452 -210 2576 0
96 212 93 2577 0
409 87 423 2578 0
-335 -68 -498 2579 0
-14 -264 -363 2580 0
-83 -215 283 2581 0
473 -385 95 2582 0
303 352 241 2583 0
-247 -56 409 2584 0
-110 -65 -364 2585 0
288 25 463 2586 0
-117 -446 -357 2587 0
66 -129 117 2588 0
-65 -255 -351 2589 0
-391 223 147 2590 0
-164 93 -401 2591 0
-230 -121 -165 2592 0
141 -219 -473 2593 0
361 353 359 2594 0
-427 -259 -56 2595 0
38 150 221 2596 0
-251 -117 -370 2597 0
465 491 -103 2598 0
-428 338 139 2599 0
-382 -373 -265 2600 0
-76 220 137 2601 0
154 -469 352 2602 0
-381 -71 296 2603 0
-400 -415 -367 2604 0
279 120 -232 2605 0
-317 -439 -416 2606 0
289 386 414 2607 0
-191 387 -18 2608 0
224 300 171 2609 0
338 -132 -93 2610 0
-243 25 -12 2611 0
-324 271 -130 2612 0
-238 -181 282 2613 0
-475 -216 20 2614 0
-322 -432 -344 2615 0
18 -193 -281 2616 0
145 -52 441 2617 0
-54 114 -353 2618 0
-78 26 25 2619 0
-490 -399 -25 2620 0
370 455 -43 2621 0
27 -220 234 2622 0
114 290 -59 2623 0
362 45 215 2624 0
74 36 19 2625 0
-102 111 -248 2626 0
173 -429 276 2627 0
490 -241 -404 2628 0
-131 153 -463 2629 0
266 -157 -91 2630 0
388 -216 341 2631 0
-338 457 -375 2632 0
490 -118 151 2633 0
352 25 -59 2634 0
-257 113 66 2635 0
286 444 487 2636 0
35 225 -286 2637 0
235 162 402 2638 0
-385 276 -207 2639 0
189 290 208 2640 0
74 170 -66 2641 0
-388 -225 -38 2642 0
297 167 355 2643 0
173 304 -90 2644 0
-373 -153 310 2645 0
-476 -261 21 2646 0
-6 493 280 2647 0
-114 -221 -111 2648 0
214 -472 -287 2649 0
239 308 -363 2650 0
