p cnf 2650 2150
214 -5 -381 501 0
215 -233 299 502 0
76 461 379 503 0
-324 -415 -484 504 0
364 -37 -311 505 0
-108 -39 128 506 0
-428 -233 330 507 0
-195 -382 -362 508 0
-459 -74 267 509 0
-94 -403 267 510 0
268 314 -180 511 0
-381 -121 228 512 0
194 -396 -200 513 0
-127 29 -481 514 0
-162 36 -88 515 0
-110 -211 376 516 0
-118 223 -33 517 0
276 113 109 518 0
-124 -106 -233 519 0
-488 -383 -64 520 0
4 -156 -467 521 0
133 237 -239 522 0
85 175 -134 523 0
344 -4 -288 524 0
-77 -61 370 525 0
163 348 309 526 0
408 138 -370 527 0
325 251 -211 528 0
-258 404 378 529 0
-494 -303 -171 530 0
-345 -265 -208 531 0
-477 260 83 532 0
138 131 -344 533 0
29 -70 -460 534 0
-124 94 167 535 0
450 322 -268 536 0
-413 489 216 537 0
362 -14 148 538 0
-330 190 -137 539 0
366 481 -346 540 0
116 118 171 541 0
-88 -462 245 542 0
-325 -113 135 543 0
-440 -357 24 544 0
-498 90 -481 545 0
211 86 -16 546 0
263 300 -272 547 0
-180 281 -223 548 0
-223 99 -288 549 0
183 -379 -362 550 0
-285 87 148 551 0
454 360 444 552 0
-138 -88 -363 553 0
-390 231 -403 554 0
307 401 276 555 0
180 -214 382 556 0
-259 126 427 557 0
183 -221 -251 558 0
213 -175 246 559 0
-29 267 156 560 0
214 -495 18 561 0
452 30 -433 562 0
-321 -60 -463 563 0
-483 174 459 564 0
434 -344 -407 565 0
124 179 458 566 0
-48 -431 26 567 0
388 408 -218 568 0
100 -303 -386 569 0
468 54 -280 570 0
-227 132 198 571 0
-18 -67 -117 572 0
-309 209 433 573 0
-147 197 -104 574 0
-324 -395 16 575 0
-86 -387 -344 576 0
406 -402 -407 577 0
181 -237 -103 578 0
138 402 -323 579 0
-398 495 -172 580 0
459 -497 -204 581 0
365 -90 -450 582 0
-229 272 -119 583 0
387 393 -26 584 0
-331 -253 409 585 0
-172 328 85 586 0
220 180 218 587 0
-191 82 -123 588 0
282 -488 13 589 0
198 -60 -303 590 0
484 29 283 591 0
-183 -489 307 592 0
434 -180 -14 593 0
472 -389 129 594 0
161 500 409 595 0
-347 105 116 596 0
-355 -103 338 597 0
190 -207 -314 598 0
-34 -494 -162 599 0
498 -39 282 600 0
-409 -250 34 601 0
68 -58 410 602 0
-482 -297 -447 603 0
-63 -451 -246 604 0
-447 -5 311 605 0
-489 270 -62 606 0
-242 249 -141 607 0
191 -137 -280 608 0
172 46 435 609 0
-195 -74 -351 610 0
-148 -424 392 611 0
287 -210 411 612 0
19 -130 -143 613 0
439 -49 -162 614 0
123 239 176 615 0
216 47 498 616 0
-48 26 -46 617 0
-345 -155 137 618 0
135 269 328 619 0
276 -260 -103 620 0
212 -352 -89 621 0
-154 -314 -23 622 0
-296 -94 192 623 0
261 -23 22 624 0
-173 14 -346 625 0
-105 452 -371 626 0
-62 234 -384 627 0
-161 -462 -350 628 0
55 -276 187 629 0
264 -387 -426 630 0
437 -203 -135 631 0
-130 96 -433 632 0
-119 343 367 633 0
190 307 90 634 0
116 -470 319 635 0
55 69 49 636 0
-336 -163 204 637 0
-399 137 194 638 0
42 -147 -493 639 0
-133 -27 206 640 0
-185 -468 316 641 0
97 290 41 642 0
215 -320 448 643 0
-152 -120 -373 644 0
185 -275 122 645 0
445 119 -289 646 0
39 -263 74 647 0
417 -191 270 648 0
-187 -227 -58 649 0
-325 -169 479 650 0
-146 -142 257 651 0
-494 257 206 652 0
-414 93 363 653 0
500 130 27 654 0
-28 -409 -385 655 0
-16 320 131 656 0
67 128 -361 657 0
257 407 130 658 0
-456 -275 -367 659 0
242 -256 471 660 0
166 419 181 661 0
-8 342 -272 662 0
153 -179 -382 663 0
460 280 -334 664 0
-334 -36 -151 665 0
-441 -179 301 666 0
369 2 -174 667 0
-162 -491 -203 668 0
456 10 -177 669 0
444 -436 -498 670 0
39 467 63 671 0
166 222 -308 672 0
-396 -489 244 673 0
-45 379 310 674 0
71 429 118 675 0
351 -473 -392 676 0
272 -228 492 677 0
452 -266 -195 678 0
-303 168 131 679 0
384 21 -410 680 0
-475 -255 -443 681 0
302 354 -170 682 0
-232 -35 -258 683 0
310 441 -461 684 0
162 -244 348 685 0
-11 104 344 686 0
268 231 98 687 0
402 -205 227 688 0
476 -109 -227 689 0
442 155 -415 690 0
-284 205 -242 691 0
371 -227 203 692 0
-301 -499 363 693 0
428 61 198 694 0
431 -383 -43 695 0
-480 153 -336 696 0
474 -254 -142 697 0
-422 -214 370 698 0
-398 428 249 699 0
-274 -342 104 700 0
-328 449 -221 701 0
24 -105 85 702 0
431 457 317 703 0
-415 310 -16 704 0
393 187 -212 705 0
-421 -438 -207 706 0
498 381 178 707 0
204 182 -161 708 0
206 -136 371 709 0
235 -42 245 710 0
-489 372 271 711 0
-476 386 403 712 0
-219 -65 -116 713 0
370 -483 -132 714 0
-191 244 -211 715 0
-350 -154 68 716 0
224 41 -119 717 0
-22 -223 11 718 0
93 -253 -463 719 0
250 342 462 720 0
192 20 -484 721 0
-269 -36 -398 722 0
-97 93 -475 723 0
372 -159 25 724 0
-424 148 -360 725 0
385 93 164 726 0
-124 -224 -154 727 0
387 -144 -429 728 0
-121 -260 247 729 0
472 -297 -294 730 0
-242 463 301 731 0
-433 -187 472 732 0
-320 208 -437 733 0
443 -277 -282 734 0
-171 -276 -101 735 0
-36 297 353 736 0
157 -9 228 737 0
-75 107 -162 738 0
-59 489 -342 739 0
328 357 183 740 0
295 -195 -366 741 0
123 -333 5 742 0
-454 449 28 743 0
-38 -375 485 744 0
280 252 306 745 0
-458 -481 160 746 0
-320 109 -258 747 0
-258 140 275 748 0
496 -89 -320 749 0
315 -8 257 750 0
-63 373 197 751 0
-405 -421 -191 752 0
453 -205 241 753 0
21 -251 316 754 0
-331 386 -51 755 0
230 244 361 756 0
-251 -363 -308 757 0
-377 213 188 758 0
154 -300 3 759 0
95 -28 -73 760 0
88 -110 -336 761 0
474 -307 108 762 0
444 260 415 763 0
158 -293 -335 764 0
-281 -195 375 765 0
-14 104 -355 766 0
133 -415 -474 767 0
416 226 -342 768 0
69 20 133 769 0
260 -404 466 770 0
-297 -320 -340 771 0
463 108 -81 772 0
-358 -221 -101 773 0
92 123 39 774 0
170 261 196 775 0
-110 170 -405 776 0
73 -274 100 777 0
140 446 489 778 0
3 -376 24 779 0
210 304 -199 780 0
142 62 -140 781 0
-419 146 222 782 0
85 -360 -39 783 0
249 47 65 784 0
77 134 -355 785 0
-192 492 -61 786 0
-433 490 -66 787 0
209 500 303 788 0
-177 288 -497 789 0
307 438 -102 790 0
-130 211 -162 791 0
-355 224 -301 792 0
205 -376 -2 793 0
-270 -350 -242 794 0
-152 -250 -322 795 0
-418 298 242 796 0
-367 217 275 797 0
-239 -490 496 798 0
19 -400 130 799 0
438 -304 129 800 0
33 367 -160 801 0
-321 3 -213 802 0
-193 355 168 803 0
-9 359 -306 804 0
-217 -144 -322 805 0
357 -173 -432 806 0
-312 49 -296 807 0
418 153 -397 808 0
-399 -96 -22 809 0
301 -430 347 810 0
-473 82 395 811 0
208 -209 177 812 0
139 -389 144 813 0
-490 64 234 814 0
-369 360 -446 815 0
-214 496 -236 816 0
-305 114 38 817 0
-432 176 -4 818 0
-355 -464 362 819 0
-218 -430 -85 820 0
104 -228 326 821 0
-415 138 -79 822 0
-458 -12 479 823 0
80 -490 -31 824 0
-236 111 160 825 0
-334 365 206 826 0
-396 357 179 827 0
-7 -271 483 828 0
-7 -474 329 829 0
388 190 -198 830 0
369 343 -188 831 0
307 -180 -38 832 0
69 493 447 833 0
115 -472 385 834 0
294 -53 -109 835 0
-305 246 -129 836 0
111 59 -71 837 0
-150 490 307 838 0
406 387 329 839 0
-86 357 -174 840 0
189 259 -183 841 0
78 55 69 842 0
395 -365 -264 843 0
-243 312 -12 844 0
489 -454 457 845 0
297 78 -124 846 0
-410 341 -258 847 0
-195 -316 -288 848 0
129 -104 -177 849 0
-165 -233 86 850 0
-166 363 235 851 0
-234 313 -199 852 0
100 445 -368 853 0
-304 -466 -36 854 0
257 202 205 855 0
-158 361 379 856 0
96 362 -231 857 0
422 420 -202 858 0
449 -254 469 859 0
414 421 415 860 0
496 -216 -171 861 0
297 257 11 862 0
212 -108 27 863 0
-400 48 -87 864 0
7 364 52 865 0
463 384 27 866 0
441 -430 -146 867 0
-59 -112 286 868 0
49 490 -330 869 0
142 -39 182 870 0
-456 45 -61 871 0
-372 67 -395 872 0
14 170 -230 873 0
17 -387 237 874 0
-161 -390 193 875 0
423 -114 -212 876 0
359 288 -144 877 0
34 -468 -219 878 0
349 -428 -188 879 0
138 193 -124 880 0
-214 -61 -383 881 0
59 498 273 882 0
-24 -369 -196 883 0
-459 294 298 884 0
327 363 -499 885 0
-18 -157 -74 886 0
-211 51 -427 887 0
-212 431 -175 888 0
-344 -450 -357 889 0
417 -439 201 890 0
28 154 282 891 0
411 62 275 892 0
319 463 316 893 0
-343 -416 -288 894 0
80 -116 24 895 0
243 -22 405 896 0
184 353 331 897 0
70 -401 496 898 0
-324 -188 -429 899 0
284 120 -498 900 0
-103 -216 144 901 0
-365 265 -469 902 0
-244 -385 -109 903 0
-290 104 77 904 0
-221 -41 -193 905 0
465 -51 248 906 0
-333 67 410 907 0
466 -477 -494 908 0
265 -271 -276 909 0
369 489 114 910 0
-406 76 229 911 0
70 124 172 912 0
441 -133 207 913 0
-436 -310 257 914 0
404 -92 181 915 0
-218 24 220 916 0
-275 -11 -377 917 0
-42 280 -238 918 0
32 11 391 919 0
64 -327 146 920 0
-294 -15 -282 921 0
261 112 16 922 0
-219 370 129 923 0
-407 -294 -50 924 0
-222 -63 493 925 0
89 -291 74 926 0
238 -38 482 927 0
370 -187 98 928 0
157 -224 -161 929 0
-468 146 -485 930 0
64 44 173 931 0
497 -136 499 932 0
141 292 -127 933 0
-19 395 -166 934 0
-357 407 8 935 0
-387 46 127 936 0
40 317 440 937 0
55 224 -279 938 0
48 -161 -353 939 0
-283 -273 433 940 0
-480 44 -24 941 0
104 -317 -141 942 0
24 141 -105 943 0
-142 95 -18 944 0
-212 461 244 945 0
-348 271 181 946 0
-88 267 -24 947 0
-414 63 472 948 0
203 -39 481 949 0
478 -149 -66 950 0
56 -107 77 951 0
330 -259 -116 952 0
-452 170 -385 953 0
155 -424 387 954 0
-422 -463 -462 955 0
23 -238 -186 956 0
-374 -65 -4 957 0
209 -74 369 958 0
-8 -496 358 959 0
290 -433 91 960 0
-108 175 64 961 0
479 -78 -300 962 0
-284 319 204 963 0
32 263 -113 964 0
-236 230 -65 965 0
-375 294 312 966 0
-160 -238 -51 967 0
233 -86 -448 968 0
-478 421 -243 969 0
252 -431 58 970 0
290 57 -72 971 0
-61 -128 448 972 0
284 -6 225 973 0
-470 168 309 974 0
-231 -89 -141 975 0
-43 215 292 976 0
-302 281 -357 977 0
141 -464 228 978 0
-94 487 126 979 0
-123 -497 108 980 0
-468 -138 -396 981 0
148 205 -328 982 0
-362 -193 301 983 0
440 -384 -259 984 0
116 -9 404 985 0
446 -480 286 986 0
276 443 -162 987 0
-121 200 -205 988 0
182 113 -211 989 0
-23 208 284 990 0
-166 -393 347 991 0
356 -132 -119 992 0
327 258 -155 993 0
-253 -439 -435 994 0
-197 44 -386 995 0
-264 240 -210 996 0
-142 157 -89 997 0
216 483 -232 998 0
250 -106 -65 999 0
298 -276 281 1000 0
-439 16 291 1001 0
-338 214 -254 1002 0
464 349 -473 1003 0
194 -154 407 1004 0
160 45 101 1005 0
419 -200 387 1006 0
-20 229 37 1007 0
302 409 -140 1008 0
-43 -274 -141 1009 0
-76 48 -384 1010 0
412 -65 -135 1011 0
-58 67 -378 1012 0
331 129 161 1013 0
-491 453 -6 1014 0
181 -299 138 1015 0
-480 -45 -52 1016 0
-398 106 462 1017 0
-182 -135 240 1018 0
25 -296 170 1019 0
271 473 467 1020 0
-127 -95 -248 1021 0
-430 327 418 1022 0
-261 65 -19 1023 0
-98 -84 -258 1024 0
-168 -194 -111 1025 0
333 476 -207 1026 0
-202 -388 -365 1027 0
375 -243 155 1028 0
73 163 -390 1029 0
-195 -337 -427 1030 0
-46 256 117 1031 0
381 -53 -171 1032 0
-373 125 -365 1033 0
-475 -229 46 1034 0
165 281 481 1035 0
-426 -151 93 1036 0
204 393 -64 1037 0
22 -137 -301 1038 0
-144 443 117 1039 0
-291 -480 -332 1040 0
-344 77 236 1041 0
489 -328 -464 1042 0
439 -497 251 1043 0
477 98 491 1044 0
-153 321 -58 1045 0
-172 -495 87 1046 0
38 333 349 1047 0
-145 -192 -279 1048 0
33 360 412 1049 0
282 9 73 1050 0
241 313 17 1051 0
-251 147 -444 1052 0
-69 -11 -194 1053 0
462 -398 -485 1054 0
210 -364 -231 1055 0
195 -106 -96 1056 0
256 -420 275 1057 0
207 -370 -344 1058 0
178 34 -79 1059 0
-140 387 -166 1060 0
-466 126 -311 1061 0
79 41 -314 1062 0
434 -230 -301 1063 0
-435 192 253 1064 0
-462 72 -414 1065 0
-155 196 187 1066 0
-223 176 78 1067 0
-302 -305 379 1068 0
202 -458 -385 1069 0
397 -400 113 1070 0
431 -494 292 1071 0
309 -234 -414 1072 0
10 391 469 1073 0
187 305 156 1074 0
381 3 243 1075 0
-176 -331 13 1076 0
275 -35 300 1077 0
337 344 -69 1078 0
115 -428 30 1079 0
-476 293 486 1080 0
325 139 -232 1081 0
243 -232 -394 1082 0
7 489 94 1083 0
441 106 337 1084 0
364 -323 213 1085 0
458 -301 -302 1086 0
-207 -124 176 1087 0
-377 62 -294 1088 0
30 329 286 1089 0
-321 202 -389 1090 0
-171 117 361 1091 0
-425 458 371 1092 0
-487 383 360 1093 0
349 212 427 1094 0
-303 -231 207 1095 0
-104 -330 -225 1096 0
347 -419 -78 1097 0
409 -52 -241 1098 0
-473 -34 -486 1099 0
362 198 9 1100 0
-260 156 -250 1101 0
-400 157 261 1102 0
-326 203 -294 1103 0
-54 353 38 1104 0
154 113 466 1105 0
441 -301 -159 1106 0
404 -355 -115 1107 0
-345 356 -120 1108 0
120 -49 -372 1109 0
-449 -174 22 1110 0
-95 388 -389 1111 0
-420 258 345 1112 0
21 -65 204 1113 0
-138 211 164 1114 0
8 -427 419 1115 0
-235 249 109 1116 0
150 437 -314 1117 0
-367 38 15 1118 0
-456 256 231 1119 0
-165 -455 40 1120 0
-116 141 -381 1121 0
-342 -310 80 1122 0
-201 -235 -254 1123 0
-74 421 336 1124 0
-381 -66 249 1125 0
-229 -27 53 1126 0
200 -131 -75 1127 0
-23 221 -145 1128 0
149 148 203 1129 0
363 264 448 1130 0
167 -36 42 1131 0
-492 450 130 1132 0
475 -479 311 1133 0
26 -256 344 1134 0
-112 -172 -1 1135 0
230 363 -326 1136 0
-329 137 337 1137 0
-60 253 42 1138 0
298 141 -203 1139 0
101 -302 -495 1140 0
-404 193 81 1141 0
-298 67 -276 1142 0
-381 157 -234 1143 0
-23 473 32 1144 0
-455 169 -378 1145 0
-383 62 -178 1146 0
467 -236 266 1147 0
386 -32 20 1148 0
-36 -446 -416 1149 0
145 -459 490 1150 0
238 17 -74 1151 0
-110 457 -446 1152 0
-325 -260 -284 1153 0
-188 72 120 1154 0
139 268 102 1155 0
-325 -199 230 1156 0
243 421 439 1157 0
381 352 -252 1158 0
-260 84 -35 1159 0
405 430 -119 1160 0
-264 38 370 1161 0
2 -354 -12 1162 0
-86 -257 153 1163 0
-349 235 88 1164 0
227 440 -422 1165 0
-34 289 -422 1166 0
172 -435 -231 1167 0
274 -321 -397 1168 0
-131 273 -484 1169 0
154 -303 -114 1170 0
-145 320 442 1171 0
161 18 -253 1172 0
-240 -211 202 1173 0
-296 -270 -255 1174 0
-111 160 380 1175 0
-492 253 208 1176 0
140 -201 302 1177 0
-3 -352 -246 1178 0
-88 -367 -466 1179 0
-225 -405 -406 1180 0
-467 453 138 1181 0
-222 -325 -203 1182 0
322 315 486 1183 0
128 -206 -47 1184 0
295 -461 -103 1185 0
369 325 -244 1186 0
101 -404 -354 1187 0
401 -131 429 1188 0
304 -341 -368 1189 0
-415 296 195 1190 0
-170 11 -337 1191 0
134 194 94 1192 0
-110 340 -298 1193 0
-342 -287 -48 1194 0
-160 -242 371 1195 0
-451 344 -108 1196 0
-483 317 -67 1197 0
-227 298 133 1198 0
266 -179 296 1199 0
-495 -313 -448 1200 0
-4 268 492 1201 0
-465 100 -418 1202 0
-366 430 -298 1203 0
-167 -140 -352 1204 0
-425 -374 201 1205 0
-411 -48 226 1206 0
87 -260 368 1207 0
413 -467 94 1208 0
204 397 44 1209 0
224 -180 -313 1210 0
369 430 -119 1211 0
-134 140 -106 1212 0
476 -236 425 1213 0
-341 -276 320 1214 0
70 217 344 1215 0
-129 165 -390 1216 0
-461 -328 -5 1217 0
-144 465 -61 1218 0
-13 466 -208 1219 0
269 153 -209 1220 0
464 -129 341 1221 0
-442 -263 -225 1222 0
-56 1 432 1223 0
221 -372 -462 1224 0
65 291 335 1225 0
266 -227 273 1226 0
-72 -366 -63 1227 0
446 -471 -330 1228 0
77 176 -375 1229 0
-215 213 474 1230 0
335 -277 -188 1231 0
249 106 83 1232 0
-422 -205 95 1233 0
216 -333 -406 1234 0
426 -165 -42 1235 0
380 163 237 1236 0
-126 296 65 1237 0
28 80 -181 1238 0
202 -197 -51 1239 0
432 167 -388 1240 0
-203 -79 -134 1241 0
459 -218 -2 1242 0
248 -207 -296 1243 0
-155 -82 -417 1244 0
-351 288 -179 1245 0
121 -89 -90 1246 0
487 -157 -104 1247 0
143 135 196 1248 0
388 25 -463 1249 0
266 -187 169 1250 0
-465 -419 -325 1251 0
105 -257 -292 1252 0
45 127 68 1253 0
-31 -295 -180 1254 0
-484 -355 -305 1255 0
-392 -36 59 1256 0
-58 -437 -216 1257 0
-31 -220 497 1258 0
185 245 444 1259 0
229 -108 -67 1260 0
472 317 12 1261 0
-52 -300 476 1262 0
-487 -251 -230 1263 0
-264 -311 -275 1264 0
-275 -379 465 1265 0
308 80 -401 1266 0
412 -238 467 1267 0
-319 55 -332 1268 0
116 -279 251 1269 0
-278 -205 -154 1270 0
208 -483 460 1271 0
197 401 139 1272 0
-178 -96 -454 1273 0
-309 16 259 1274 0
-70 204 206 1275 0
32 -411 239 1276 0
348 406 190 1277 0
-34 -157 175 1278 0
-461 256 -433 1279 0
161 482 339 1280 0
-57 489 -420 1281 0
-368 -391 184 1282 0
-40 -4 63 1283 0
-142 332 -47 1284 0
270 -201 -283 1285 0
-245 -177 172 1286 0
460 -191 -1 1287 0
430 63 -306 1288 0
172 108 -490 1289 0
-396 -409 -243 1290 0
-188 347 344 1291 0
466 318 417 1292 0
-118 -101 -228 1293 0
489 72 -291 1294 0
278 409 202 1295 0
210 -152 -118 1296 0
-333 152 -165 1297 0
284 -203 -182 1298 0
374 -170 -359 1299 0
-75 -57 -49 1300 0
282 -220 -397 1301 0
419 449 -251 1302 0
430 -288 447 1303 0
-181 306 54 1304 0
68 -194 -62 1305 0
-362 -216 -164 1306 0
-166 -53 228 1307 0
438 -332 127 1308 0
369 -178 237 1309 0
45 -225 -121 1310 0
-69 136 321 1311 0
363 425 -421 1312 0
119 130 234 1313 0
186 -93 129 1314 0
419 -194 472 1315 0
-199 -85 -442 1316 0
402 159 437 1317 0
-432 -411 483 1318 0
-211 470 264 1319 0
80 -116 -473 1320 0
353 226 119 1321 0
-361 -468 -197 1322 0
-41 -43 -199 1323 0
-187 -139 324 1324 0
466 410 -488 1325 0
-430 214 -11 1326 0
-392 -376 417 1327 0
363 -495 -387 1328 0
474 -102 294 1329 0
435 -155 -270 1330 0
79 171 235 1331 0
284 -453 -495 1332 0
-302 -329 374 1333 0
-106 228 -87 1334 0
73 407 -153 1335 0
316 62 307 1336 0
-221 -398 -169 1337 0
271 248 -278 1338 0
27 180 265 1339 0
-68 -118 -326 1340 0
27 237 -92 1341 0
-197 359 -113 1342 0
-8 -282 -465 1343 0
270 -180 -416 1344 0
-346 -344 -32 1345 0
-39 -296 390 1346 0
453 364 -239 1347 0
322 -257 285 1348 0
-161 88 499 1349 0
277 464 -444 1350 0
-37 -144 387 1351 0
157 209 -45 1352 0
-479 319 -312 1353 0
-314 -230 151 1354 0
-6 126 -141 1355 0
-193 411 -431 1356 0
86 -351 -103 1357 0
99 199 91 1358 0
-359 433 -357 1359 0
37 164 75 1360 0
386 -229 380 1361 0
31 246 416 1362 0
372 315 -430 1363 0
-433 306 -13 1364 0
-257 -316 102 1365 0
-69 141 429 1366 0
123 -499 463 1367 0
183 -443 -467 1368 0
-86 -121 493 1369 0
182 26 358 1370 0
-222 282 9 1371 0
243 156 215 1372 0
-455 41 -195 1373 0
-239 403 419 1374 0
-489 -97 192 1375 0
-339 -50 -260 1376 0
-379 418 67 1377 0
5 -350 18 1378 0
-471 -12 -239 1379 0
383 -32 -121 1380 0
180 -214 457 1381 0
254 404 112 1382 0
-268 381 -123 1383 0
328 -209 236 1384 0
124 -161 290 1385 0
178 -277 181 1386 0
149 177 -164 1387 0
106 271 171 1388 0
-473 -152 -304 1389 0
-303 -341 -208 1390 0
231 -392 42 1391 0
284 -395 -416 1392 0
178 -415 209 1393 0
234 470 334 1394 0
-444 -423 -313 1395 0
-441 -293 486 1396 0
416 411 211 1397 0
-348 472 444 1398 0
-440 361 207 1399 0
114 -77 42 1400 0
-310 -258 -270 1401 0
-145 -296 181 1402 0
-403 -189 99 1403 0
-137 -220 -472 1404 0
-107 413 304 1405 0
85 51 263 1406 0
413 -483 -254 1407 0
-191 -390 347 1408 0
475 89 416 1409 0
-478 449 -132 1410 0
-241 34 244 1411 0
-437 298 184 1412 0
44 230 494 1413 0
422 145 -311 1414 0
-327 86 354 1415 0
-332 286 395 1416 0
-108 168 64 1417 0
-350 -179 -135 1418 0
85 405 307 1419 0
-25 -74 -320 1420 0
-351 456 -179 1421 0
455 -191 -487 1422 0
-274 203 -488 1423 0
186 488 27 1424 0
-14 140 -19 1425 0
448 -140 150 1426 0
-137 295 -253 1427 0
305 479 28 1428 0
-382 176 -245 1429 0
289 164 -235 1430 0
142 468 -380 1431 0
428 56 92 1432 0
268 -332 -115 1433 0
153 421 -197 1434 0
-54 -278 387 1435 0
458 365 325 1436 0
39 287 91 1437 0
-467 -83 -297 1438 0
-276 250 117 1439 0
-327 -267 -395 1440 0
390 342 -472 1441 0
250 436 344 1442 0
45 438 396 1443 0
-445 -102 218 1444 0
-350 -203 405 1445 0
-443 86 -424 1446 0
-464 -353 -153 1447 0
-249 -148 37 1448 0
-54 338 234 1449 0
467 -270 218 1450 0
-70 246 164 1451 0
-224 -384 -298 1452 0
1 388 -216 1453 0
-64 208 24 1454 0
-8 -406 -242 1455 0
-357 342 257 1456 0
-488 -52 -409 1457 0
134 245 -105 1458 0
-270 152 29 1459 0
-295 284 -345 1460 0
-194 330 -497 1461 0
-429 -407 -10 1462 0
66 -144 -425 1463 0
300 55 323 1464 0
242 -100 -170 1465 0
-53 -367 307 1466 0
-324 384 -310 1467 0
-179 -237 -127 1468 0
463 -282 84 1469 0
-238 108 -104 1470 0
486 -14 -85 1471 0
-27 21 368 1472 0
-97 245 -384 1473 0
-459 -122 467 1474 0
-439 -57 152 1475 0
164 -432 294 1476 0
295 -120 105 1477 0
286 -432 440 1478 0
-74 -199 187 1479 0
-81 -456 -250 1480 0
223 432 438 1481 0
132 -229 172 1482 0
458 -200 -22 1483 0
413 -108 56 1484 0
-313 157 -480 1485 0
165 336 456 1486 0
495 485 457 1487 0
-136 431 -49 1488 0
-418 422 494 1489 0
124 -395 -12 1490 0
26 423 216 1491 0
458 -91 -495 1492 0
-245 326 488 1493 0
215 47 -379 1494 0
222 -133 -334 1495 0
-416 -421 445 1496 0
-451 -303 280 1497 0
223 413 -81 1498 0
115 -103 306 1499 0
437 328 196 1500 0
-495 141 -327 1501 0
-443 386 136 1502 0
323 -376 94 1503 0
279 35 -387 1504 0
335 -253 -418 1505 0
-386 203 290 1506 0
-293 -304 -340 1507 0
-25 354 -6 1508 0
-328 466 -65 1509 0
-169 208 75 1510 0
355 1 95 1511 0
-333 24 325 1512 0
-480 110 -283 1513 0
-110 -226 -377 1514 0
151 81 -277 1515 0
-193 325 -74 1516 0
-488 -377 -8 1517 0
-160 318 105 1518 0
116 236 226 1519 0
-424 55 -327 1520 0
482 -232 -15 1521 0
-431 -79 290 1522 0
-133 -470 -65 1523 0
150 135 -182 1524 0
-185 -387 -355 1525 0
-416 57 -279 1526 0
-85 27 121 1527 0
-30 -145 31 1528 0
72 -76 139 1529 0
453 -80 -114 1530 0
79 -472 245 1531 0
-188 -461 -246 1532 0
71 6 166 1533 0
484 374 -52 1534 0
72 -58 -419 1535 0
145 23 -186 1536 0
-482 -460 404 1537 0
-233 388 -237 1538 0
-186 -311 -419 1539 0
-303 411 17 1540 0
-449 283 -11 1541 0
-444 129 -408 1542 0
-498 -117 143 1543 0
-13 -150 -233 1544 0
-500 -418 -65 1545 0
288 363 234 1546 0
-208 446 -38 1547 0
-161 186 184 1548 0
-421 -160 2 1549 0
246 436 -318 1550 0
412 34 -176 1551 0
27 329 134 1552 0
455 -492 -448 1553 0
326 -139 -276 1554 0
-316 -75 358 1555 0
-381 -163 443 1556 0
134 480 253 1557 0
-4 -40 -479 1558 0
225 234 -44 1559 0
-147 100 -472 1560 0
177 107 131 1561 0
150 316 -161 1562 0
97 242 -279 1563 0
-132 -53 353 1564 0
-311 411 102 1565 0
-390 284 -190 1566 0
96 -274 282 1567 0
405 -489 -418 1568 0
-247 108 115 1569 0
-69 -314 197 1570 0
475 143 -396 1571 0
233 268 458 1572 0
204 -262 130 1573 0
322 -165 -371 1574 0
241 390 268 1575 0
-111 290 -91 1576 0
-385 312 57 1577 0
-98 -284 -24 1578 0
63 1 -195 1579 0
-128 -409 238 1580 0
-159 234 -199 1581 0
-230 -240 78 1582 0
-36 -87 -330 1583 0
-271 27 433 1584 0
-174 363 -214 1585 0
-500 -20 286 1586 0
-495 -7 492 1587 0
-277 -393 20 1588 0
137 435 -238 1589 0
179 -454 473 1590 0
-267 305 -83 1591 0
-312 -421 434 1592 0
-156 168 480 1593 0
-211 -436 -62 1594 0
392 -477 -100 1595 0
-43 260 270 1596 0
425 -315 293 1597 0
443 451 255 1598 0
97 -399 407 1599 0
-446 -388 467 1600 0
366 -190 309 1601 0
-66 -243 453 1602 0
270 -178 -157 1603 0
-443 417 -380 1604 0
-107 268 -389 1605 0
-472 397 194 1606 0
410 -181 52 1607 0
-355 292 -183 1608 0
-197 -128 -53 1609 0
182 -42 423 1610 0
-317 416 436 1611 0
310 94 46 1612 0
1 -415 33 1613 0
316 -256 84 1614 0
-352 -40 -412 1615 0
196 -466 311 1616 0
-497 262 443 1617 0
433 447 463 1618 0
442 -131 -450 1619 0
-82 121 -398 1620 0
-181 277 21 1621 0
-103 342 -382 1622 0
-468 182 264 1623 0
472 -292 106 1624 0
-176 -449 -87 1625 0
-140 295 -402 1626 0
-423 179 -59 1627 0
171 -211 -219 1628 0
-153 373 -241 1629 0
332 -14 267 1630 0
318 134 123 1631 0
185 278 -29 1632 0
-364 57 -421 1633 0
427 134 327 1634 0
-287 -71 -168 1635 0
-42 236 -313 1636 0
-131 -467 107 1637 0
-451 -395 423 1638 0
-404 420 370 1639 0
204 178 -57 1640 0
-146 -496 411 1641 0
83 -73 -44 1642 0
-226 -114 -476 1643 0
-467 -203 202 1644 0
302 -162 -280 1645 0
249 -235 -363 1646 0
-53 -450 -451 1647 0
-318 187 374 1648 0
-81 185 -404 1649 0
291 166 117 1650 0
-118 -446 -300 1651 0
349 237 189 1652 0
119 400 16 1653 0
-174 379 292 1654 0
118 -226 -98 1655 0
-51 275 465 1656 0
-218 492 436 1657 0
-472 259 -27 1658 0
408 301 208 1659 0
-308 -419 -32 1660 0
-272 -458 -18 1661 0
264 -93 81 1662 0
460 -296 362 1663 0
-325 -284 -298 1664 0
-350 35 -378 1665 0
287 16 44 1666 0
128 -268 375 1667 0
-307 -418 -273 1668 0
397 6 -339 1669 0
-153 181 -404 1670 0
25 -157 158 1671 0
303 207 31 1672 0
-498 -406 42 1673 0
63 33 -455 1674 0
-488 15 339 1675 0
-458 -268 -3 1676 0
-196 37 291 1677 0
298 -331 472 1678 0
337 113 210 1679 0
246 380 -42 1680 0
-203 469 206 1681 0
66 -254 -10 1682 0
252 180 -395 1683 0
-402 -137 165 1684 0
372 -270 -337 1685 0
-62 -352 60 1686 0
216 198 100 1687 0
-399 -39 -204 1688 0
148 75 -182 1689 0
281 -428 -352 1690 0
-339 -235 -493 1691 0
-135 -236 352 1692 0
427 -129 -381 1693 0
-115 -38 -246 1694 0
32 372 334 1695 0
-33 -45 470 1696 0
-393 129 270 1697 0
-196 244 31 1698 0
182 -433 -480 1699 0
179 -186 -239 1700 0
469 86 196 1701 0
-429 83 -459 1702 0
-83 -473 144 1703 0
432 -487 -79 1704 0
-400 -332 123 1705 0
-26 -55 -124 1706 0
-256 2 -211 1707 0
415 17 -66 1708 0
-457 -326 -163 1709 0
-88 50 -429 1710 0
457 -135 463 1711 0
237 -45 168 1712 0
-363 -495 -434 1713 0
328 160 -10 1714 0
69 -58 206 1715 0
59 197 30 1716 0
-139 -48 -144 1717 0
-98 430 402 1718 0
-1 246 -284 1719 0
-257 244 -100 1720 0
468 227 -221 1721 0
-76 -318 -208 1722 0
-112 -478 -140 1723 0
-150 -67 466 1724 0
405 171 109 1725 0
-281 388 316 1726 0
498 234 -483 1727 0
-195 88 -15 1728 0
-72 -106 -357 1729 0
273 -456 -201 1730 0
-55 -326 461 1731 0
-63 268 48 1732 0
-352 -250 333 1733 0
159 -318 472 1734 0
343 444 413 1735 0
326 25 373 1736 0
69 -285 111 1737 0
-96 -399 22 1738 0
-274 -158 143 1739 0
-53 -307 482 1740 0
80 301 383 1741 0
-173 112 -399 1742 0
49 -237 203 1743 0
18 -147 -143 1744 0
322 293 -122 1745 0
205 410 -412 1746 0
339 -304 137 1747 0
204 -489 -370 1748 0
-279 -120 267 1749 0
13 -19 -104 1750 0
-408 391 -384 1751 0
-456 -423 -214 1752 0
353 423 218 1753 0
-240 -483 107 1754 0
223 -390 233 1755 0
-273 48 341 1756 0
-265 -495 260 1757 0
388 64 174 1758 0
22 402 359 1759 0
-339 -48 -456 1760 0
429 -189 -218 1761 0
-463 24 182 1762 0
261 258 -97 1763 0
310 48 -426 1764 0
-102 487 -427 1765 0
115 -196 383 1766 0
474 454 -258 1767 0
-71 483 -243 1768 0
351 440 165 1769 0
175 -3 362 1770 0
-152 -467 -144 1771 0
-312 288 327 1772 0
264 369 319 1773 0
304 -164 -328 1774 0
411 244 355 1775 0
473 -426 253 1776 0
238 -233 441 1777 0
344 -107 -315 1778 0
333 -352 -25 1779 0
-345 475 151 1780 0
-199 339 44 1781 0
-149 55 -474 1782 0
398 245 -413 1783 0
-148 427 82 1784 0
-201 -91 89 1785 0
372 378 -87 1786 0
-301 -428 -484 1787 0
104 354 286 1788 0
368 281 315 1789 0
424 -67 78 1790 0
-472 90 161 1791 0
4 368 393 1792 0
-271 1 85 1793 0
-451 -460 -419 1794 0
-27 67 153 1795 0
154 -394 243 1796 0
-245 -206 455 1797 0
114 -106 107 1798 0
407 145 -460 1799 0
212 372 113 1800 0
-168 -486 -210 1801 0
40 -14 -276 1802 0
-212 -147 21 1803 0
217 -458 342 1804 0
414 24 -499 1805 0
-495 -202 -375 1806 0
474 -417 -89 1807 0
363 -213 -448 1808 0
237 -305 44 1809 0
275 282 -121 1810 0
100 -119 310 1811 0
463 282 82 1812 0
-126 -76 260 1813 0
418 351 -179 1814 0
138 22 -144 1815 0
-345 -380 -397 1816 0
-292 463 322 1817 0
-132 422 -243 1818 0
393 391 -312 1819 0
246 -290 -435 1820 0
-183 -45 -416 1821 0
-71 347 389 1822 0
-131 -114 -194 1823 0
-331 -337 200 1824 0
-423 433 -128 1825 0
428 -426 -490 1826 0
304 374 -411 1827 0
258 237 -498 1828 0
219 -272 112 1829 0
160 471 438 1830 0
19 157 -215 1831 0
458 428 -244 1832 0
-252 -464 88 1833 0
-484 315 -447 1834 0
2 -87 -326 1835 0
324 -391 80 1836 0
-89 104 -278 1837 0
-412 -187 -183 1838 0
-124 -267 233 1839 0
184 261 32 1840 0
-449 70 -467 1841 0
-477 49 -178 1842 0
-327 246 111 1843 0
446 -405 208 1844 0
-303 17 373 1845 0
-424 -221 -89 1846 0
234 -86 -307 1847 0
329 456 -246 1848 0
-256 -455 -176 1849 0
-162 351 -166 1850 0
405 113 -339 1851 0
-386 245 -282 1852 0
174 168 225 1853 0
294 -260 -468 1854 0
259 -328 -486 1855 0
-315 -251 -377 1856 0
465 187 -155 1857 0
-276 182 86 1858 0
455 -75 -465 1859 0
-87 286 378 1860 0
118 -432 -452 1861 0
248 -240 32 1862 0
-266 331 242 1863 0
-332 -477 -176 1864 0
-275 -426 158 1865 0
49 465 -186 1866 0
35 337 371 1867 0
-28 295 191 1868 0
483 -350 -55 1869 0
45 -497 -324 1870 0
367 -364 270 1871 0
326 360 170 1872 0
249 218 244 1873 0
208 176 -407 1874 0
480 468 386 1875 0
-438 99 -204 1876 0
-463 381 -126 1877 0
-496 498 58 1878 0
-338 417 205 1879 0
-249 -456 -403 1880 0
-392 222 290 1881 0
-186 -466 249 1882 0
-219 -103 -321 1883 0
-366 11 -194 1884 0
-391 314 -250 1885 0
216 327 466 1886 0
29 98 -179 1887 0
420 371 -198 1888 0
-354 -297 12 1889 0
202 145 -175 1890 0
137 -322 -304 1891 0
220 -443 -4 1892 0
-312 199 70 1893 0
-333 -455 -404 1894 0
424 439 242 1895 0
117 -483 -405 1896 0
156 -92 237 1897 0
393 -325 -491 1898 0
-310 374 224 1899 0
207 342 418 1900 0
-89 476 68 1901 0
-300 -470 -24 1902 0
-140 312 420 1903 0
-257 382 78 1904 0
82 -318 -72 1905 0
424 366 163 1906 0
-336 -75 -461 1907 0
-49 -311 63 1908 0
344 129 242 1909 0
433 323 197 1910 0
-267 431 -146 1911 0
76 -432 -433 1912 0
-478 385 -486 1913 0
-273 -175 228 1914 0
399 -33 297 1915 0
-157 212 208 1916 0
128 -16 470 1917 0
400 -292 -84 1918 0
-361 158 398 1919 0
-42 400 -142 1920 0
433 -350 118 1921 0
-250 329 43 1922 0
-308 83 362 1923 0
-10 -55 306 1924 0
418 90 -496 1925 0
-236 200 -241 1926 0
-43 -24 168 1927 0
153 -399 244 1928 0
99 -300 129 1929 0
202 419 -499 1930 0
414 -83 465 1931 0
474 -9 -400 1932 0
-427 489 143 1933 0
154 -298 264 1934 0
-76 -388 106 1935 0
95 -50 106 1936 0
342 -391 392 1937 0
-213 238 3 1938 0
62 -156 33 1939 0
172 -160 -125 1940 0
-478 250 -114 1941 0
134 -113 -14 1942 0
8 460 123 1943 0
238 285 -8 1944 0
-193 -401 -341 1945 0
-366 264 395 1946 0
-206 208 -181 1947 0
464 -25 -268 1948 0
-159 429 -445 1949 0
-416 -481 -337 1950 0
-398 422 350 1951 0
-147 92 116 1952 0
-408 -450 -434 1953 0
296 334 479 1954 0
25 -326 268 1955 0
301 -203 244 1956 0
107 -51 369 1957 0
346 -123 -269 1958 0
-244 467 48 1959 0
-386 354 450 1960 0
-155 -142 -364 1961 0
492 462 440 1962 0
279 266 -430 1963 0
90 -342 -137 1964 0
-383 256 -131 1965 0
17 -465 -274 1966 0
-152 350 -442 1967 0
-54 407 -142 1968 0
-284 -130 102 1969 0
-26 393 347 1970 0
-153 418 360 1971 0
-396 65 -131 1972 0
-237 -127 411 1973 0
95 -441 -146 1974 0
-409 399 466 1975 0
132 -266 231 1976 0
26 412 -66 1977 0
444 192 -249 1978 0
103 -471 268 1979 0
-48 -72 374 1980 0
426 -56 306 1981 0
427 -120 324 1982 0
371 136 449 1983 0
400 17 -440 1984 0
197 51 471 1985 0
-207 261 -149 1986 0
135 209 -372 1987 0
432 -40 -83 1988 0
-483 -497 -420 1989 0
282 112 -122 1990 0
63 -98 -411 1991 0
280 399 287 1992 0
-491 131 -388 1993 0
-93 -116 483 1994 0
479 -193 -345 1995 0
291 -128 -161 1996 0
-132 350 -458 1997 0
-221 -28 374 1998 0
-137 -439 -269 1999 0
394 -391 -331 2000 0
-98 -397 122 2001 0
-86 348 56 2002 0
391 -472 -33 2003 0
225 -243 -157 2004 0
-260 -274 478 2005 0
245 310 -491 2006 0
199 -235 -134 2007 0
265 -431 485 2008 0
-175 227 73 2009 0
150 189 29 2010 0
-232 -184 -389 2011 0
-278 41 -305 2012 0
194 205 -23 2013 0
403 63 394 2014 0
-463 42 -388 2015 0
-454 87 382 2016 0
257 -364 500 2017 0
-442 421 133 2018 0
-218 417 378 2019 0
-333 -133 -421 2020 0
256 -214 132 2021 0
-7 100 359 2022 0
-123 341 -440 2023 0
-491 269 456 2024 0
182 -212 195 2025 0
-16 -19 -303 2026 0
-412 349 -462 2027 0
-234 75 480 2028 0
-380 116 31 2029 0
180 -19 197 2030 0
17 291 458 2031 0
198 218 166 2032 0
233 235 227 2033 0
-120 354 435 2034 0
-79 -393 -126 2035 0
246 -169 459 2036 0
286 -453 -350 2037 0
-377 -47 -289 2038 0
-160 -396 -373 2039 0
-124 -305 -152 2040 0
349 131 230 2041 0
-84 -149 352 2042 0
184 476 191 2043 0
-456 457 -238 2044 0
309 70 -162 2045 0
-104 500 466 2046 0
298 288 453 2047 0
135 -434 -320 2048 0
445 434 -278 2049 0
-428 242 -414 2050 0
445 312 462 2051 0
282 159 -27 2052 0
319 174 -28 2053 0
107 407 -352 2054 0
168 -45 -94 2055 0
28 -321 200 2056 0
-484 -2 -352 2057 0
-317 435 115 2058 0
-271 -25 401 2059 0
375 34 362 2060 0
-122 -310 406 2061 0
388 431 -95 2062 0
-106 127 61 2063 0
351 -385 -487 2064 0
-138 125 212 2065 0
382 -408 -492 2066 0
422 -121 13 2067 0
404 220 49 2068 0
62 -442 244 2069 0
4 -498 -168 2070 0
125 -15 39 2071 0
323 270 383 2072 0
-400 -172 -133 2073 0
-439 -180 -316 2074 0
-147 -409 -23 2075 0
-310 417 42 2076 0
-358 60 106 2077 0
108 -240 484 2078 0
425 -164 456 2079 0
321 -273 171 2080 0
179 368 46 2081 0
-230 243 256 2082 0
-58 263 -201 2083 0
-359 -108 -282 2084 0
-23 420 -156 2085 0
106 119 -160 2086 0
496 292 358 2087 0
-144 239 -171 2088 0
-4 -249 2 2089 0
46 421 -484 2090 0
344 13 -432 2091 0
430 -365 -117 2092 0
-264 106 -33 2093 0
45 287 461 2094 0
289 286 -266 2095 0
-223 -3 -143 2096 0
402 447 83 2097 0
-274 350 -421 2098 0
-43 -385 48 2099 0
-394 -220 -361 2100 0
15 -145 -441 2101 0
-82 156 -215 2102 0
492 370 198 2103 0
-108 -352 -188 2104 0
42 -464 -463 2105 0
295 193 91 2106 0
-254 -63 444 2107 0
-95 -249 -152 2108 0
-472 440 390 2109 0
51 -57 -284 2110 0
-272 -210 65 2111 0
-446 -321 136 2112 0
-66 -62 -108 2113 0
377 -375 -328 2114 0
478 -135 -262 2115 0
354 -485 134 2116 0
359 283 -51 2117 0
-311 430 -356 2118 0
307 19 -326 2119 0
-346 15 394 2120 0
70 160 -390 2121 0
-127 -100 -348 2122 0
444 306 88 2123 0
-171 23 -201 2124 0
302 234 107 2125 0
-80 219 -137 2126 0
-451 -394 -464 2127 0
-336 200 -328 2128 0
-466 8 96 2129 0
146 317 -254 2130 0
-140 49 -94 2131 0
167 -62 -153 2132 0
-94 -324 337 2133 0
296 172 -196 2134 0
-306 -102 340 2135 0
-169 384 -353 2136 0
-489 417 -90 2137 0
-359 229 -109 2138 0
-112 -127 339 2139 0
-132 -242 -172 2140 0
-19 -58 199 2141 0
-144 259 -326 2142 0
96 252 140 2143 0
26 64 -74 2144 0
227 -309 -295 2145 0
-228 302 455 2146 0
67 -144 478 2147 0
430 474 308 2148 0
116 496 142 2149 0
256 -469 -369 2150 0
70 252 -256 2151 0
489 -29 170 2152 0
91 145 207 2153 0
-7 136 -353 2154 0
-151 -45 8 2155 0
40 -340 -192 2156 0
-120 -66 -425 2157 0
300 -152 6 2158 0
316 193 -309 2159 0
-96 151 424 2160 0
9 57 -328 2161 0
355 284 428 2162 0
-446 82 -139 2163 0
-257 44 118 2164 0
-479 409 343 2165 0
317 -336 46 2166 0
419 -261 -54 2167 0
-485 384 -131 2168 0
-173 460 -403 2169 0
36 260 262 2170 0
459 -167 -32 2171 0
420 -262 -205 2172 0
-287 -205 -150 2173 0
-430 -454 160 2174 0
-57 -464 -246 2175 0
381 -112 50 2176 0
-12 54 56 2177 0
336 238 495 2178 0
-443 53 -329 2179 0
-112 -354 -50 2180 0
-498 -180 -26 2181 0
-358 276 493 2182 0
-3 -300 -197 2183 0
332 -18 458 2184 0
115 -449 -221 2185 0
158 -290 -120 2186 0
-43 -373 -189 2187 0
96 -74 490 2188 0
318 343 36 2189 0
-41 -396 -317 2190 0
-218 359 -163 2191 0
381 458 443 2192 0
42 415 -305 2193 0
-207 -73 -436 2194 0
202 -212 -263 2195 0
-310 -216 2 2196 0
413 316 -450 2197 0
259 -345 -154 2198 0
474 403 165 2199 0
403 -282 -272 2200 0
-170 94 -155 2201 0
70 -435 446 2202 0
-442 337 -481 2203 0
28 -153 12 2204 0
-299 478 -393 2205 0
-122 411 -271 2206 0
463 -329 153 2207 0
108 -466 262 2208 0
82 -259 -365 2209 0
114 -381 189 2210 0
-499 24 -255 2211 0
-276 -230 -213 2212 0
-122 364 -17 2213 0
153 -385 59 2214 0
-58 -362 -139 2215 0
-485 -16 427 2216 0
479 440 78 2217 0
-273 -149 274 2218 0
59 -413 -316 2219 0
-300 147 -293 2220 0
385 -31 47 2221 0
63 261 -491 2222 0
247 481 -155 2223 0
305 207 -97 2224 0
-128 -400 -393 2225 0
-438 -478 -266 2226 0
343 -482 -196 2227 0
443 129 275 2228 0
-183 342 -319 2229 0
384 -469 492 2230 0
9 -387 152 2231 0
-168 -381 35 2232 0
421 -192 207 2233 0
-182 218 175 2234 0
-356 -233 138 2235 0
-42 -186 191 2236 0
-198 -33 -110 2237 0
-178 300 -466 2238 0
29 446 400 2239 0
335 485 -141 2240 0
-240 -176 40 2241 0
-229 155 337 2242 0
-496 118 -140 2243 0
-172 -100 -361 2244 0
-417 317 15 2245 0
128 -194 -426 2246 0
-206 -106 288 2247 0
102 -62 -284 2248 0
-406 -69 57 2249 0
397 -382 -294 2250 0
205 -189 -188 2251 0
381 -138 342 2252 0
-13 -399 -78 2253 0
254 403 361 2254 0
163 -86 -482 2255 0
-444 -104 -405 2256 0
23 -343 -250 2257 0
-484 149 69 2258 0
36 198 425 2259 0
-293 -483 -267 2260 0
300 -324 310 2261 0
-352 -451 -203 2262 0
-40 242 17 2263 0
133 -381 162 2264 0
19 32 -324 2265 0
-109 -494 233 2266 0
-31 297 -36 2267 0
130 280 -89 2268 0
-389 24 -130 2269 0
-336 494 -335 2270 0
122 -437 315 2271 0
-394 -131 -167 2272 0
72 -238 -420 2273 0
150 -214 -185 2274 0
199 152 255 2275 0
-368 -12 345 2276 0
-176 54 -136 2277 0
431 -285 470 2278 0
-489 -12 308 2279 0
116 156 -303 2280 0
257 494 59 2281 0
167 -489 444 2282 0
-192 323 50 2283 0
-142 252 -285 2284 0
187 -362 141 2285 0
89 -280 384 2286 0
315 488 400 2287 0
-72 160 -164 2288 0
380 483 127 2289 0
135 -222 70 2290 0
134 -19 -95 2291 0
-223 -340 416 2292 0
318 -239 249 2293 0
-243 417 -211 2294 0
-222 -452 -357 2295 0
-93 -368 -244 2296 0
427 -370 196 2297 0
409 39 461 2298 0
-489 -169 -210 2299 0
32 -322 -59 2300 0
-470 -44 -70 2301 0
-396 -415 -383 2302 0
293 44 275 2303 0
432 328 329 2304 0
82 281 165 2305 0
113 217 487 2306 0
212 -221 -453 2307 0
476 -269 235 2308 0
17 81 -396 2309 0
87 112 -218 2310 0
397 125 61 2311 0
242 435 196 2312 0
162 -253 -283 2313 0
-131 441 372 2314 0
108 -235 -74 2315 0
457 -123 -230 2316 0
-258 404 -162 2317 0
-248 -290 -80 2318 0
-155 186 430 2319 0
-316 -328 -395 2320 0
121 -323 -128 2321 0
392 150 240 2322 0
-181 -145 -459 2323 0
469 325 98 2324 0
-471 -329 28 2325 0
-190 -353 265 2326 0
-55 464 -499 2327 0
-70 111 194 2328 0
453 262 408 2329 0
358 339 214 2330 0
183 -430 208 2331 0
462 -455 -329 2332 0
-399 -482 -275 2333 0
222 254 253 2334 0
-84 -162 -72 2335 0
184 28 332 2336 0
153 131 -373 2337 0
-455 125 61 2338 0
73 -63 -76 2339 0
-343 243 56 2340 0
-34 358 177 2341 0
-479 -497 -47 2342 0
-450 -167 382 2343 0
382 240 -425 2344 0
218 -306 -170 2345 0
-164 -312 47 2346 0
324 426 253 2347 0
-493 -89 -459 2348 0
-414 284 -221 2349 0
-204 202 121 2350 0
-324 360 404 2351 0
-184 -99 -448 2352 0
473 -99 -149 2353 0
122 -62 164 2354 0
-130 -307 -464 2355 0
266 274 466 2356 0
231 308 -363 2357 0
16 312 -147 2358 0
-46 51 -25 2359 0
-46 124 -444 2360 0
-128 140 396 2361 0
227 75 439 2362 0
166 -34 -178 2363 0
113 273 -456 2364 0
161 -133 205 2365 0
299 -69 355 2366 0
-382 -199 -245 2367 0
-57 -409 91 2368 0
-161 -384 -46 2369 0
-405 -374 -388 2370 0
146 -288 473 2371 0
163 -134 147 2372 0
-208 -246 -487 2373 0
65 211 -183 2374 0
-257 -283 226 2375 0
-11 -432 33 2376 0
155 -100 -411 2377 0
-394 245 -202 2378 0
-387 289 -366 2379 0
69 467 101 2380 0
356 -441 383 2381 0
57 149 84 2382 0
348 415 -81 2383 0
320 429 379 2384 0
-394 -435 -448 2385 0
17 -247 319 2386 0
449 415 281 2387 0
178 -402 452 2388 0
5 200 -430 2389 0
467 190 27 2390 0
305 39 344 2391 0
-207 148 413 2392 0
-19 105 -222 2393 0
-42 -270 -52 2394 0
-416 -311 281 2395 0
96 -140 -245 2396 0
-11 -167 -440 2397 0
72 287 -102 2398 0
-499 -348 355 2399 0
-107 176 264 2400 0
390 -404 184 2401 0
290 325 309 2402 0
-408 -208 -464 2403 0
-465 238 339 2404 0
-451 -51 -417 2405 0
-179 440 391 2406 0
216 409 41 2407 0
-240 -489 -497 2408 0
188 -341 -123 2409 0
195 39 383 2410 0
240 -384 66 2411 0
131 134 363 2412 0
-123 166 -334 2413 0
28 -150 442 2414 0
-418 -81 -100 2415 0
28 -46 235 2416 0
105 -218 -158 2417 0
-271 -151 90 2418 0
-112 228 123 2419 0
-374 -203 200 2420 0
-122 190 -217 2421 0
453 -442 79 2422 0
-221 -127 180 2423 0
353 -177 10 2424 0
-205 99 -280 2425 0
298 -352 462 2426 0
-411 -180 -369 2427 0
-167 -324 -414 2428 0
349 409 -252 2429 0
350 374 233 2430 0
276 476 -186 2431 0
301 74 165 2432 0
383 419 -182 2433 0
161 -313 351 2434 0
425 487 444 2435 0
-143 252 199 2436 0
-2 -114 -250 2437 0
-102 -128 -380 2438 0
-458 116 -351 2439 0
7 268 -127 2440 0
-335 -138 35 2441 0
-270 -475 -495 2442 0
354 -251 85 2443 0
-183 321 -473 2444 0
-129 -89 310 2445 0
494 31 -273 2446 0
-50 -251 -266 2447 0
-110 304 31 2448 0
-347 -345 462 2449 0
426 128 199 2450 0
200 134 218 2451 0
341 242 463 2452 0
-490 -251 -47 2453 0
33 -355 -391 2454 0
53 300 -115 2455 0
362 62 -162 2456 0
-293 475 80 2457 0
-236 218 -361 2458 0
379 260 153 2459 0
491 -331 128 2460 0
-86 -161 424 2461 0
-282 -424 -42 2462 0
179 -248 -224 2463 0
-446 -382 -154 2464 0
-285 -54 149 2465 0
-63 487 -46 2466 0
-88 228 410 2467 0
313 -499 349 2468 0
61 374 -9 2469 0
476 -404 94 2470 0
-108 61 -213 2471 0
185 -404 291 2472 0
171 -20 33 2473 0
339 -174 143 2474 0
145 -94 274 2475 0
-158 235 -276 2476 0
293 191 -256 2477 0
266 -377 193 2478 0
237 -111 330 2479 0
29 -263 -111 2480 0
-412 -107 445 2481 0
65 -450 494 2482 0
274 -294 258 2483 0
374 253 58 2484 0
-333 -407 -93 2485 0
-162 376 -18 2486 0
-78 16 461 2487 0
-375 127 491 2488 0
-388 391 429 2489 0
-207 385 -458 2490 0
-490 -471 29 2491 0
174 -225 227 2492 0
-175 -253 -446 2493 0
-235 -165 352 2494 0
-38 276 60 2495 0
-308 -222 -415 2496 0
-478 -404 348 2497 0
465 264 -278 2498 0
415 90 74 2499 0
-295 406 -250 2500 0
-409 -355 -390 2501 0
-441 -448 -103 2502 0
451 481 -153 2503 0
-214 -434 205 2504 0
-102 126 411 2505 0
-364 -313 277 2506 0
436 -108 393 2507 0
-175 -105 481 2508 0
-13 -325 117 2509 0
85 -252 60 2510 0
56 -387 -315 2511 0
-67 -203 -141 2512 0
166 47 431 2513 0
109 -404 415 2514 0
39 309 100 2515 0
-451 67 94 2516 0
-318 -420 -479 2517 0
-218 475 92 2518 0
-339 161 295 2519 0
91 -30 -268 2520 0
-266 388 -161 2521 0
409 497 152 2522 0
222 267 -148 2523 0
412 -387 -155 2524 0
-465 92 -89 2525 0
-128 253 96 2526 0
421 4 -274 2527 0
311 -437 -51 2528 0
466 -340 288 2529 0
138 -128 -126 2530 0
475 411 -142 2531 0
-432 16 -27 2532 0
313 188 -476 2533 0
479 -26 63 2534 0
91 -85 -286 2535 0
203 12 -196 2536 0
-232 -302 -494 2537 0
353 278 166 2538 0
-62 122 -161 2539 0
-298 -336 -309 2540 0
-377 -247 48 2541 0
258 344 196 2542 0
-350 -37 58 2543 0
-455 -32 -203 2544 0
-325 368 437 2545 0
-369 232 359 2546 0
-388 58 -53 2547 0
273 -393 188 2548 0
108 -79 -460 2549 0
292 307 -249 2550 0
-496 -115 373 2551 0
-316 71 -414 2552 0
210 307 -335 2553 0
-48 99 110 2554 0
354 -301 -51 2555 0
-388 -282 121 2556 0
-11 87 -322 2557 0
-99 -239 -322 2558 0
-449 -482 265 2559 0
55 152 -100 2560 0
-357 277 382 2561 0
191 -406 -298 2562 0
-441 75 245 2563 0
-469 297 29 2564 0
-445 -52 -331 2565 0
263 -417 98 2566 0
176 -419 499 2567 0
-119 -271 -392 2568 0
-72 396 -260 2569 0
347 31 253 2570 0
-222 84 312 2571 0
-138 295 45 2572 0
51 83 387 2573 0
104 196 414 2574 0
-486 -263 372 2575 0
-432 338 104 2576 0
142 247 400 2577 0
-118 -409 -33 2578 0
-382 41 -359 2579 0
47 -69 128 2580 0
-19 308 471 2581 0
298 -151 362 2582 0
433 -284 44 2583 0
163 -186 -49 2584 0
-481 -178 49 2585 0
191 57 -383 2586 0
437 432 47 2587 0
-251 -315 218 2588 0
-422 29 427 2589 0
440 -180 -434 2590 0
-32 -340 421 2591 0
157 -239 213 2592 0
84 29 -149 2593 0
353 -305 -42 2594 0
421 452 17 2595 0
170 293 -371 2596 0
-150 -127 -373 2597 0
-277 -205 -312 2598 0
-32 -337 -158 2599 0
-285 314 334 2600 0
-109 70 265 2601 0
157 -171 -405 2602 0
268 440 -341 2603 0
-32 -293 -74 2604 0
488 266 176 2605 0
103 -287 -166 2606 0
-394 -460 -269 2607 0
22 -487 388 2608 0
-159 -268 415 2609 0
-422 -340 133 2610 0
488 263 -304 2611 0
375 237 -303 2612 0
-425 63 -246 2613 0
204 191 450 2614 0
457 -307 -109 2615 0
103 71 -175 2616 0
492 437 182 2617 0
-120 -94 -192 2618 0
-281 -166 -443 2619 0
322 -311 -101 2620 0
161 99 136 2621 0
-299 114 231 2622 0
-438 143 110 2623 0
211 -376 -104 2624 0
-269 377 -419 2625 0
209 -259 -299 2626 0
245 397 -424 2627 0
-301 -154 2 2628 0
-344 -131 197 2629 0
194 29 -364 2630 0
165 81 -191 2631 0
230 -330 -481 2632 0
454 357 -188 2633 0
-321 -307 405 2634 0
-209 372 280 2635 0
391 -473 109 2636 0
61 446 284 2637 0
-342 431 -192 2638 0
-168 457 -85 2639 0
-45 -2 24 2640 0
-78 394 11 2641 0
-481 -228 44 2642 0
166 233 -286 2643 0
122 256 310 2644 0
-164 -474 131 2645 0
-75 421 155 2646 0
-474 -210 -46 2647 0
147 -354 82 2648 0
6 -81 -263 2649 0
-359 -375 265 2650 0
