p cnf 2650 2150
-159 -39 -155 501 0
-446 -336 269 502 0
370 -25 -353 503 0
-121 -490 -482 504 0
427 -463 -446 505 0
276 -88 -136 506 0
308 387 147 507 0
386 -143 -383 508 0
300 -60 33 509 0
-186 -64 -465 510 0
-54 264 461 511 0
-91 -312 340 512 0
421 -419 122 513 0
-32 161 92 514 0
388 -92 -408 515 0
-47 -460 203 516 0
52 -197 305 517 0
154 -201 128 518 0
124 227 -183 519 0
-368 19 -248 520 0
100 -312 182 521 0
320 14 234 522 0
-277 -450 208 523 0
-219 84 265 524 0
403 180 -57 525 0
-412 38 207 526 0
295 411 353 527 0
-434 -62 388 528 0
-270 419 392 529 0
-489 -251 371 530 0
-31 -292 -104 531 0
-396 371 -224 532 0
-407 -60 76 533 0
-176 252 -438 534 0
-326 -177 -20 535 0
62 387 244 536 0
72 467 360 537 0
297 448 355 538 0
-343 414 216 539 0
-343 198 459 540 0
-313 -381 239 541 0
336 -285 -485 542 0
-27 63 13 543 0
486 -408 277 544 0
421 172 -380 545 0
170 39 -184 546 0
-321 451 463 547 0
37 -115 -405 548 0
87 -443 -473 549 0
-277 263 -59 550 0
-111 -327 41 551 0
458 -21 -223 552 0
331 315 239 553 0
188 427 102 554 0
488 -73 -267 555 0
483 -223 61 556 0
442 407 -497 557 0
-123 -342 1 558 0
-110 196 169 559 0
-457 498 203 560 0
-333 -206 375 561 0
91 423 61 562 0
-227 120 -303 563 0
5 161 -491 564 0
92 -394 54 565 0
-64 -115 -100 566 0
229 408 380 567 0
-298 1 -418 568 0
-439 208 -138 569 0
-202 -448 -421 570 0
-378 453 -458 571 0
-40 444 -226 572 0
-137 -380 234 573 0
229 -98 -428 574 0
394 274 -62 575 0
-187 -360 19 576 0
213 -184 -441 577 0
-383 -92 -51 578 0
-84 -201 383 579 0
-147 136 40 580 0
145 290 -337 581 0
-333 331 440 582 0
-481 -262 -194 583 0
-371 -375 154 584 0
-372 -370 -476 585 0
117 -161 -367 586 0
-321 63 -401 587 0
-287 -318 -156 588 0
351 13 -361 589 0
237 -342 -289 590 0
167 77 -388 591 0
320 189 -322 592 0
86 465 337 593 0
-282 -343 -345 594 0
289 407 386 595 0
-368 -144 -377 596 0
-404 310 -141 597 0
447 86 -49 598 0
41 -34 -152 599 0
-412 407 -454 600 0
-233 -296 -203 601 0
-149 -102 -215 602 0
-65 -161 224 603 0
-127 -425 -356 604 0
-246 360 -436 605 0
-423 191 -95 606 0
-297 362 471 607 0
170 -116 -433 608 0
285 389 -322 609 0
-404 5 -90 610 0
-30 -412 351 611 0
418 -141 -394 612 0
103 188 -67 613 0
307 -294 419 614 0
337 -149 461 615 0
-57 -9 124 616 0
180 227 -381 617 0
-303 -31 29 618 0
-252 49 144 619 0
-379 -361 -252 620 0
65 88 -318 621 0
67 -373 -421 622 0
-90 467 193 623 0
-17 -221 58 624 0
189 307 -438 625 0
278 133 315 626 0
-181 -154 124 627 0
-434 264 234 628 0
-264 179 169 629 0
285 -311 205 630 0
-271 182 -250 631 0
-313 396 240 632 0
-234 33 -416 633 0
241 382 -228 634 0
456 -424 209 635 0
-55 -298 493 636 0
-453 -64 209 637 0
91 -119 171 638 0
-498 -3 -279 639 0
-30 496 -73 640 0
-347 -375 24 641 0
-278 -351 150 642 0
-159 -493 -362 643 0
386 -394 238 644 0
306 -75 -439 645 0
392 337 -140 646 0
-340 -370 194 647 0
390 -43 312 648 0
-475 312 -249 649 0
34 -434 -455 650 0
-84 272 -144 651 0
462 87 206 652 0
-129 104 -369 653 0
21 -136 441 654 0
-435 440 -59 655 0
-219 6 242 656 0
-90 -193 311 657 0
331 472 -94 658 0
-168 314 -466 659 0
306 -442 465 660 0
378 338 426 661 0
10 375 498 662 0
220 -339 -40 663 0
238 128 -309 664 0
139 -407 -433 665 0
-195 -94 15 666 0
-11 -171 427 667 0
272 -436 -210 668 0
-454 74 118 669 0
-445 282 -230 670 0
-258 -487 274 671 0
137 326 -51 672 0
74 382 -290 673 0
364 442 -393 674 0
-49 -34 275 675 0
268 -220 -414 676 0
-242 90 243 677 0
-311 64 -263 678 0
74 -348 -199 679 0
-113 -267 16 680 0
-7 -399 332 681 0
16 417 -179 682 0
410 134 428 683 0
461 -257 -368 684 0
454 -147 335 685 0
280 83 -431 686 0
19 -112 -80 687 0
198 194 478 688 0
424 -250 -316 689 0
-199 -70 -306 690 0
-416 -153 -165 691 0
-147 140 -197 692 0
-122 -407 -261 693 0
-180 214 -86 694 0
-199 440 -398 695 0
-116 -371 -188 696 0
321 -313 -142 697 0
454 393 -147 698 0
-72 -283 -296 699 0
152 302 86 700 0
-471 -228 -66 701 0
97 312 -309 702 0
461 -389 -257 703 0
75 -370 -466 704 0
241 110 -128 705 0
-345 -443 146 706 0
-387 -406 -391 707 0
409 -23 -12 708 0
167 492 -155 709 0
-393 294 -264 710 0
-148 -448 -236 711 0
53 147 255 712 0
-124 -126 -143 713 0
400 407 343 714 0
136 95 -356 715 0
-448 277 -354 716 0
-432 -362 14 717 0
-273 -79 -436 718 0
-271 356 -64 719 0
-289 -34 173 720 0
56 308 -29 721 0
353 237 -301 722 0
414 256 -125 723 0
-317 -69 -193 724 0
181 384 -378 725 0
-408 -370 -204 726 0
-182 -402 341 727 0
461 135 -291 728 0
-266 -317 159 729 0
-179 -327 177 730 0
-264 -259 2 731 0
374 -282 -294 732 0
39 1 184 733 0
-57 161 472 734 0
-416 -267 299 735 0
374 413 13 736 0
169 -146 81 737 0
334 -53 -34 738 0
-32 436 -216 739 0
469 -123 -490 740 0
301 290 2 741 0
324 -265 167 742 0
453 -354 82 743 0
-435 -299 -28 744 0
-180 316 69 745 0
-429 -144 -487 746 0
-15 263 -122 747 0
264 -91 124 748 0
229 138 388 749 0
114 -64 211 750 0
372 159 -35 751 0
-169 249 21 752 0
225 103 -426 753 0
-171 -495 90 754 0
52 -388 -260 755 0
49 -252 441 756 0
260 419 -128 757 0
-436 88 271 758 0
12 207 -470 759 0
-337 441 202 760 0
451 30 -197 761 0
447 380 49 762 0
-463 21 464 763 0
134 -195 197 764 0
-181 364 372 765 0
-4 178 353 766 0
111 414 267 767 0
302 -255 -52 768 0
122 -477 342 769 0
-243 -163 295 770 0
93 128 283 771 0
-362 46 439 772 0
449 -249 36 773 0
-248 257 337 774 0
238 233 241 775 0
323 -173 30 776 0
-388 -227 107 777 0
-467 -241 367 778 0
-56 -395 363 779 0
-102 -455 -309 780 0
-89 -118 -393 781 0
-119 378 398 782 0
-232 452 415 783 0
243 145 332 784 0
-244 -229 -21 785 0
14 98 -223 786 0
253 271 -486 787 0
-325 -314 -145 788 0
-242 -37 15 789 0
388 -104 -454 790 0
-347 -321 -134 791 0
381 -304 259 792 0
471 145 -375 793 0
-276 33 210 794 0
70 -430 -103 795 0
-99 496 427 796 0
-253 345 276 797 0
-325 179 296 798 0
354 350 372 799 0
28 269 -298 800 0
-308 391 -141 801 0
402 228 -470 802 0
-91 82 478 803 0
-46 296 42 804 0
109 -191 -476 805 0
-188 459 28 806 0
-345 75 -263 807 0
-226 -390 136 808 0
500 32 -436 809 0
66 432 126 810 0
100 -333 328 811 0
-85 411 -343 812 0
-373 161 60 813 0
-250 -90 -289 814 0
-99 494 -49 815 0
-337 463 74 816 0
445 139 499 817 0
59 -306 328 818 0
-33 -421 -306 819 0
441 217 -305 820 0
-142 48 -82 821 0
46 240 248 822 0
9 -324 246 823 0
-54 -3 -44 824 0
48 -101 149 825 0
-33 257 48 826 0
468 -308 246 827 0
193 215 -424 828 0
367 417 222 829 0
115 160 -147 830 0
99 -283 -390 831 0
285 -6 -5 832 0
440 -305 396 833 0
-16 -422 -44 834 0
339 -329 163 835 0
439 -476 356 836 0
-355 -352 237 837 0
-446 -162 -273 838 0
13 488 -380 839 0
298 476 292 840 0
403 -452 -440 841 0
-285 216 152 842 0
166 -86 14 843 0
102 -267 450 844 0
-162 427 -300 845 0
295 223 -77 846 0
79 -304 -33 847 0
-342 361 -152 848 0
233 391 161 849 0
-57 -138 -166 850 0
407 252 70 851 0
402 -218 187 852 0
229 293 -19 853 0
-38 59 124 854 0
-134 -341 -367 855 0
320 173 8 856 0
-470 -200 255 857 0
-84 -123 -387 858 0
13 136 176 859 0
200 -288 477 860 0
99 -110 419 861 0
-62 -184 424 862 0
361 117 428 863 0
-440 152 351 864 0
257 489 -474 865 0
204 -50 -297 866 0
432 301 -406 867 0
47 -145 414 868 0
-439 306 -280 869 0
-51 -161 416 870 0
253 335 -372 871 0
492 -354 58 872 0
343 277 211 873 0
318 276 459 874 0
-398 124 -442 875 0
325 -395 79 876 0
97 18 452 877 0
174 -172 -441 878 0
-31 320 262 879 0
316 355 435 880 0
292 285 108 881 0
389 -390 256 882 0
-292 -273 -105 883 0
-342 418 -177 884 0
177 430 -142 885 0
233 -391 -17 886 0
-329 -28 -385 887 0
118 -266 -200 888 0
-496 58 294 889 0
-82 165 168 890 0
-313 217 6 891 0
-380 4 17 892 0
446 164 121 893 0
-483 -212 -310 894 0
148 -381 -282 895 0
12 410 -341 896 0
-345 -31 -101 897 0
131 10 53 898 0
-178 -169 473 899 0
208 -164 -4 900 0
443 -211 -449 901 0
-312 -464 89 902 0
-60 410 -142 903 0
-250 -328 -31 904 0
378 469 97 905 0
397 191 -108 906 0
-456 -153 118 907 0
412 -424 -458 908 0
499 -145 149 909 0
9 -189 -248 910 0
38 -148 282 911 0
-169 -436 -151 912 0
285 -169 -332 913 0
63 -298 -351 914 0
-268 411 5 915 0
455 448 456 916 0
-421 380 -68 917 0
-393 -155 -86 918 0
-239 385 -246 919 0
-446 412 134 920 0
32 -152 322 921 0
-251 466 -50 922 0
-365 -22 195 923 0
420 226 -115 924 0
-298 224 -484 925 0
-279 351 -308 926 0
404 113 -421 927 0
143 -304 -395 928 0
304 416 113 929 0
-366 211 -416 930 0
-125 -391 -53 931 0
-296 326 186 932 0
-75 -425 259 933 0
386 -375 249 934 0
-80 102 -338 935 0
323 -122 -206 936 0
7 214 -334 937 0
-335 321 -279 938 0
-56 -2 -225 939 0
312 308 -328 940 0
130 189 377 941 0
-414 496 -379 942 0
89 -87 91 943 0
-385 -434 273 944 0
298 412 250 945 0
-240 -466 469 946 0
-269 -160 127 947 0
337 237 -299 948 0
41 327 -304 949 0
-438 321 -340 950 0
-419 55 -364 951 0
-55 243 169 952 0
39 -51 -264 953 0
256 -390 -348 954 0
341 -377 323 955 0
-389 167 376 956 0
-434 351 -301 957 0
-286 18 -202 958 0
439 211 394 959 0
-129 21 -13 960 0
-43 268 -180 961 0
-94 -196 -281 962 0
-235 424 -158 963 0
-132 494 361 964 0
-297 192 104 965 0
395 382 54 966 0
287 -276 433 967 0
286 -191 -168 968 0
187 264 395 969 0
-253 -24 297 970 0
-384 -423 -394 971 0
-121 -368 360 972 0
260 -318 60 973 0
219 225 -373 974 0
330 -454 278 975 0
382 -106 351 976 0
-421 266 250 977 0
91 84 296 978 0
-67 -375 -185 979 0
-16 142 -185 980 0
-224 -208 86 981 0
371 -65 -131 982 0
386 -303 136 983 0
489 385 441 984 0
-443 -285 -441 985 0
236 171 98 986 0
-6 -85 -266 987 0
395 165 -37 988 0
-427 365 -426 989 0
-308 134 345 990 0
-367 -82 358 991 0
493 -236 41 992 0
272 402 -72 993 0
485 -152 -417 994 0
39 -170 323 995 0
365 -293 -183 996 0
-498 -166 -209 997 0
184 -290 -17 998 0
159 96 -15 999 0
468 -142 271 1000 0
475 309 -155 1001 0
-27 205 -263 1002 0
-186 -283 -259 1003 0
179 294 -466 1004 0
-247 -10 330 1005 0
-186 -226 -91 1006 0
161 482 -5 1007 0
192 32 -303 1008 0
-124 -277 126 1009 0
184 60 -391 1010 0
-266 -10 -430 1011 0
-26 151 -325 1012 0
274 -469 386 1013 0
463 231 289 1014 0
144 244 1 1015 0
198 85 -275 1016 0
407 458 254 1017 0
-477 -96 -186 1018 0
-296 -354 -25 1019 0
-200 209 -484 1020 0
-285 -479 105 1021 0
-255 -320 300 1022 0
-39 -347 251 1023 0
-94 384 -45 1024 0
-493 181 358 1025 0
11 -143 -406 1026 0
176 -445 398 1027 0
395 -106 -219 1028 0
-46 -454 -377 1029 0
-303 -253 143 1030 0
387 453 129 1031 0
-425 -135 -94 1032 0
-433 416 263 1033 0
275 243 -149 1034 0
100 179 117 1035 0
-287 277 21 1036 0
-20 96 236 1037 0
-197 -77 20 1038 0
-2 72 59 1039 0
223 256 228 1040 0
-283 -318 321 1041 0
285 357 -258 1042 0
284 -331 347 1043 0
365 -377 -28 1044 0
109 491 -398 1045 0
-373 34 388 1046 0
258 -460 286 1047 0
-388 -253 236 1048 0
422 -153 -189 1049 0
-296 -475 -406 1050 0
-317 369 -484 1051 0
-186 463 -279 1052 0
-318 257 -148 1053 0
-197 -352 -396 1054 0
-269 336 22 1055 0
477 -122 76 1056 0
-499 225 207 1057 0
-467 -404 2 1058 0
-250 -419 396 1059 0
14 -168 33 1060 0
246 103 -412 1061 0
-192 429 -281 1062 0
-148 -428 96 1063 0
270 184 106 1064 0
-473 -112 -283 1065 0
-219 -340 -380 1066 0
451 -325 -85 1067 0
209 -176 162 1068 0
145 161 -256 1069 0
-128 195 -396 1070 0
-51 332 126 1071 0
36 -143 330 1072 0
132 -367 33 1073 0
15 111 266 1074 0
426 56 -337 1075 0
172 -245 220 1076 0
-87 -417 227 1077 0
117 327 -155 1078 0
262 -57 402 1079 0
125 -53 253 1080 0
-97 304 -396 1081 0
-198 259 20 1082 0
126 -35 270 1083 0
-23 -426 -466 1084 0
-104 392 383 1085 0
26 -370 -265 1086 0
449 -416 -353 1087 0
-177 474 -405 1088 0
113 469 354 1089 0
-107 233 212 1090 0
-303 451 142 1091 0
241 405 301 1092 0
374 290 206 1093 0
-482 -353 81 1094 0
-339 1 206 1095 0
-172 -377 59 1096 0
-300 -301 -328 1097 0
-171 -45 184 1098 0
-443 284 168 1099 0
316 -422 -319 1100 0
-11 131 -36 1101 0
-369 -42 -487 1102 0
472 437 147 1103 0
340 -154 182 1104 0
368 -162 481 1105 0
99 -60 473 1106 0
334 -55 -133 1107 0
164 -238 -262 1108 0
267 -445 33 1109 0
203 292 151 1110 0
-162 -417 21 1111 0
321 -371 413 1112 0
45 -487 -189 1113 0
-454 226 -388 1114 0
97 413 42 1115 0
-255 -402 173 1116 0
324 -183 -429 1117 0
-458 147 -348 1118 0
275 -126 -461 1119 0
-496 -296 -133 1120 0
-380 -81 -340 1121 0
333 -28 113 1122 0
-230 -410 -314 1123 0
78 155 -386 1124 0
-292 309 269 1125 0
-289 209 319 1126 0
49 -461 -227 1127 0
-213 400 -182 1128 0
189 -100 -280 1129 0
-420 97 -368 1130 0
-75 -87 -304 1131 0
242 -477 287 1132 0
-443 234 28 1133 0
86 114 435 1134 0
-167 -238 88 1135 0
-193 -347 466 1136 0
-41 -445 238 1137 0
474 -368 289 1138 0
405 -499 474 1139 0
151 11 477 1140 0
-215 22 -261 1141 0
359 -170 11 1142 0
34 392 -483 1143 0
-498 266 -455 1144 0
271 429 11 1145 0
338 2 473 1146 0
-115 -333 395 1147 0
471 -306 44 1148 0
-492 377 -24 1149 0
241 -229 18 1150 0
67 -41 361 1151 0
-494 148 -183 1152 0
-144 240 -272 1153 0
51 68 -59 1154 0
86 152 302 1155 0
166 479 -357 1156 0
-385 210 -44 1157 0
-53 386 481 1158 0
425 -330 8 1159 0
206 398 -276 1160 0
281 -41 376 1161 0
245 57 -90 1162 0
-498 -115 34 1163 0
417 139 -411 1164 0
-407 -162 159 1165 0
-297 -154 -62 1166 0
382 424 277 1167 0
-132 429 -323 1168 0
38 15 -442 1169 0
-389 428 356 1170 0
-21 83 -15 1171 0
-417 -135 -484 1172 0
-183 259 456 1173 0
355 214 -465 1174 0
-203 -317 109 1175 0
-57 -293 230 1176 0
-450 -359 269 1177 0
285 1 -304 1178 0
277 -402 -48 1179 0
208 141 -98 1180 0
-421 -403 -294 1181 0
159 -47 -27 1182 0
343 -160 453 1183 0
104 209 470 1184 0
14 244 -95 1185 0
-41 -115 46 1186 0
-152 -437 207 1187 0
-287 428 265 1188 0
-66 -249 -62 1189 0
189 228 262 1190 0
113 441 80 1191 0
126 222 360 1192 0
29 212 -132 1193 0
-392 -386 -62 1194 0
-252 -325 -385 1195 0
282 -270 489 1196 0
161 458 187 1197 0
-481 -482 -228 1198 0
-395 -134 -331 1199 0
-391 -262 -495 1200 0
-289 -320 93 1201 0
-415 219 132 1202 0
-238 -235 290 1203 0
53 295 331 1204 0
-334 478 184 1205 0
192 303 302 1206 0
196 175 245 1207 0
443 -115 -203 1208 0
6 366 433 1209 0
353 214 103 1210 0
94 -370 -143 1211 0
236 -11 -16 1212 0
260 -421 -386 1213 0
321 -258 493 1214 0
-456 238 -355 1215 0
-455 -117 495 1216 0
370 188 -176 1217 0
-83 -458 -375 1218 0
-481 418 140 1219 0
130 -190 -199 1220 0
82 -133 -110 1221 0
281 -174 182 1222 0
38 -215 -137 1223 0
-244 -166 -139 1224 0
-182 157 -240 1225 0
16 -123 -441 1226 0
148 -418 -230 1227 0
193 -492 -316 1228 0
-335 230 267 1229 0
-187 400 456 1230 0
-141 75 82 1231 0
-424 -223 412 1232 0
358 -101 -141 1233 0
175 426 -320 1234 0
-239 210 197 1235 0
-490 -232 442 1236 0
468 -83 -436 1237 0
185 354 -85 1238 0
385 -128 148 1239 0
407 -228 371 1240 0
-241 319 -451 1241 0
-218 494 72 1242 0
-46 -55 269 1243 0
-70 107 -94 1244 0
173 -186 224 1245 0
-165 -499 310 1246 0
218 136 -296 1247 0
-476 -247 -359 1248 0
-494 -51 88 1249 0
430 -315 -321 1250 0
-53 489 -427 1251 0
357 -48 -433 1252 0
-117 301 -432 1253 0
77 152 167 1254 0
73 -483 1 1255 0
32 -73 -359 1256 0
-137 -185 -202 1257 0
122 274 -257 1258 0
159 97 -374 1259 0
83 -237 47 1260 0
-353 216 276 1261 0
-442 83 81 1262 0
-283 474 -25 1263 0
92 -105 -282 1264 0
-150 -213 -270 1265 0
453 437 -3 1266 0
72 90 221 1267 0
-243 -11 122 1268 0
393 76 -50 1269 0
-473 -407 -185 1270 0
-240 -402 -396 1271 0
-47 396 -28 1272 0
92 -69 488 1273 0
-54 -479 -242 1274 0
-344 332 -50 1275 0
11 435 176 1276 0
317 -315 -301 1277 0
-312 443 348 1278 0
354 -316 -378 1279 0
300 -448 167 1280 0
410 384 -451 1281 0
444 12 366 1282 0
421 350 430 1283 0
-136 35 472 1284 0
-173 58 -307 1285 0
399 58 198 1286 0
-152 401 -231 1287 0
-217 -455 -444 1288 0
-474 89 302 1289 0
-51 191 -184 1290 0
202 -461 -44 1291 0
5 133 -419 1292 0
389 -127 -424 1293 0
281 -423 377 1294 0
152 -347 -362 1295 0
220 -291 -105 1296 0
-239 104 483 1297 0
-378 485 -286 1298 0
-481 163 46 1299 0
454 478 48 1300 0
-85 71 10 1301 0
-303 -251 -6 1302 0
81 -84 462 1303 0
-497 63 126 1304 0
328 -34 -46 1305 0
-275 -264 -360 1306 0
364 160 -416 1307 0
-16 -431 -345 1308 0
29 -444 -308 1309 0
176 -348 135 1310 0
-311 -435 -249 1311 0
500 202 11 1312 0
297 380 -199 1313 0
164 40 -48 1314 0
-125 142 -44 1315 0
-251 -280 243 1316 0
287 452 320 1317 0
214 272 -55 1318 0
-284 -29 438 1319 0
186 64 182 1320 0
-128 -204 428 1321 0
-495 218 -52 1322 0
77 87 -39 1323 0
-240 16 377 1324 0
-301 -305 311 1325 0
-257 314 -320 1326 0
387 296 -25 1327 0
348 436 -197 1328 0
24 -22 -379 1329 0
-272 238 279 1330 0
-187 257 317 1331 0
-9 481 -401 1332 0
-469 494 -95 1333 0
359 72 478 1334 0
-152 -94 70 1335 0
57 177 -204 1336 0
-348 -329 -374 1337 0
7 245 121 1338 0
-122 333 454 1339 0
-289 -400 15 1340 0
-57 -420 -473 1341 0
-184 -7 144 1342 0
63 -305 -43 1343 0
66 226 -297 1344 0
-448 -163 234 1345 0
380 70 -148 1346 0
-122 -121 -470 1347 0
204 -6 463 1348 0
-265 165 214 1349 0
56 -172 483 1350 0
-22 -280 14 1351 0
197 -125 311 1352 0
-159 286 -287 1353 0
-70 48 -430 1354 0
-469 362 56 1355 0
-342 29 -302 1356 0
-148 -206 -365 1357 0
-80 4 411 1358 0
264 408 -465 1359 0
-223 -216 295 1360 0
-213 -2 373 1361 0
154 5 -21 1362 0
3 -395 118 1363 0
371 344 -222 1364 0
346 -446 -224 1365 0
196 276 52 1366 0
495 -381 180 1367 0
-112 -307 57 1368 0
-368 -63 -72 1369 0
-61 -67 -444 1370 0
-218 327 -155 1371 0
202 245 427 1372 0
235 71 -1 1373 0
-473 30 176 1374 0
-221 330 -365 1375 0
257 -106 -83 1376 0
-204 -400 -85 1377 0
-226 185 -80 1378 0
-177 -167 225 1379 0
-148 114 -395 1380 0
-104 353 -86 1381 0
53 395 438 1382 0
-402 58 9 1383 0
334 -243 -341 1384 0
-261 496 -227 1385 0
383 -159 195 1386 0
-430 -377 103 1387 0
-45 49 171 1388 0
-289 -263 421 1389 0
221 110 -441 1390 0
-67 402 10 1391 0
335 -150 -486 1392 0
-469 369 -130 1393 0
-279 -485 158 1394 0
396 59 292 1395 0
322 -109 -371 1396 0
-477 -383 -23 1397 0
425 282 -102 1398 0
137 119 478 1399 0
-365 -311 113 1400 0
-286 -110 -411 1401 0
-321 -330 -54 1402 0
254 -416 238 1403 0
-418 -57 -430 1404 0
359 -198 -197 1405 0
-350 72 307 1406 0
94 -440 367 1407 0
-434 411 -369 1408 0
-375 -284 -201 1409 0
-22 -405 -429 1410 0
321 471 430 1411 0
-104 291 47 1412 0
443 -42 -49 1413 0
311 -79 420 1414 0
393 302 398 1415 0
-369 -70 -328 1416 0
-45 85 401 1417 0
-304 329 18 1418 0
-207 -183 245 1419 0
-119 472 440 1420 0
203 345 -472 1421 0
-260 42 117 1422 0
138 -119 359 1423 0
202 114 -37 1424 0
388 183 -109 1425 0
296 310 -41 1426 0
54 353 -370 1427 0
459 -314 409 1428 0
-212 -388 -401 1429 0
226 -335 -324 1430 0
-324 270 484 1431 0
-281 -34 -300 1432 0
-449 -310 238 1433 0
388 89 211 1434 0
-289 216 -283 1435 0
354 23 324 1436 0
343 245 349 1437 0
333 -267 -139 1438 0
227 323 -425 1439 0
147 -262 -281 1440 0
424 -111 126 1441 0
-2 -214 197 1442 0
277 313 -152 1443 0
-96 -312 53 1444 0
-424 -30 -472 1445 0
21 322 280 1446 0
-304 -186 118 1447 0
-149 -4 -345 1448 0
437 94 54 1449 0
-370 -300 -446 1450 0
-444 -421 446 1451 0
-22 -452 308 1452 0
202 67 239 1453 0
52 -132 26 1454 0
88 63 -209 1455 0
-239 447 190 1456 0
171 -284 -174 1457 0
-129 478 -347 1458 0
483 -215 -373 1459 0
323 136 150 1460 0
-71 181 -479 1461 0
-24 -432 -174 1462 0
459 326 342 1463 0
493 -243 11 1464 0
-263 -456 266 1465 0
258 -261 -486 1466 0
-319 -97 257 1467 0
-250 78 84 1468 0
466 14 485 1469 0
472 328 222 1470 0
-368 -344 -54 1471 0
-481 -266 -257 1472 0
-43 -227 187 1473 0
-125 -23 409 1474 0
18 -31 271 1475 0
-101 280 -41 1476 0
-484 -461 -334 1477 0
-252 245 309 1478 0
190 -259 -484 1479 0
-144 -441 112 1480 0
163 250 -8 1481 0
-353 143 255 1482 0
174 -78 -215 1483 0
-13 73 352 1484 0
274 223 394 1485 0
-315 119 447 1486 0
266 35 -459 1487 0
401 111 172 1488 0
-136 -369 -235 1489 0
-101 477 37 1490 0
82 299 126 1491 0
-118 -334 -166 1492 0
74 -128 -231 1493 0
209 -486 -243 1494 0
-8 -178 -54 1495 0
-1 -83 -409 1496 0
113 292 -169 1497 0
218 -58 -5 1498 0
107 -286 -31 1499 0
158 337 8 1500 0
-463 492 132 1501 0
199 -304 -489 1502 0
-50 280 51 1503 0
-22 -43 -11 1504 0
355 215 400 1505 0
223 -300 324 1506 0
-245 -375 -355 1507 0
-166 -361 437 1508 0
68 245 -244 1509 0
242 5 -417 1510 0
-476 -114 -464 1511 0
-396 221 143 1512 0
-234 45 488 1513 0
3 20 441 1514 0
-464 171 352 1515 0
-189 -378 303 1516 0
-110 338 126 1517 0
-260 -123 317 1518 0
138 -369 -327 1519 0
-53 17 -192 1520 0
377 -74 468 1521 0
-63 -424 -382 1522 0
78 198 430 1523 0
41 -158 -494 1524 0
320 -38 409 1525 0
-123 60 102 1526 0
-437 -488 -299 1527 0
83 353 -70 1528 0
309 384 -69 1529 0
37 250 40 1530 0
-357 381 392 1531 0
-408 -430 -415 1532 0
329 345 333 1533 0
-38 476 54 1534 0
270 48 -265 1535 0
-80 -46 -328 1536 0
-109 -404 102 1537 0
-479 -374 -53 1538 0
-70 412 118 1539 0
341 -223 -84 1540 0
-175 -37 138 1541 0
172 197 -466 1542 0
-211 -236 263 1543 0
-154 58 111 1544 0
332 152 451 1545 0
117 500 324 1546 0
-193 153 344 1547 0
120 -134 -475 1548 0
168 97 -476 1549 0
-74 -127 -428 1550 0
-94 -188 -367 1551 0
-104 -309 -357 1552 0
-260 -308 -5 1553 0
58 -452 -231 1554 0
-372 -360 240 1555 0
336 -420 -99 1556 0
490 139 316 1557 0
-406 218 -474 1558 0
-384 448 -220 1559 0
-105 374 -90 1560 0
-119 490 -375 1561 0
-431 150 -63 1562 0
452 212 165 1563 0
-42 -283 -481 1564 0
482 -39 117 1565 0
494 228 102 1566 0
56 61 55 1567 0
-214 14 -175 1568 0
412 276 42 1569 0
-354 480 479 1570 0
-299 134 -88 1571 0
483 -375 -136 1572 0
68 193 -126 1573 0
145 -242 135 1574 0
376 -164 180 1575 0
220 -228 -294 1576 0
-183 -59 -278 1577 0
103 -125 442 1578 0
301 -35 79 1579 0
282 -369 349 1580 0
-122 291 251 1581 0
-239 -68 -96 1582 0
89 191 141 1583 0
-183 -175 67 1584 0
46 418 -230 1585 0
-388 -84 272 1586 0
288 -265 -306 1587 0
-30 235 -201 1588 0
162 -194 -440 1589 0
-411 209 -42 1590 0
-249 -151 -466 1591 0
-403 304 -356 1592 0
153 137 -259 1593 0
-407 303 389 1594 0
-29 266 184 1595 0
292 -243 -383 1596 0
-332 264 -117 1597 0
338 97 182 1598 0
428 414 250 1599 0
-36 -382 63 1600 0
123 473 -389 1601 0
468 -343 214 1602 0
-166 398 -394 1603 0
-103 -135 -75 1604 0
227 467 94 1605 0
129 193 -80 1606 0
375 144 -71 1607 0
-298 -477 -242 1608 0
-305 -77 -465 1609 0
355 -248 -222 1610 0
-213 -23 357 1611 0
-337 440 -171 1612 0
-491 -142 159 1613 0
391 223 236 1614 0
452 -41 -490 1615 0
-255 -289 -344 1616 0
-337 313 110 1617 0
-289 -106 -295 1618 0
93 -486 -355 1619 0
357 -343 400 1620 0
452 207 293 1621 0
-263 176 328 1622 0
380 110 -470 1623 0
-343 139 -18 1624 0
421 146 -49 1625 0
69 465 -165 1626 0
466 235 -16 1627 0
89 403 -381 1628 0
-52 203 270 1629 0
487 67 -480 1630 0
-236 -468 -165 1631 0
-260 50 -48 1632 0
32 -137 -232 1633 0
-297 -500 427 1634 0
-319 -66 -85 1635 0
-244 -302 -256 1636 0
147 -218 429 1637 0
104 -112 -1 1638 0
-201 -195 469 1639 0
420 -358 -357 1640 0
149 447 61 1641 0
201 -245 -122 1642 0
155 -425 -85 1643 0
-302 144 277 1644 0
284 236 327 1645 0
-25 212 -7 1646 0
-46 22 -44 1647 0
-56 -258 192 1648 0
2 -212 208 1649 0
381 445 308 1650 0
224 212 119 1651 0
-88 80 -179 1652 0
-110 -231 -477 1653 0
9 383 331 1654 0
422 127 441 1655 0
325 -484 -179 1656 0
356 44 220 1657 0
-2 482 28 1658 0
281 398 -344 1659 0
-18 -54 114 1660 0
-26 37 -354 1661 0
-453 373 -237 1662 0
228 435 168 1663 0
334 384 -418 1664 0
49 485 27 1665 0
377 -139 -450 1666 0
263 148 325 1667 0
-124 -101 297 1668 0
167 219 43 1669 0
114 -229 133 1670 0
-163 -281 69 1671 0
16 169 487 1672 0
-316 -382 188 1673 0
170 -140 227 1674 0
-446 -50 -30 1675 0
-398 96 -20 1676 0
496 -458 -455 1677 0
-375 397 -465 1678 0
361 197 213 1679 0
254 343 -303 1680 0
-117 228 -147 1681 0
-431 416 -77 1682 0
-242 -76 -462 1683 0
-385 406 491 1684 0
-158 -257 -135 1685 0
378 394 -142 1686 0
489 -111 -256 1687 0
287 162 -456 1688 0
237 -131 234 1689 0
251 -307 355 1690 0
198 -238 -161 1691 0
69 -301 339 1692 0
347 -341 -406 1693 0
-136 -469 -317 1694 0
-47 329 -480 1695 0
-318 465 285 1696 0
95 17 -433 1697 0
132 470 73 1698 0
-337 80 -214 1699 0
225 98 -487 1700 0
-414 -239 -228 1701 0
125 -462 -399 1702 0
-372 14 95 1703 0
302 211 -322 1704 0
-261 401 -412 1705 0
395 -245 -439 1706 0
-360 -477 -260 1707 0
-14 198 -87 1708 0
259 167 -456 1709 0
-42 -156 -290 1710 0
15 -103 230 1711 0
400 485 199 1712 0
-104 -141 -476 1713 0
-414 443 -257 1714 0
-498 244 -149 1715 0
413 245 -350 1716 0
-104 377 -382 1717 0
471 -161 -430 1718 0
371 -337 -40 1719 0
240 267 -34 1720 0
-26 -134 -105 1721 0
351 -294 -450 1722 0
178 46 262 1723 0
-162 -140 109 1724 0
457 448 -385 1725 0
-332 -137 -295 1726 0
71 106 -158 1727 0
-456 -265 -495 1728 0
-306 28 372 1729 0
-132 383 -68 1730 0
316 -106 490 1731 0
13 37 -421 1732 0
431 -142 244 1733 0
-298 184 440 1734 0
463 -106 318 1735 0
100 20 224 1736 0
99 41 -468 1737 0
-213 26 -6 1738 0
-418 379 265 1739 0
-97 -459 -23 1740 0
177 -28 56 1741 0
-140 -104 -274 1742 0
-453 368 -139 1743 0
428 309 -190 1744 0
-114 -276 104 1745 0
115 -408 337 1746 0
384 67 -129 1747 0
124 477 -26 1748 0
-121 -359 -346 1749 0
-103 74 -9 1750 0
262 344 201 1751 0
402 -113 368 1752 0
-134 315 -178 1753 0
-191 -88 -452 1754 0
-282 500 237 1755 0
283 -429 -394 1756 0
183 -38 -79 1757 0
-172 295 362 1758 0
309 -329 474 1759 0
-93 371 -363 1760 0
-316 -235 82 1761 0
-479 201 -257 1762 0
-226 499 247 1763 0
-10 -128 -164 1764 0
288 -348 -440 1765 0
118 356 -370 1766 0
195 284 347 1767 0
-391 -278 -418 1768 0
-2 396 -348 1769 0
474 -64 -7 1770 0
27 -337 129 1771 0
-470 -474 -185 1772 0
-288 -88 -131 1773 0
406 -206 341 1774 0
317 408 131 1775 0
429 -287 394 1776 0
-377 417 152 1777 0
-70 296 77 1778 0
-55 -367 -426 1779 0
-210 -237 -123 1780 0
81 380 493 1781 0
451 172 291 1782 0
-167 272 53 1783 0
412 213 234 1784 0
363 351 -441 1785 0
-146 202 296 1786 0
329 287 -376 1787 0
-462 -46 -85 1788 0
235 -395 427 1789 0
-93 -38 118 1790 0
61 109 -66 1791 0
-247 -143 257 1792 0
-492 -317 60 1793 0
-400 103 -138 1794 0
490 439 -418 1795 0
-378 -5 273 1796 0
-326 -84 56 1797 0
-353 -414 33 1798 0
-69 100 379 1799 0
229 -374 -384 1800 0
251 143 -274 1801 0
-193 230 -433 1802 0
-32 417 310 1803 0
367 -264 23 1804 0
-295 298 230 1805 0
409 364 -182 1806 0
-430 119 -330 1807 0
-14 485 -166 1808 0
-310 -328 94 1809 0
201 495 -59 1810 0
302 -168 445 1811 0
213 -321 299 1812 0
-91 -108 274 1813 0
20 161 -309 1814 0
-476 -63 -225 1815 0
-456 -480 -110 1816 0
-458 -347 -265 1817 0
195 492 102 1818 0
-134 163 498 1819 0
417 -391 94 1820 0
271 198 -286 1821 0
-290 -143 307 1822 0
200 -57 -85 1823 0
-73 450 -355 1824 0
57 185 267 1825 0
-342 87 -384 1826 0
471 -54 468 1827 0
-185 267 25 1828 0
276 -358 -449 1829 0
-449 36 -307 1830 0
301 237 472 1831 0
-326 -95 193 1832 0
495 412 -284 1833 0
418 -458 386 1834 0
-199 109 98 1835 0
21 350 309 1836 0
353 210 233 1837 0
43 238 387 1838 0
-127 -300 -460 1839 0
288 498 162 1840 0
-54 -218 457 1841 0
-108 -146 -267 1842 0
328 -205 -58 1843 0
-77 188 -127 1844 0
-79 -478 -258 1845 0
139 -460 357 1846 0
451 238 -26 1847 0
167 202 288 1848 0
-252 429 -53 1849 0
-14 439 155 1850 0
-322 -200 -68 1851 0
495 251 7 1852 0
-354 -56 -108 1853 0
-249 -399 32 1854 0
85 -421 5 1855 0
-335 -288 55 1856 0
498 88 370 1857 0
30 326 -269 1858 0
-40 380 128 1859 0
-318 -321 105 1860 0
-106 109 417 1861 0
-351 -196 -147 1862 0
270 97 -85 1863 0
42 -155 -281 1864 0
61 -473 371 1865 0
354 445 -198 1866 0
482 196 89 1867 0
60 -374 -336 1868 0
101 366 -104 1869 0
250 433 51 1870 0
285 206 215 1871 0
402 -69 252 1872 0
96 127 28 1873 0
-359 474 -445 1874 0
390 -5 -145 1875 0
-2 -227 402 1876 0
-358 251 359 1877 0
-231 -31 -307 1878 0
-261 270 -395 1879 0
-492 -382 188 1880 0
247 46 356 1881 0
-142 -234 -486 1882 0
-43 415 -496 1883 0
333 300 499 1884 0
435 348 262 1885 0
-265 394 59 1886 0
326 34 -236 1887 0
-191 -230 215 1888 0
-70 -389 -424 1889 0
176 154 29 1890 0
469 -443 -369 1891 0
-151 422 -223 1892 0
-476 377 -463 1893 0
-213 -155 -457 1894 0
-283 -49 -485 1895 0
126 481 457 1896 0
99 -377 -463 1897 0
128 31 8 1898 0
358 -484 -108 1899 0
-20 296 -209 1900 0
-289 239 -228 1901 0
72 -328 301 1902 0
-233 158 7 1903 0
33 361 -93 1904 0
-436 -334 362 1905 0
282 -110 40 1906 0
225 -419 -35 1907 0
309 29 156 1908 0
394 -86 267 1909 0
-340 -136 122 1910 0
421 -225 -394 1911 0
60 -391 322 1912 0
-324 -160 247 1913 0
234 492 237 1914 0
148 282 186 1915 0
106 155 401 1916 0
-189 282 380 1917 0
214 -373 -166 1918 0
-8 290 313 1919 0
486 287 20 1920 0
10 413 196 1921 0
-130 222 366 1922 0
-132 -226 -325 1923 0
185 -471 459 1924 0
-153 196 -96 1925 0
-309 -84 -308 1926 0
478 469 -431 1927 0
-181 -498 356 1928 0
-146 -237 -207 1929 0
-48 -75 -368 1930 0
-450 -243 -71 1931 0
-343 234 447 1932 0
437 78 -465 1933 0
-30 -494 489 1934 0
-36 254 123 1935 0
228 25 122 1936 0
-68 431 426 1937 0
-63 -437 -16 1938 0
-75 295 -470 1939 0
218 -50 446 1940 0
106 -69 477 1941 0
79 -410 -201 1942 0
-376 114 -294 1943 0
-9 -382 63 1944 0
322 -313 -358 1945 0
-243 -299 -397 1946 0
26 -417 156 1947 0
-469 334 -202 1948 0
108 -289 129 1949 0
-152 340 -341 1950 0
-418 354 157 1951 0
202 94 150 1952 0
-186 96 -20 1953 0
57 -409 -491 1954 0
83 -494 304 1955 0
332 -175 231 1956 0
175 136 426 1957 0
-124 26 392 1958 0
-237 -478 -26 1959 0
-128 -348 212 1960 0
444 -72 225 1961 0
-154 -240 -294 1962 0
-298 -219 222 1963 0
415 -60 -390 1964 0
393 331 -159 1965 0
19 -235 -113 1966 0
-31 405 79 1967 0
-193 -357 70 1968 0
-390 -70 1 1969 0
480 -134 490 1970 0
346 261 -331 1971 0
273 342 -361 1972 0
374 -106 481 1973 0
-400 425 445 1974 0
359 -59 284 1975 0
474 -126 187 1976 0
318 464 402 1977 0
-317 -232 -331 1978 0
-82 242 259 1979 0
375 -176 -115 1980 0
-410 -176 -36 1981 0
418 -470 -77 1982 0
130 -335 18 1983 0
486 -276 -68 1984 0
425 78 462 1985 0
-28 -483 87 1986 0
335 -134 137 1987 0
127 131 -128 1988 0
-357 -19 -377 1989 0
-275 -286 -14 1990 0
-263 -490 444 1991 0
197 -285 365 1992 0
-4 260 -13 1993 0
-74 -311 -318 1994 0
-260 7 -325 1995 0
28 -396 -352 1996 0
230 385 466 1997 0
-161 -395 88 1998 0
364 -324 -46 1999 0
345 -358 -274 2000 0
26 -365 -289 2001 0
-303 -28 456 2002 0
261 400 471 2003 0
280 -236 307 2004 0
382 268 -266 2005 0
-358 -301 215 2006 0
216 -144 -169 2007 0
-181 107 -394 2008 0
375 69 -71 2009 0
335 -121 220 2010 0
475 124 230 2011 0
449 -9 135 2012 0
-237 -205 144 2013 0
-106 277 220 2014 0
-20 118 290 2015 0
290 399 268 2016 0
-184 165 414 2017 0
-379 187 197 2018 0
-29 201 329 2019 0
233 341 335 2020 0
-357 -358 -37 2021 0
-282 -204 11 2022 0
-341 263 -462 2023 0
-157 483 71 2024 0
421 -326 -3 2025 0
-298 -414 -370 2026 0
-129 98 -78 2027 0
268 92 3 2028 0
70 134 -437 2029 0
-111 263 -259 2030 0
92 479 364 2031 0
175 -75 -368 2032 0
395 275 266 2033 0
-125 160 -11 2034 0
454 -398 432 2035 0
17 -381 337 2036 0
-449 113 28 2037 0
417 193 44 2038 0
-492 -162 -150 2039 0
43 355 367 2040 0
-177 142 -115 2041 0
1 416 487 2042 0
-399 -34 -137 2043 0
-484 144 -397 2044 0
469 293 -496 2045 0
475 -331 499 2046 0
4 -425 -64 2047 0
-53 462 47 2048 0
207 -301 -423 2049 0
191 -262 132 2050 0
-416 70 -215 2051 0
-468 -489 49 2052 0
75 357 427 2053 0
204 -347 -380 2054 0
22 448 -211 2055 0
-428 160 62 2056 0
-472 -240 154 2057 0
82 -408 -448 2058 0
-140 413 -179 2059 0
130 -443 25 2060 0
35 119 21 2061 0
-392 112 439 2062 0
423 425 286 2063 0
457 373 250 2064 0
-218 -411 34 2065 0
312 93 -306 2066 0
-101 -266 -480 2067 0
-344 -217 203 2068 0
474 353 476 2069 0
251 27 399 2070 0
-134 296 37 2071 0
-459 -70 -182 2072 0
-416 406 -360 2073 0
176 170 71 2074 0
-352 125 222 2075 0
-394 418 -461 2076 0
-438 350 -146 2077 0
-37 -46 -351 2078 0
-196 14 473 2079 0
-219 -284 -124 2080 0
-39 439 229 2081 0
400 -493 -153 2082 0
244 -436 -448 2083 0
315 180 -487 2084 0
353 -122 452 2085 0
-61 437 -447 2086 0
160 311 -59 2087 0
336 477 -142 2088 0
310 57 163 2089 0
8 -343 55 2090 0
-26 204 -432 2091 0
222 -123 -114 2092 0
-245 28 -100 2093 0
224 323 483 2094 0
-418 -1 149 2095 0
-208 10 89 2096 0
-405 -70 66 2097 0
-304 319 -31 2098 0
-96 -14 -460 2099 0
119 295 227 2100 0
396 -267 200 2101 0
-305 -33 388 2102 0
284 238 -101 2103 0
425 -350 -416 2104 0
-140 298 109 2105 0
-110 8 -18 2106 0
-244 276 -214 2107 0
-144 306 -255 2108 0
44 -372 -280 2109 0
-68 -496 -481 2110 0
223 205 323 2111 0
-474 -83 471 2112 0
218 -476 69 2113 0
279 -54 -252 2114 0
230 463 -225 2115 0
255 -274 117 2116 0
-133 -141 -364 2117 0
-200 241 266 2118 0
387 167 370 2119 0
19 336 -288 2120 0
247 183 162 2121 0
153 -248 -474 2122 0
-356 80 -21 2123 0
-102 408 218 2124 0
110 -225 469 2125 0
-157 -353 -67 2126 0
390 -428 -377 2127 0
159 -314 101 2128 0
207 -212 357 2129 0
-191 -197 253 2130 0
-176 -241 -256 2131 0
417 -182 31 2132 0
96 -217 -294 2133 0
358 316 334 2134 0
91 317 -282 2135 0
202 -179 -267 2136 0
-387 341 215 2137 0
299 -340 240 2138 0
-451 472 -262 2139 0
348 -500 -199 2140 0
68 415 -491 2141 0
-284 168 110 2142 0
-32 208 130 2143 0
-485 -197 335 2144 0
-110 -161 -152 2145 0
-114 419 -221 2146 0
-263 5 428 2147 0
490 -205 204 2148 0
-272 59 -29 2149 0
315 -466 396 2150 0
-86 -404 -378 2151 0
-183 -257 -440 2152 0
318 97 96 2153 0
106 -90 183 2154 0
206 -259 318 2155 0
264 261 -233 2156 0
454 -150 -451 2157 0
-251 136 -211 2158 0
148 -183 -354 2159 0
-85 -37 -97 2160 0
272 231 -441 2161 0
-372 487 371 2162 0
-292 -25 215 2163 0
-166 26 170 2164 0
135 -69 -248 2165 0
-338 42 150 2166 0
-298 334 488 2167 0
-258 -47 446 2168 0
122 -316 100 2169 0
-382 -290 145 2170 0
-232 198 -253 2171 0
479 286 405 2172 0
-387 -314 -339 2173 0
354 -69 -346 2174 0
-164 494 291 2175 0
99 431 382 2176 0
433 -323 389 2177 0
255 471 -175 2178 0
-469 -106 345 2179 0
-395 -360 159 2180 0
405 463 -213 2181 0
371 115 -340 2182 0
-371 -89 -147 2183 0
293 489 -11 2184 0
-194 -144 487 2185 0
390 -38 246 2186 0
-455 428 -414 2187 0
-387 197 310 2188 0
212 422 -166 2189 0
-298 -130 -332 2190 0
106 261 -100 2191 0
23 -271 -347 2192 0
347 -279 238 2193 0
329 277 -10 2194 0
-393 78 7 2195 0
-178 31 -82 2196 0
-461 58 -366 2197 0
-472 -399 -71 2198 0
-168 -439 -453 2199 0
-206 -446 -321 2200 0
-290 -374 -406 2201 0
376 -55 -237 2202 0
134 410 137 2203 0
268 -339 -274 2204 0
383 -56 219 2205 0
217 492 -181 2206 0
-494 139 62 2207 0
-98 147 354 2208 0
-472 -404 -30 2209 0
454 -143 -366 2210 0
402 439 246 2211 0
-295 -271 167 2212 0
112 387 -39 2213 0
-9 -196 208 2214 0
-158 378 -11 2215 0
122 131 -204 2216 0
298 -394 453 2217 0
-242 158 325 2218 0
-59 469 -337 2219 0
-97 75 -6 2220 0
-102 313 -255 2221 0
-290 207 -88 2222 0
81 400 166 2223 0
22 192 322 2224 0
159 225 -356 2225 0
-103 156 -402 2226 0
-60 -460 -66 2227 0
-40 404 161 2228 0
-143 229 287 2229 0
497 434 -37 2230 0
333 109 -214 2231 0
-62 -304 312 2232 0
467 107 83 2233 0
286 -236 432 2234 0
27 -324 390 2235 0
386 101 -24 2236 0
148 495 -189 2237 0
146 -456 22 2238 0
-279 342 463 2239 0
-362 -203 -132 2240 0
-159 375 138 2241 0
85 -410 -360 2242 0
486 -73 165 2243 0
-246 98 -417 2244 0
420 -88 -330 2245 0
11 -327 -66 2246 0
-355 497 -78 2247 0
-39 -146 -133 2248 0
-3 146 -466 2249 0
-2 -27 46 2250 0
132 454 19 2251 0
392 290 162 2252 0
200 403 289 2253 0
121 -95 477 2254 0
144 2 -217 2255 0
-167 183 -466 2256 0
-139 -243 -151 2257 0
348 -274 15 2258 0
-96 -381 -406 2259 0
-51 46 149 2260 0
-428 68 100 2261 0
55 243 -189 2262 0
-113 441 -274 2263 0
74 442 -411 2264 0
269 270 408 2265 0
-34 -173 267 2266 0
-357 -393 117 2267 0
154 125 -440 2268 0
-449 31 175 2269 0
-100 -350 379 2270 0
-72 -6 -153 2271 0
288 -61 492 2272 0
-374 205 -493 2273 0
-413 205 -177 2274 0
304 485 177 2275 0
-79 35 78 2276 0
-484 -247 76 2277 0
189 209 -484 2278 0
-152 84 81 2279 0
-457 322 -469 2280 0
-200 315 -311 2281 0
-408 421 -401 2282 0
361 495 -402 2283 0
-268 229 396 2284 0
444 -27 81 2285 0
-130 -308 465 2286 0
119 -2 271 2287 0
266 420 457 2288 0
-106 161 -123 2289 0
-198 -467 -458 2290 0
-163 -8 -264 2291 0
363 236 370 2292 0
-78 -491 351 2293 0
309 -375 -229 2294 0
-138 13 177 2295 0
56 283 -163 2296 0
210 -358 -236 2297 0
344 415 -104 2298 0
-382 -231 205 2299 0
446 194 -454 2300 0
-118 148 -446 2301 0
-189 86 242 2302 0
203 173 273 2303 0
325 -215 162 2304 0
-483 376 -105 2305 0
392 440 -229 2306 0
-457 192 -429 2307 0
-380 192 -102 2308 0
-210 218 -59 2309 0
-93 86 303 2310 0
44 -425 -206 2311 0
-460 -487 105 2312 0
227 453 446 2313 0
-461 160 -311 2314 0
-343 318 -356 2315 0
256 208 136 2316 0
192 453 139 2317 0
212 307 493 2318 0
67 150 -459 2319 0
-333 291 347 2320 0
282 250 388 2321 0
389 160 -106 2322 0
290 -123 -224 2323 0
260 -161 37 2324 0
124 -449 415 2325 0
-101 -179 80 2326 0
155 -245 -325 2327 0
11 436 -117 2328 0
-288 -398 183 2329 0
154 -234 406 2330 0
257 254 314 2331 0
55 -362 192 2332 0
452 -379 132 2333 0
-187 378 289 2334 0
45 396 214 2335 0
439 108 -494 2336 0
-361 -180 486 2337 0
-67 248 193 2338 0
489 6 12 2339 0
-258 -93 337 2340 0
283 284 -256 2341 0
115 -463 474 2342 0
100 248 -409 2343 0
-370 -174 42 2344 0
-139 230 455 2345 0
-239 232 -262 2346 0
278 -467 -71 2347 0
-425 132 104 2348 0
488 92 180 2349 0
-117 294 77 2350 0
70 115 202 2351 0
-127 -442 144 2352 0
-205 -467 105 2353 0
75 -469 -410 2354 0
-33 -345 27 2355 0
23 -81 -457 2356 0
170 -67 400 2357 0
-302 -86 312 2358 0
182 30 -341 2359 0
-122 -352 347 2360 0
-484 -450 -472 2361 0
103 -473 -410 2362 0
-191 264 -448 2363 0
378 266 -149 2364 0
439 -153 432 2365 0
223 -238 -125 2366 0
382 -42 192 2367 0
-40 56 -390 2368 0
-234 -29 -387 2369 0
42 -448 198 2370 0
-268 -407 102 2371 0
-493 464 431 2372 0
480 330 87 2373 0
116 466 -280 2374 0
-176 -154 -88 2375 0
244 490 30 2376 0
359 261 125 2377 0
-170 126 172 2378 0
160 -462 -288 2379 0
92 -120 430 2380 0
343 -479 338 2381 0
178 263 -10 2382 0
469 429 -111 2383 0
241 -454 257 2384 0
-399 458 -234 2385 0
-121 -8 58 2386 0
174 423 121 2387 0
-348 3 -432 2388 0
-286 -467 -46 2389 0
38 391 32 2390 0
-336 -440 296 2391 0
405 333 217 2392 0
125 -443 7 2393 0
-343 -483 -164 2394 0
204 30 264 2395 0
70 -339 -385 2396 0
-472 84 482 2397 0
-356 -464 -109 2398 0
408 -482 389 2399 0
297 411 483 2400 0
349 466 55 2401 0
13 299 -221 2402 0
-498 -223 253 2403 0
1 213 131 2404 0
-121 -61 326 2405 0
-490 2 478 2406 0
481 86 -485 2407 0
-324 407 480 2408 0
-365 -270 214 2409 0
-23 -310 -80 2410 0
387 173 354 2411 0
85 -445 -177 2412 0
-29 -308 -381 2413 0
-109 -350 -143 2414 0
-14 439 -403 2415 0
-496 -172 -221 2416 0
22 -278 -234 2417 0
-78 11 -494 2418 0
181 191 37 2419 0
-284 -133 -257 2420 0
183 -352 -467 2421 0
-102 221 117 2422 0
150 41 215 2423 0
-259 -141 -7 2424 0
313 -282 -321 2425 0
225 -284 500 2426 0
-296 251 -168 2427 0
-229 322 -436 2428 0
-310 383 471 2429 0
489 364 345 2430 0
182 131 -107 2431 0
-424 366 -193 2432 0
-425 169 90 2433 0
226 -42 445 2434 0
197 -436 -351 2435 0
10 470 -488 2436 0
318 302 -221 2437 0
-469 2 311 2438 0
145 356 -304 2439 0
-147 421 -386 2440 0
-82 300 -108 2441 0
81 496 -19 2442 0
107 46 -409 2443 0
-89 24 -142 2444 0
-299 137 497 2445 0
137 459 -266 2446 0
-453 395 -466 2447 0
370 -188 -95 2448 0
339 -189 10 2449 0
-172 -283 -481 2450 0
292 81 280 2451 0
-253 -277 -389 2452 0
27 173 -498 2453 0
204 446 457 2454 0
-392 -272 476 2455 0
-474 -369 -47 2456 0
-21 438 64 2457 0
-245 -489 -497 2458 0
218 108 230 2459 0
210 365 -474 2460 0
427 289 106 2461 0
-200 421 -295 2462 0
-338 96 426 2463 0
430 -399 446 2464 0
211 -435 -156 2465 0
-74 -289 -326 2466 0
-320 -490 107 2467 0
-198 382 -319 2468 0
407 258 275 2469 0
14 353 -30 2470 0
-317 -492 166 2471 0
41 -204 -57 2472 0
169 2 69 2473 0
-387 65 -500 2474 0
248 91 421 2475 0
241 -49 162 2476 0
-411 -70 -236 2477 0
-207 413 177 2478 0
-189 399 -23 2479 0
63 -107 454 2480 0
-314 -486 259 2481 0
128 -310 183 2482 0
466 84 272 2483 0
-138 142 326 2484 0
-461 -2 451 2485 0
-381 -363 437 2486 0
15 467 301 2487 0
104 101 -388 2488 0
-446 -38 -111 2489 0
2 -340 135 2490 0
-86 76 -471 2491 0
420 349 295 2492 0
-60 -382 370 2493 0
78 94 297 2494 0
205 -225 478 2495 0
-474 -24 59 2496 0
302 134 366 2497 0
-235 357 -374 2498 0
49 66 248 2499 0
387 -138 117 2500 0
103 22 -455 2501 0
-489 213 453 2502 0
193 -129 317 2503 0
73 111 269 2504 0
332 -47 23 2505 0
-204 -476 -248 2506 0
389 -400 -358 2507 0
500 -267 -481 2508 0
-428 -113 461 2509 0
486 -352 -24 2510 0
374 98 369 2511 0
169 411 -382 2512 0
334 77 26 2513 0
101 40 -11 2514 0
-440 334 332 2515 0
-206 -233 201 2516 0
-485 -161 101 2517 0
-215 -257 -28 2518 0
211 168 276 2519 0
-493 464 72 2520 0
-160 362 412 2521 0
-436 24 128 2522 0
58 -299 -401 2523 0
264 -104 -499 2524 0
-82 483 -57 2525 0
29 -334 -70 2526 0
301 440 349 2527 0
412 -148 -204 2528 0
-378 362 -432 2529 0
-157 399 -384 2530 0
47 185 -72 2531 0
227 494 -440 2532 0
310 183 -299 2533 0
-39 159 348 2534 0
-287 -345 -15 2535 0
97 -265 -284 2536 0
-263 301 49 2537 0
-245 91 142 2538 0
97 209 376 2539 0
412 227 -295 2540 0
318 201 -168 2541 0
236 -298 121 2542 0
335 -404 65 2543 0
336 -282 370 2544 0
432 192 -277 2545 0
35 -17 6 2546 0
155 289 -125 2547 0
-271 442 -384 2548 0
-103 -460 -422 2549 0
-112 284 424 2550 0
-423 449 -89 2551 0
420 -256 -220 2552 0
281 -57 177 2553 0
-136 -395 -109 2554 0
-274 -289 432 2555 0
273 -377 297 2556 0
9 -388 157 2557 0
-348 -287 -192 2558 0
419 178 488 2559 0
-427 60 -308 2560 0
89 279 147 2561 0
-332 -117 -212 2562 0
404 215 413 2563 0
-261 -114 295 2564 0
-83 318 -201 2565 0
-454 -57 -32 2566 0
448 -117 44 2567 0
-248 77 81 2568 0
-412 -433 -358 2569 0
296 -126 -183 2570 0
-391 -408 -183 2571 0
413 -435 58 2572 0
452 440 287 2573 0
-424 -204 484 2574 0
496 16 -277 2575 0
164 58 34 2576 0
176 -448 406 2577 0
-66 -98 200 2578 0
-224 437 128 2579 0
-349 -330 -52 2580 0
-16 -159 112 2581 0
-85 -43 156 2582 0
348 -99 238 2583 0
467 -190 -127 2584 0
-479 311 38 2585 0
-129 -410 -440 2586 0
-4 392 -406 2587 0
-85 -461 151 2588 0
257 344 -221 2589 0
111 -158 -7 2590 0
-249 147 -386 2591 0
-443 68 -8 2592 0
103 -318 89 2593 0
256 -260 -410 2594 0
436 33 -99 2595 0
-372 339 -74 2596 0
478 -312 375 2597 0
-306 -485 -226 2598 0
35 416 366 2599 0
61 -183 379 2600 0
203 -439 -281 2601 0
-110 194 118 2602 0
496 -3 242 2603 0
-398 -174 203 2604 0
-256 163 444 2605 0
288 334 207 2606 0
10 -236 311 2607 0
85 -119 -104 2608 0
-481 -374 11 2609 0
359 -332 371 2610 0
-50 305 -86 2611 0
-117 79 23 2612 0
-344 289 155 2613 0
-54 -247 296 2614 0
-326 191 169 2615 0
-479 260 -142 2616 0
384 -465 388 2617 0
-223 476 -388 2618 0
-43 88 449 2619 0
-175 189 -260 2620 0
-428 473 -309 2621 0
-166 243 -391 2622 0
278 119 252 2623 0
-403 -195 -210 2624 0
495 227 278 2625 0
453 191 255 2626 0
-293 93 444 2627 0
-206 381 264 2628 0
-298 256 368 2629 0
-257 -362 51 2630 0
-161 -169 -96 2631 0
166 156 -196 2632 0
172 135 30 2633 0
-61 361 -339 2634 0
46 434 -118 2635 0
152 276 28 2636 0
-92 -137 178 2637 0
-323 -171 -361 2638 0
335 394 -498 2639 0
-391 -432 244 2640 0
131 -26 -436 2641 0
-364 428 283 2642 0
-160 -383 352 2643 0
437 370 -32 2644 0
-492 -79 -71 2645 0
-250 307 483 2646 0
39 -467 479 2647 0
-403 193 499 2648 0
491 394 301 2649 0
128 170 -450 2650 0
