p cnf 2650 2150
-214 141 192 501 0
-163 280 -191 502 0
283 -174 422 503 0
86 -243 398 504 0
337 169 239 505 0
499 211 75 506 0
480 418 -260 507 0
-219 75 -372 508 0
-461 -129 385 509 0
-347 316 52 510 0
-341 -302 -29 511 0
393 93 -471 512 0
128 -158 -411 513 0
208 -372 -440 514 0
-451 463 -11 515 0
-79 365 -262 516 0
-127 60 -468 517 0
-478 41 209 518 0
-485 473 -492 519 0
-267 -125 -175 520 0
-30 -344 -498 521 0
-234 -252 -18 522 0
404 95 275 523 0
145 -51 -42 524 0
461 -185 84 525 0
202 125 -151 526 0
-337 -208 215 527 0
-407 -233 -86 528 0
-496 -52 -218 529 0
-449 -261 -126 530 0
458 -316 -8 531 0
86 196 437 532 0
-489 468 332 533 0
-141 135 391 534 0
-51 -45 436 535 0
213 -47 255 536 0
73 -182 -108 537 0
-1 -252 -402 538 0
377 116 15 539 0
369 381 120 540 0
303 219 235 541 0
-18 -492 -253 542 0
151 319 -439 543 0
323 -23 499 544 0
207 -75 -286 545 0
-407 -181 -270 546 0
369 -184 228 547 0
-125 2 168 548 0
6 287 -363 549 0
-424 299 -127 550 0
353 137 64 551 0
-281 -208 191 552 0
-4 185 -175 553 0
-330 -347 497 554 0
357 476 -166 555 0
89 273 315 556 0
35 -204 167 557 0
463 466 291 558 0
131 162 21 559 0
-400 412 -178 560 0
-63 381 342 561 0
479 -111 -308 562 0
273 -402 477 563 0
481 -155 -292 564 0
-386 -54 445 565 0
-76 262 -425 566 0
321 116 -102 567 0
-240 365 -464 568 0
-255 246 455 569 0
380 -198 -204 570 0
468 159 445 571 0
338 80 -241 572 0
-170 -109 391 573 0
-318 385 -51 574 0
131 290 254 575 0
403 50 -68 576 0
209 301 -28 577 0
-415 15 -211 578 0
-5 305 63 579 0
-186 -23 -50 580 0
-14 -215 124 581 0
497 -118 -324 582 0
105 -124 71 583 0
-220 400 -141 584 0
-8 431 385 585 0
-455 -18 -494 586 0
390 152 86 587 0
-139 212 -396 588 0
322 421 55 589 0
72 380 -97 590 0
76 -381 -10 591 0
-153 -141 80 592 0
437 246 68 593 0
318 481 145 594 0
-118 -257 -35 595 0
-104 -90 327 596 0
-417 -268 326 597 0
217 5 -199 598 0
-492 -13 119 599 0
-395 447 -124 600 0
107 76 8 601 0
43 -46 -490 602 0
401 95 -185 603 0
258 -467 190 604 0
-297 -200 -19 605 0
-1 137 -356 606 0
-391 -177 321 607 0
-184 120 -317 608 0
253 -400 36 609 0
289 -12 41 610 0
-399 308 364 611 0
-74 -355 -452 612 0
-175 239 -242 613 0
-129 -474 -391 614 0
-252 377 -415 615 0
-401 443 -442 616 0
-71 -270 -396 617 0
-79 382 53 618 0
16 -436 -227 619 0
204 -447 84 620 0
117 -141 34 621 0
141 404 -114 622 0
-116 -292 -469 623 0
469 273 151 624 0
390 155 457 625 0
413 393 73 626 0
452 -107 214 627 0
220 -433 32 628 0
144 368 483 629 0
313 136 64 630 0
373 -231 -418 631 0
-328 -497 -398 632 0
282 -266 52 633 0
486 -333 -357 634 0
444 -191 479 635 0
-138 -106 197 636 0
-4 500 -466 637 0
-211 49 -360 638 0
-277 383 -476 639 0
-470 -156 101 640 0
-402 -355 250 641 0
500 -436 337 642 0
-177 190 486 643 0
324 309 -461 644 0
-368 -85 12 645 0
98 -165 -265 646 0
296 -65 478 647 0
59 344 -377 648 0
-181 443 -414 649 0
-75 210 369 650 0
-211 424 -421 651 0
470 356 -138 652 0
192 -375 -148 653 0
-154 -158 369 654 0
-492 -281 105 655 0
459 -301 -182 656 0
238 -309 -128 657 0
-69 -68 -428 658 0
-465 -471 -358 659 0
-190 -261 -342 660 0
-58 -427 125 661 0
270 148 -213 662 0
-229 -447 112 663 0
-232 -161 251 664 0
-265 146 429 665 0
-212 326 -384 666 0
281 -431 -370 667 0
337 -316 142 668 0
236 76 185 669 0
-322 49 199 670 0
70 160 -468 671 0
-7 -170 -422 672 0
482 -207 28 673 0
351 -461 22 674 0
85 382 38 675 0
107 -400 -98 676 0
66 -116 470 677 0
245 -181 -277 678 0
-181 -262 -34 679 0
-404 -47 -279 680 0
-218 -49 -192 681 0
62 -282 90 682 0
-165 257 348 683 0
-238 172 -327 684 0
-450 -115 -92 685 0
-373 -84 164 686 0
-434 -239 141 687 0
262 333 -406 688 0
-48 -285 -120 689 0
-327 383 381 690 0
455 457 -160 691 0
494 295 230 692 0
-132 -489 102 693 0
95 398 153 694 0
400 469 -345 695 0
208 258 -94 696 0
168 474 338 697 0
-161 -66 397 698 0
-200 -32 -147 699 0
-106 377 -300 700 0
72 -124 -467 701 0
19 373 256 702 0
210 -77 320 703 0
126 -32 71 704 0
-76 61 -238 705 0
442 -413 278 706 0
54 450 26 707 0
-81 499 376 708 0
402 -299 -486 709 0
317 138 40 710 0
394 352 155 711 0
-124 141 422 712 0
-2 -343 397 713 0
-281 -417 -2 714 0
-105 -258 387 715 0
-154 332 63 716 0
-412 -478 292 717 0
-469 485 396 718 0
-158 -240 52 719 0
-172 150 224 720 0
437 -242 386 721 0
-11 209 360 722 0
436 -374 -398 723 0
180 67 275 724 0
-179 -69 -170 725 0
357 413 180 726 0
-405 -500 498 727 0
-472 3 -376 728 0
220 -479 -332 729 0
-251 -337 241 730 0
-388 -119 14 731 0
-41 292 295 732 0
479 -159 290 733 0
369 101 309 734 0
-302 -257 1 735 0
-120 -153 458 736 0
146 52 28 737 0
-395 95 465 738 0
252 372 296 739 0
-318 -32 353 740 0
-25 352 170 741 0
134 -306 476 742 0
304 352 164 743 0
314 -139 -55 744 0
195 -275 -312 745 0
354 -484 93 746 0
207 82 486 747 0
167 314 -356 748 0
-473 446 192 749 0
475 -377 357 750 0
-211 -440 409 751 0
364 127 -395 752 0
-35 -497 -10 753 0
413 288 -56 754 0
-499 -399 -326 755 0
-296 442 -218 756 0
-335 -209 -340 757 0
349 -129 -440 758 0
-56 -11 -288 759 0
-168 -245 -200 760 0
270 320 -247 761 0
416 -288 314 762 0
-403 -171 343 763 0
114 67 490 764 0
-318 296 123 765 0
135 193 19 766 0
147 -360 469 767 0
-407 382 170 768 0
74 70 131 769 0
29 -324 253 770 0
326 352 402 771 0
112 -240 314 772 0
-415 -411 -152 773 0
-363 26 -248 774 0
-431 -192 -218 775 0
-163 127 387 776 0
-155 -299 -306 777 0
-470 360 -231 778 0
461 -196 -62 779 0
470 -160 -75 780 0
-114 -467 436 781 0
-459 301 -86 782 0
-197 -222 -498 783 0
-185 -243 -196 784 0
225 -118 -405 785 0
328 146 168 786 0
-257 -463 -351 787 0
49 277 -47 788 0
357 -264 -382 789 0
494 251 -290 790 0
-500 271 372 791 0
-411 -324 483 792 0
191 378 334 793 0
368 -255 -251 794 0
-360 -189 -407 795 0
-314 -493 270 796 0
-192 -284 -381 797 0
380 138 16 798 0
-335 -393 121 799 0
-255 -215 -156 800 0
223 -420 -199 801 0
-247 -159 -15 802 0
141 -475 252 803 0
387 -247 402 804 0
-127 274 -368 805 0
440 174 -465 806 0
386 -107 -31 807 0
30 -316 40 808 0
102 351 -263 809 0
-26 -417 485 810 0
204 -253 464 811 0
-65 282 75 812 0
-278 -24 -34 813 0
402 407 -13 814 0
-167 -175 -412 815 0
485 129 -456 816 0
-131 145 -65 817 0
-315 140 -351 818 0
223 18 137 819 0
-189 390 462 820 0
-322 346 -354 821 0
192 454 -179 822 0
-20 -242 -85 823 0
205 -85 174 824 0
-260 -308 -297 825 0
169 493 -202 826 0
274 -362 497 827 0
384 209 417 828 0
-9 485 292 829 0
302 394 -13 830 0
19 -376 338 831 0
104 -194 284 832 0
176 187 298 833 0
342 -323 -322 834 0
144 -59 469 835 0
401 12 179 836 0
-107 -427 -181 837 0
-253 -21 371 838 0
487 212 269 839 0
-129 -200 122 840 0
324 275 -45 841 0
491 -456 179 842 0
-361 -482 -144 843 0
310 47 139 844 0
-332 478 362 845 0
-208 316 -442 846 0
126 139 131 847 0
280 135 -147 848 0
-150 -299 221 849 0
62 -394 -401 850 0
166 335 -355 851 0
-175 -385 -146 852 0
-386 -195 -48 853 0
348 284 473 854 0
-93 12 462 855 0
-191 -429 -132 856 0
183 80 398 857 0
-493 -155 239 858 0
311 -325 -445 859 0
-172 378 247 860 0
-165 -205 -277 861 0
-151 57 336 862 0
362 -162 -388 863 0
415 185 99 864 0
-183 16 138 865 0
369 256 2 866 0
-440 34 -5 867 0
381 139 -408 868 0
-222 -278 105 869 0
-68 -165 248 870 0
-53 20 -165 871 0
-235 354 -67 872 0
-500 -265 -235 873 0
346 -400 -79 874 0
37 -44 -438 875 0
390 -281 -241 876 0
-454 365 -448 877 0
48 214 407 878 0
489 -305 433 879 0
204 -264 157 880 0
-157 -108 -365 881 0
125 -416 320 882 0
-181 -86 -348 883 0
-428 -391 -252 884 0
-424 217 -486 885 0
415 154 375 886 0
-91 -254 -268 887 0
-252 -83 -419 888 0
376 367 235 889 0
-154 302 6 890 0
316 473 -37 891 0
-101 -265 49 892 0
-310 179 486 893 0
368 228 475 894 0
-357 -414 342 895 0
113 -279 -454 896 0
-122 -232 -38 897 0
-476 292 385 898 0
209 -125 -438 899 0
-110 7 -8 900 0
-6 251 239 901 0
-159 85 436 902 0
-39 56 5 903 0
-206 36 462 904 0
-31 278 -196 905 0
-321 169 372 906 0
202 235 -446 907 0
144 202 71 908 0
-65 47 -3 909 0
245 -380 105 910 0
-45 127 465 911 0
455 163 -494 912 0
372 37 256 913 0
-409 296 77 914 0
27 -451 244 915 0
492 37 -67 916 0
397 24 -442 917 0
-230 -14 -188 918 0
-12 414 37 919 0
303 479 418 920 0
-186 308 -446 921 0
-3 -479 88 922 0
-382 413 425 923 0
463 60 265 924 0
-403 -38 -83 925 0
365 -343 110 926 0
214 -116 351 927 0
65 -439 98 928 0
-56 -26 -422 929 0
-299 104 418 930 0
-313 -19 373 931 0
-407 203 347 932 0
-152 301 295 933 0
238 -354 -181 934 0
-218 -472 -25 935 0
195 -487 99 936 0
34 -439 -26 937 0
-64 397 -199 938 0
-114 372 10 939 0
203 -42 338 940 0
-128 351 -18 941 0
-262 141 229 942 0
40 373 -244 943 0
161 -213 -123 944 0
-89 342 210 945 0
-423 -119 -404 946 0
-291 -80 -44 947 0
-103 -399 141 948 0
-422 121 321 949 0
456 471 -332 950 0
14 -180 -406 951 0
-494 162 -170 952 0
399 -385 21 953 0
-249 189 98 954 0
-24 -62 -46 955 0
195 62 -255 956 0
333 16 -274 957 0
-376 298 160 958 0
7 288 -270 959 0
277 275 367 960 0
442 -469 21 961 0
266 397 -61 962 0
-387 -255 -225 963 0
436 27 345 964 0
85 53 -385 965 0
210 170 365 966 0
455 -406 329 967 0
-477 67 357 968 0
-132 -35 122 969 0
372 91 466 970 0
441 -63 149 971 0
-377 -283 45 972 0
57 422 388 973 0
-292 -81 68 974 0
36 -375 -495 975 0
322 -28 224 976 0
428 107 -138 977 0
-8 84 -258 978 0
-136 180 259 979 0
-280 185 481 980 0
-462 311 496 981 0
362 289 -175 982 0
213 294 227 983 0
-330 -114 -488 984 0
-137 354 199 985 0
-21 242 -175 986 0
-93 267 481 987 0
110 21 92 988 0
116 -368 -372 989 0
265 41 42 990 0
11 -97 -335 991 0
4 -10 -271 992 0
-449 75 170 993 0
111 105 368 994 0
294 -49 -201 995 0
465 -240 429 996 0
455 -348 273 997 0
-379 382 203 998 0
217 -59 -89 999 0
234 -302 -152 1000 0
-467 305 -15 1001 0
-318 -455 -245 1002 0
90 196 -179 1003 0
-438 -270 464 1004 0
-453 444 197 1005 0
-79 44 -185 1006 0
-164 -2 -103 1007 0
153 452 398 1008 0
-228 76 470 1009 0
198 317 184 1010 0
-426 -382 -400 1011 0
-382 -65 -494 1012 0
165 -326 103 1013 0
-327 338 -291 1014 0
427 -475 356 1015 0
-395 -248 -363 1016 0
18 281 474 1017 0
344 -115 36 1018 0
-219 -16 -50 1019 0
-14 144 -121 1020 0
-414 314 18 1021 0
-75 -451 -269 1022 0
230 224 388 1023 0
-134 175 -217 1024 0
-299 340 -465 1025 0
259 -261 -310 1026 0
-388 348 -39 1027 0
-169 -60 404 1028 0
-41 107 -313 1029 0
483 119 264 1030 0
-458 -56 81 1031 0
274 127 -87 1032 0
-20 402 472 1033 0
-371 137 64 1034 0
10 -495 -209 1035 0
321 -201 134 1036 0
-39 151 -300 1037 0
348 407 -411 1038 0
-281 -316 -285 1039 0
-47 -184 270 1040 0
-424 272 462 1041 0
441 -421 401 1042 0
476 357 -478 1043 0
-454 -130 -136 1044 0
-44 362 -308 1045 0
-181 -2 331 1046 0
456 455 -351 1047 0
-203 -93 261 1048 0
-134 364 -161 1049 0
70 -95 364 1050 0
-311 463 99 1051 0
5 428 -217 1052 0
-121 435 30 1053 0
-28 344 -427 1054 0
-228 22 -325 1055 0
34 62 -54 1056 0
247 105 -404 1057 0
32 283 -356 1058 0
-32 -123 -241 1059 0
259 205 -263 1060 0
267 89 427 1061 0
326 403 380 1062 0
251 87 -457 1063 0
-237 -152 327 1064 0
342 -482 -141 1065 0
-139 -260 -271 1066 0
-441 201 468 1067 0
75 192 213 1068 0
266 -314 -441 1069 0
219 265 -274 1070 0
310 -162 386 1071 0
479 132 213 1072 0
-168 -268 -428 1073 0
393 63 -131 1074 0
-419 342 467 1075 0
431 357 -39 1076 0
-321 280 -135 1077 0
283 459 42 1078 0
-369 -177 -279 1079 0
221 -249 -356 1080 0
-459 367 -310 1081 0
318 -129 205 1082 0
-461 73 110 1083 0
370 -234 452 1084 0
-192 -399 228 1085 0
371 -359 -84 1086 0
-388 -198 114 1087 0
-437 -288 -445 1088 0
-121 -254 459 1089 0
-430 -158 -344 1090 0
448 -357 -402 1091 0
256 -194 -390 1092 0
481 -392 -133 1093 0
50 -198 422 1094 0
174 327 242 1095 0
-427 -497 -171 1096 0
-6 95 -268 1097 0
97 21 -442 1098 0
-429 -460 -217 1099 0
67 -472 -462 1100 0
-364 277 -130 1101 0
-188 -482 -80 1102 0
-33 458 287 1103 0
-408 90 -122 1104 0
60 -169 243 1105 0
-390 -12 404 1106 0
-247 -489 -474 1107 0
278 13 260 1108 0
-474 27 -361 1109 0
448 -179 -288 1110 0
-245 -191 -308 1111 0
202 -354 -453 1112 0
175 -36 449 1113 0
11 487 229 1114 0
-183 -449 -207 1115 0
481 284 266 1116 0
140 386 18 1117 0
86 -251 -278 1118 0
-263 208 -458 1119 0
-230 35 -353 1120 0
26 -392 -354 1121 0
147 188 -471 1122 0
37 -486 140 1123 0
493 -391 462 1124 0
172 -193 76 1125 0
-335 -167 -18 1126 0
-40 376 71 1127 0
-285 288 -414 1128 0
-5 98 -283 1129 0
88 -317 -201 1130 0
127 375 346 1131 0
-154 452 410 1132 0
77 266 81 1133 0
-364 -12 317 1134 0
294 -139 -498 1135 0
99 455 264 1136 0
278 27 -476 1137 0
-102 -26 375 1138 0
165 -354 492 1139 0
377 -181 -53 1140 0
-86 384 131 1141 0
-353 -311 5 1142 0
-354 335 -247 1143 0
469 262 448 1144 0
252 -20 -413 1145 0
467 321 364 1146 0
193 -313 37 1147 0
457 -75 279 1148 0
472 -324 442 1149 0
142 37 -205 1150 0
-468 172 -499 1151 0
-27 -56 263 1152 0
5 258 486 1153 0
-75 -159 482 1154 0
-350 361 138 1155 0
-468 17 -177 1156 0
21 242 443 1157 0
136 400 -414 1158 0
266 499 -49 1159 0
104 -462 -181 1160 0
-296 351 -270 1161 0
-197 227 133 1162 0
496 -283 102 1163 0
-274 -495 -41 1164 0
24 -76 -319 1165 0
-285 -217 -250 1166 0
35 -391 -86 1167 0
-350 335 99 1168 0
334 -348 -372 1169 0
442 113 29 1170 0
-36 -252 -423 1171 0
-469 -134 -450 1172 0
307 -152 185 1173 0
-173 -215 350 1174 0
221 -19 270 1175 0
257 -291 73 1176 0
313 -37 -332 1177 0
-68 -204 412 1178 0
-440 315 126 1179 0
-203 -244 8 1180 0
-327 -350 429 1181 0
-493 -96 329 1182 0
445 -93 -193 1183 0
-41 -103 -128 1184 0
-254 -109 89 1185 0
166 454 -239 1186 0
-201 -229 220 1187 0
-284 287 -460 1188 0
480 204 -292 1189 0
-414 160 -232 1190 0
-355 378 129 1191 0
-95 -108 137 1192 0
452 12 -144 1193 0
-211 -220 -424 1194 0
-352 -168 -70 1195 0
486 -101 -454 1196 0
257 -37 -463 1197 0
405 -124 -226 1198 0
-360 -2 -398 1199 0
222 115 -309 1200 0
168 410 -454 1201 0
-263 14 -169 1202 0
159 -51 -392 1203 0
-126 -298 256 1204 0
169 -467 320 1205 0
324 367 215 1206 0
473 271 -164 1207 0
424 -209 -245 1208 0
201 107 423 1209 0
496 378 96 1210 0
-407 -202 275 1211 0
-21 -407 -27 1212 0
480 92 204 1213 0
-433 -473 -349 1214 0
361 431 382 1215 0
-173 206 280 1216 0
446 -72 -53 1217 0
361 230 175 1218 0
163 -331 103 1219 0
178 -203 263 1220 0
147 245 373 1221 0
-474 136 42 1222 0
-452 36 -162 1223 0
-217 246 -322 1224 0
-143 -332 15 1225 0
1 -267 -436 1226 0
392 227 104 1227 0
245 -32 -411 1228 0
-85 371 328 1229 0
-158 -105 3 1230 0
149 -23 175 1231 0
-199 287 -40 1232 0
-199 97 209 1233 0
-51 -381 334 1234 0
31 185 244 1235 0
161 270 -29 1236 0
222 18 -451 1237 0
-28 -464 -164 1238 0
-268 388 303 1239 0
-338 210 -145 1240 0
12 438 363 1241 0
284 392 -203 1242 0
249 19 261 1243 0
-410 -242 -316 1244 0
281 109 -179 1245 0
167 -114 65 1246 0
-268 470 -92 1247 0
-10 -168 407 1248 0
456 353 412 1249 0
-130 -86 -64 1250 0
-405 470 -471 1251 0
240 24 -404 1252 0
17 -439 291 1253 0
355 395 153 1254 0
-119 -240 147 1255 0
495 46 -460 1256 0
-253 307 -261 1257 0
-441 -205 -391 1258 0
-139 -219 3 1259 0
-92 178 -467 1260 0
-301 -187 282 1261 0
-480 -392 -136 1262 0
323 46 389 1263 0
-343 211 359 1264 0
-398 -98 376 1265 0
253 391 135 1266 0
196 -28 394 1267 0
-361 35 -189 1268 0
482 -416 -184 1269 0
-463 -339 499 1270 0
-103 -313 311 1271 0
111 -202 74 1272 0
-423 -142 -149 1273 0
-358 -128 -300 1274 0
316 -258 481 1275 0
-387 420 -345 1276 0
-70 -440 360 1277 0
-159 -154 -122 1278 0
432 -327 302 1279 0
-72 221 -286 1280 0
81 69 423 1281 0
366 136 -15 1282 0
5 -159 -376 1283 0
-443 -331 374 1284 0
473 214 -217 1285 0
254 344 -470 1286 0
-193 459 114 1287 0
203 -274 -154 1288 0
365 -75 -5 1289 0
-237 -96 179 1290 0
414 -271 -66 1291 0
-282 -322 147 1292 0
-409 429 -58 1293 0
416 -432 -427 1294 0
-360 -174 -125 1295 0
156 264 390 1296 0
300 -326 441 1297 0
341 -345 456 1298 0
136 -389 -217 1299 0
-121 87 350 1300 0
-423 467 -289 1301 0
-496 -122 49 1302 0
-172 350 439 1303 0
86 -301 -256 1304 0
-399 136 -352 1305 0
-159 337 -390 1306 0
209 370 -266 1307 0
-154 -271 -453 1308 0
-231 248 351 1309 0
126 451 354 1310 0
319 200 42 1311 0
-342 -451 -272 1312 0
307 239 -457 1313 0
-484 -291 -397 1314 0
139 -23 197 1315 0
-222 -391 458 1316 0
-478 216 -100 1317 0
247 320 -74 1318 0
236 42 142 1319 0
-69 -236 -170 1320 0
311 -25 -419 1321 0
-90 -439 45 1322 0
-298 201 -402 1323 0
493 -480 495 1324 0
189 461 25 1325 0
-115 235 362 1326 0
-63 91 230 1327 0
243 -299 186 1328 0
-398 -212 134 1329 0
363 -47 315 1330 0
-487 89 -500 1331 0
352 -19 361 1332 0
263 -39 264 1333 0
20 -174 111 1334 0
-218 499 -41 1335 0
429 -108 5 1336 0
348 -195 -76 1337 0
-446 -31 -369 1338 0
493 173 -15 1339 0
260 -421 78 1340 0
-429 224 366 1341 0
231 -101 472 1342 0
284 -450 -125 1343 0
400 113 -447 1344 0
-321 482 245 1345 0
-344 -119 -104 1346 0
-288 351 396 1347 0
-212 455 8 1348 0
394 395 -272 1349 0
269 136 -428 1350 0
-282 -185 -458 1351 0
168 294 -42 1352 0
30 304 -359 1353 0
-164 -180 -28 1354 0
186 198 -470 1355 0
-21 -212 -258 1356 0
157 121 112 1357 0
101 85 399 1358 0
233 325 -207 1359 0
-94 -471 -265 1360 0
180 -83 394 1361 0
285 -388 -57 1362 0
70 324 -243 1363 0
-88 -473 -341 1364 0
472 170 444 1365 0
-415 -29 -341 1366 0
-310 -177 327 1367 0
125 270 29 1368 0
485 64 479 1369 0
-80 -281 481 1370 0
-479 396 26 1371 0
222 256 337 1372 0
-110 369 340 1373 0
103 -474 447 1374 0
236 82 -478 1375 0
-63 324 -231 1376 0
199 -366 235 1377 0
364 -483 -274 1378 0
-303 -381 -261 1379 0
-405 -166 -249 1380 0
-147 -367 263 1381 0
-86 344 81 1382 0
-59 -385 207 1383 0
371 -183 451 1384 0
386 -56 -207 1385 0
198 500 -214 1386 0
-456 -49 -392 1387 0
190 -406 470 1388 0
328 24 257 1389 0
248 483 -48 1390 0
-251 430 -496 1391 0
-211 83 -454 1392 0
-313 -5 87 1393 0
-402 -232 225 1394 0
45 -328 443 1395 0
-201 -81 -193 1396 0
-159 473 -125 1397 0
304 63 -488 1398 0
333 -334 -268 1399 0
-444 111 286 1400 0
-342 -264 -229 1401 0
-232 63 487 1402 0
-20 84 136 1403 0
-170 -126 -61 1404 0
358 335 90 1405 0
-467 -413 169 1406 0
-417 -409 -54 1407 0
343 469 -114 1408 0
-291 167 182 1409 0
-21 127 235 1410 0
363 -419 -405 1411 0
253 299 -185 1412 0
390 -240 -218 1413 0
194 335 464 1414 0
132 428 -55 1415 0
270 88 -381 1416 0
-374 219 371 1417 0
394 20 321 1418 0
-147 -4 -108 1419 0
131 -165 147 1420 0
442 318 -413 1421 0
405 -200 -341 1422 0
-102 165 -71 1423 0
-363 489 370 1424 0
-187 -319 170 1425 0
-465 196 -128 1426 0
411 270 -407 1427 0
450 -109 -33 1428 0
-427 284 324 1429 0
-162 -100 -214 1430 0
-24 -477 272 1431 0
-292 -106 491 1432 0
491 226 32 1433 0
-59 -247 364 1434 0
-130 186 -382 1435 0
-330 -452 325 1436 0
387 376 128 1437 0
454 -66 -400 1438 0
396 -449 106 1439 0
147 217 21 1440 0
-292 474 -357 1441 0
-249 -494 -236 1442 0
37 -385 -4 1443 0
-255 -69 -107 1444 0
376 366 220 1445 0
450 -256 -167 1446 0
-247 -77 482 1447 0
306 487 51 1448 0
-418 -50 482 1449 0
228 -473 412 1450 0
-241 208 -291 1451 0
389 -379 130 1452 0
-308 -242 -448 1453 0
-26 -360 356 1454 0
358 -128 266 1455 0
-362 -250 56 1456 0
-10 156 213 1457 0
-232 -492 -52 1458 0
233 -72 -108 1459 0
-264 136 222 1460 0
64 6 266 1461 0
-326 185 -384 1462 0
267 455 339 1463 0
-366 -467 27 1464 0
269 -379 493 1465 0
67 228 -302 1466 0
-159 -414 -22 1467 0
-454 -5 103 1468 0
-206 215 -124 1469 0
-251 -496 -389 1470 0
209 383 -43 1471 0
233 -453 224 1472 0
474 286 473 1473 0
-107 -75 436 1474 0
-57 223 -311 1475 0
-142 421 -146 1476 0
174 298 147 1477 0
-63 -263 -91 1478 0
363 266 406 1479 0
456 215 -128 1480 0
149 -1 -155 1481 0
-166 149 -117 1482 0
-500 -404 -328 1483 0
-312 -182 170 1484 0
491 -425 443 1485 0
-381 94 -284 1486 0
-234 310 -312 1487 0
229 491 -459 1488 0
-286 -74 340 1489 0
-245 -238 -67 1490 0
154 -39 -388 1491 0
82 469 -12 1492 0
268 499 -7 1493 0
-218 61 354 1494 0
-451 446 -418 1495 0
-67 -462 -313 1496 0
426 -271 243 1497 0
488 454 -171 1498 0
-241 104 -62 1499 0
161 -420 -158 1500 0
-380 166 -437 1501 0
283 224 231 1502 0
-297 -273 -142 1503 0
-307 -313 283 1504 0
17 376 -72 1505 0
323 89 180 1506 0
-132 74 485 1507 0
78 -461 254 1508 0
169 355 114 1509 0
385 -279 186 1510 0
264 38 -181 1511 0
346 255 -144 1512 0
43 -375 499 1513 0
3 133 111 1514 0
-65 94 287 1515 0
-109 319 288 1516 0
178 429 -210 1517 0
432 332 -238 1518 0
155 129 408 1519 0
-107 -458 -78 1520 0
-39 208 320 1521 0
109 -76 372 1522 0
282 249 327 1523 0
-170 348 -471 1524 0
-322 -94 146 1525 0
-202 -56 42 1526 0
266 -335 74 1527 0
-276 -398 -201 1528 0
294 -86 290 1529 0
-439 -76 -135 1530 0
-64 15 -299 1531 0
194 -56 270 1532 0
93 -381 34 1533 0
158 132 -235 1534 0
-11 -173 185 1535 0
394 -458 -55 1536 0
-187 -68 -487 1537 0
-64 294 295 1538 0
-406 86 391 1539 0
351 366 -378 1540 0
36 309 340 1541 0
130 -500 405 1542 0
-377 -152 216 1543 0
-123 296 -352 1544 0
-50 358 475 1545 0
211 98 9 1546 0
-454 298 473 1547 0
485 -474 83 1548 0
439 204 480 1549 0
442 -390 -28 1550 0
219 -442 5 1551 0
95 380 -163 1552 0
-48 -109 253 1553 0
367 -228 281 1554 0
-436 -279 -458 1555 0
405 -356 189 1556 0
155 -341 -149 1557 0
-4 -337 105 1558 0
2 181 -217 1559 0
-266 -333 472 1560 0
298 -396 484 1561 0
88 424 -269 1562 0
-364 312 -446 1563 0
-136 -444 380 1564 0
492 -469 129 1565 0
220 107 5 1566 0
-362 74 261 1567 0
446 236 324 1568 0
493 -160 -338 1569 0
88 -442 158 1570 0
401 97 448 1571 0
379 257 -287 1572 0
93 106 17 1573 0
-176 173 244 1574 0
-357 -26 -342 1575 0
297 263 -132 1576 0
-167 -416 -423 1577 0
-327 -456 -290 1578 0
287 257 373 1579 0
398 -89 -61 1580 0
-16 486 -10 1581 0
-186 -226 -358 1582 0
121 146 -499 1583 0
-393 405 -288 1584 0
-291 364 -416 1585 0
472 -192 -348 1586 0
264 290 368 1587 0
92 -193 -186 1588 0
294 412 -277 1589 0
-477 -349 402 1590 0
-360 -364 367 1591 0
329 131 233 1592 0
27 -376 456 1593 0
476 -215 -171 1594 0
267 -285 -287 1595 0
341 -267 261 1596 0
-392 -66 -421 1597 0
-362 154 -108 1598 0
146 -31 411 1599 0
-146 -218 64 1600 0
-464 -210 -399 1601 0
411 444 -403 1602 0
213 -141 -150 1603 0
-167 -499 -227 1604 0
-445 -429 -494 1605 0
-414 -112 157 1606 0
-228 -409 -97 1607 0
391 -295 312 1608 0
463 156 275 1609 0
381 176 124 1610 0
-434 -307 -470 1611 0
-164 111 435 1612 0
-420 -135 354 1613 0
195 -341 -15 1614 0
136 -318 -105 1615 0
-380 -23 -167 1616 0
-459 481 436 1617 0
144 -29 -357 1618 0
205 350 333 1619 0
434 -333 117 1620 0
64 315 73 1621 0
26 -257 393 1622 0
42 88 432 1623 0
-404 -348 142 1624 0
-124 198 -267 1625 0
107 401 485 1626 0
285 -369 136 1627 0
321 356 -196 1628 0
250 -230 380 1629 0
-252 483 72 1630 0
-269 470 180 1631 0
-336 358 447 1632 0
-191 177 -78 1633 0
219 -391 361 1634 0
318 303 -24 1635 0
162 82 127 1636 0
-199 -277 457 1637 0
154 374 215 1638 0
490 -339 -401 1639 0
350 477 95 1640 0
-121 -406 -321 1641 0
51 253 -306 1642 0
4 484 117 1643 0
312 -140 -435 1644 0
-160 -155 -403 1645 0
-360 345 -136 1646 0
-400 284 -270 1647 0
262 131 383 1648 0
126 166 124 1649 0
120 5 250 1650 0
203 287 397 1651 0
347 -236 -453 1652 0
395 -339 462 1653 0
-114 -424 76 1654 0
-367 234 -158 1655 0
105 -368 -191 1656 0
341 281 357 1657 0
-212 444 -258 1658 0
-242 28 -285 1659 0
-290 323 -464 1660 0
-270 147 267 1661 0
18 -223 107 1662 0
-117 282 -18 1663 0
479 152 -204 1664 0
-457 -452 -119 1665 0
-123 -333 324 1666 0
-258 358 -254 1667 0
-466 -44 224 1668 0
-203 300 -363 1669 0
-247 -494 95 1670 0
177 19 -25 1671 0
-328 -51 -95 1672 0
-340 -365 -261 1673 0
-479 -352 168 1674 0
-10 -134 -284 1675 0
427 150 152 1676 0
232 477 -6 1677 0
306 -310 -396 1678 0
-493 402 334 1679 0
125 -7 12 1680 0
-113 259 -189 1681 0
-179 230 -201 1682 0
-178 -470 121 1683 0
392 -439 204 1684 0
344 -381 95 1685 0
498 43 -302 1686 0
13 90 -379 1687 0
-336 -478 133 1688 0
333 -298 165 1689 0
-440 -135 -104 1690 0
-12 369 464 1691 0
461 -470 -376 1692 0
197 -343 142 1693 0
-74 -220 414 1694 0
394 -372 -4 1695 0
356 75 287 1696 0
-203 -42 62 1697 0
351 27 -428 1698 0
-300 -5 480 1699 0
-57 -100 111 1700 0
496 -271 39 1701 0
166 -450 -155 1702 0
-476 -298 -425 1703 0
-350 -336 324 1704 0
224 472 363 1705 0
115 409 195 1706 0
-388 441 -338 1707 0
250 -233 -275 1708 0
-231 -241 210 1709 0
-308 333 -304 1710 0
-423 -381 -339 1711 0
-364 -128 331 1712 0
289 281 274 1713 0
-260 299 167 1714 0
-308 3 -175 1715 0
-77 18 457 1716 0
-404 425 -318 1717 0
39 120 -244 1718 0
327 -381 -369 1719 0
129 133 -237 1720 0
-473 209 255 1721 0
-438 409 -322 1722 0
-431 -78 457 1723 0
196 -359 391 1724 0
-244 462 -148 1725 0
-185 -190 -488 1726 0
260 405 393 1727 0
-352 75 444 1728 0
172 -95 -232 1729 0
-237 32 -257 1730 0
333 -465 -113 1731 0
-288 47 -115 1732 0
-145 -344 183 1733 0
200 -56 203 1734 0
-96 494 -415 1735 0
-403 435 -350 1736 0
150 -171 288 1737 0
170 201 29 1738 0
-393 -149 111 1739 0
380 292 -208 1740 0
159 465 -250 1741 0
-142 -341 187 1742 0
355 393 -99 1743 0
-206 -359 -429 1744 0
-184 132 -339 1745 0
-319 -438 -393 1746 0
-422 -350 19 1747 0
-89 18 -236 1748 0
91 -370 -241 1749 0
266 -236 61 1750 0
-101 435 382 1751 0
-70 -372 -216 1752 0
78 419 -317 1753 0
-174 432 -441 1754 0
-188 490 134 1755 0
19 16 368 1756 0
-187 -297 63 1757 0
-126 66 -409 1758 0
-460 -321 466 1759 0
345 -195 136 1760 0
312 -350 209 1761 0
392 31 130 1762 0
-432 -352 -299 1763 0
-56 310 -160 1764 0
-124 -81 -198 1765 0
-145 -220 -21 1766 0
88 283 -51 1767 0
-189 -128 -419 1768 0
-423 282 383 1769 0
-145 288 428 1770 0
-125 -206 -397 1771 0
-7 -136 -142 1772 0
227 -404 -271 1773 0
-216 47 -82 1774 0
308 -264 -174 1775 0
-277 42 245 1776 0
-479 240 415 1777 0
-199 175 -495 1778 0
-491 -138 493 1779 0
252 -8 -153 1780 0
30 -467 423 1781 0
17 -118 293 1782 0
-500 220 274 1783 0
48 351 -354 1784 0
-483 435 -253 1785 0
251 334 -184 1786 0
98 -472 327 1787 0
464 361 -150 1788 0
445 143 -134 1789 0
104 -200 -452 1790 0
277 -135 345 1791 0
-283 -42 213 1792 0
282 -361 441 1793 0
203 180 -409 1794 0
-4 243 240 1795 0
-156 5 -298 1796 0
152 -495 80 1797 0
-157 210 250 1798 0
300 227 76 1799 0
83 205 -454 1800 0
-57 -474 -191 1801 0
480 -89 171 1802 0
-152 -499 299 1803 0
397 -445 158 1804 0
-431 -488 200 1805 0
194 -482 -48 1806 0
-328 -424 -351 1807 0
-24 -333 348 1808 0
20 -350 129 1809 0
-4 -133 -410 1810 0
-180 147 380 1811 0
-482 30 -173 1812 0
63 386 214 1813 0
430 -476 28 1814 0
-346 -167 -179 1815 0
234 -405 -467 1816 0
-43 -69 -484 1817 0
124 365 400 1818 0
321 -32 -113 1819 0
469 90 116 1820 0
-340 -9 -243 1821 0
-52 19 -349 1822 0
-4 -107 461 1823 0
-455 -347 4 1824 0
151 -357 291 1825 0
-65 246 -476 1826 0
140 -179 -385 1827 0
473 -400 15 1828 0
-164 -394 206 1829 0
-456 402 -247 1830 0
-83 459 400 1831 0
449 -193 259 1832 0
14 376 175 1833 0
242 88 46 1834 0
113 -440 -339 1835 0
-95 -378 52 1836 0
498 150 185 1837 0
-68 261 -161 1838 0
40 453 97 1839 0
-170 -343 -428 1840 0
-4 -393 78 1841 0
477 -469 176 1842 0
50 365 64 1843 0
468 364 -126 1844 0
-289 -18 232 1845 0
-314 6 466 1846 0
374 -184 314 1847 0
273 473 -14 1848 0
-306 163 213 1849 0
-459 11 -249 1850 0
-427 192 -272 1851 0
-413 -165 -7 1852 0
-64 247 -363 1853 0
13 -60 247 1854 0
246 496 -445 1855 0
107 69 -210 1856 0
372 -26 34 1857 0
-130 -459 -471 1858 0
415 491 369 1859 0
-451 222 -289 1860 0
-421 -15 95 1861 0
-188 261 -482 1862 0
-310 -247 -494 1863 0
110 95 421 1864 0
498 -106 -455 1865 0
-424 -88 165 1866 0
-264 -161 215 1867 0
-250 138 136 1868 0
313 -168 383 1869 0
-390 -39 225 1870 0
130 149 -232 1871 0
-209 369 345 1872 0
78 307 -102 1873 0
-178 394 -118 1874 0
-237 328 -436 1875 0
-267 -439 205 1876 0
-338 12 -66 1877 0
-413 -308 -473 1878 0
-203 -385 257 1879 0
73 275 -210 1880 0
364 -391 -497 1881 0
434 245 128 1882 0
422 -303 -378 1883 0
177 -139 -240 1884 0
-313 -21 -366 1885 0
245 -449 -79 1886 0
475 6 -443 1887 0
-216 -387 -312 1888 0
323 -372 -365 1889 0
-500 298 6 1890 0
332 -320 37 1891 0
-209 -159 -493 1892 0
-462 133 -353 1893 0
317 -185 -369 1894 0
31 269 -416 1895 0
-62 -479 -242 1896 0
-341 214 186 1897 0
478 399 473 1898 0
462 211 27 1899 0
-163 -455 452 1900 0
206 163 482 1901 0
272 116 -201 1902 0
354 378 306 1903 0
334 224 -495 1904 0
-56 -301 321 1905 0
230 -387 -32 1906 0
204 -181 -110 1907 0
282 -70 -133 1908 0
213 -485 188 1909 0
-417 412 -482 1910 0
348 -395 303 1911 0
234 167 62 1912 0
-351 -281 -41 1913 0
348 111 -358 1914 0
-433 498 148 1915 0
-304 282 -82 1916 0
121 -46 103 1917 0
-151 181 160 1918 0
-22 375 267 1919 0
-78 -243 -265 1920 0
-496 -20 106 1921 0
287 -153 184 1922 0
-345 465 346 1923 0
-81 -167 47 1924 0
-174 -456 268 1925 0
-69 351 -324 1926 0
-328 25 -185 1927 0
190 420 298 1928 0
-17 -158 -395 1929 0
-407 408 -36 1930 0
38 293 483 1931 0
158 -17 95 1932 0
103 127 -305 1933 0
-85 94 -227 1934 0
-128 459 355 1935 0
390 403 332 1936 0
-247 256 331 1937 0
-338 141 -428 1938 0
69 175 161 1939 0
373 368 448 1940 0
-249 268 -407 1941 0
-1 131 -385 1942 0
-262 411 -454 1943 0
315 -390 -18 1944 0
185 147 94 1945 0
-272 438 54 1946 0
400 -217 -347 1947 0
353 -497 276 1948 0
48 -490 -328 1949 0
289 -492 -423 1950 0
-151 232 286 1951 0
-136 172 -493 1952 0
456 -25 -298 1953 0
-160 107 400 1954 0
-253 405 481 1955 0
-376 -371 -488 1956 0
-456 92 -181 1957 0
-413 -353 427 1958 0
327 -114 -126 1959 0
-337 -429 274 1960 0
-213 -490 370 1961 0
-40 -46 -413 1962 0
-431 53 -393 1963 0
-481 -258 160 1964 0
-422 -195 -338 1965 0
-133 -190 292 1966 0
-361 272 -98 1967 0
-270 241 -61 1968 0
-397 408 -151 1969 0
412 190 -297 1970 0
-309 -377 464 1971 0
-386 -499 20 1972 0
290 301 -417 1973 0
-323 365 362 1974 0
-357 -221 340 1975 0
449 -142 190 1976 0
397 -255 -299 1977 0
447 -208 170 1978 0
-232 -30 -454 1979 0
-379 -365 -346 1980 0
229 342 273 1981 0
-499 -436 61 1982 0
484 11 431 1983 0
-250 45 -299 1984 0
460 463 -476 1985 0
-169 -17 359 1986 0
153 209 37 1987 0
-499 43 358 1988 0
-116 180 50 1989 0
-215 140 33 1990 0
-456 283 -467 1991 0
-101 -434 160 1992 0
-25 257 -107 1993 0
-384 450 75 1994 0
-302 -379 -298 1995 0
-227 321 343 1996 0
-372 -62 191 1997 0
-142 -281 -309 1998 0
-210 495 -47 1999 0
-380 249 152 2000 0
-401 32 339 2001 0
-174 -214 142 2002 0
130 -148 -249 2003 0
-249 415 -468 2004 0
323 156 351 2005 0
153 77 72 2006 0
-390 -4 224 2007 0
-393 229 302 2008 0
114 -9 5 2009 0
189 -209 -454 2010 0
-389 -114 361 2011 0
166 -282 -225 2012 0
307 208 -345 2013 0
413 338 -391 2014 0
-53 -289 469 2015 0
338 -432 486 2016 0
271 220 193 2017 0
-176 79 -307 2018 0
239 -141 352 2019 0
77 164 -412 2020 0
-404 269 -488 2021 0
-141 -90 186 2022 0
-370 -458 -17 2023 0
339 -152 170 2024 0
459 -218 -112 2025 0
94 -319 -314 2026 0
125 17 428 2027 0
115 -230 -96 2028 0
193 356 256 2029 0
281 -494 -19 2030 0
476 80 74 2031 0
-229 -63 277 2032 0
-415 -286 -58 2033 0
17 -54 366 2034 0
-213 202 460 2035 0
-500 -185 -221 2036 0
-258 272 483 2037 0
-419 -4 -490 2038 0
-422 367 -216 2039 0
190 -184 -145 2040 0
-331 -461 -134 2041 0
-479 228 265 2042 0
-238 307 15 2043 0
-27 -498 -192 2044 0
-203 -374 382 2045 0
-392 251 -123 2046 0
-440 -309 -16 2047 0
499 -406 249 2048 0
127 -361 -487 2049 0
-234 83 -267 2050 0
-462 -430 495 2051 0
-368 23 -288 2052 0
-444 102 -488 2053 0
-211 25 448 2054 0
-170 247 -274 2055 0
-235 111 314 2056 0
180 439 29 2057 0
-31 -81 -187 2058 0
-15 -182 -160 2059 0
-71 -470 282 2060 0
-448 -250 125 2061 0
106 -138 -60 2062 0
427 -470 399 2063 0
63 151 -258 2064 0
-387 234 171 2065 0
330 -50 213 2066 0
275 369 273 2067 0
-211 -475 -485 2068 0
312 119 -92 2069 0
462 81 60 2070 0
400 -82 -248 2071 0
22 400 13 2072 0
-57 197 41 2073 0
-14 -31 -219 2074 0
-367 -395 127 2075 0
-327 393 -419 2076 0
345 175 388 2077 0
-418 280 170 2078 0
-161 213 372 2079 0
264 252 136 2080 0
-382 -345 285 2081 0
287 221 -22 2082 0
-328 -155 249 2083 0
-253 -22 214 2084 0
-361 85 -104 2085 0
169 -113 -346 2086 0
278 473 93 2087 0
495 -202 -464 2088 0
-426 -456 -11 2089 0
-1 -249 -345 2090 0
-369 -252 393 2091 0
455 489 373 2092 0
417 234 -412 2093 0
-327 -288 -199 2094 0
476 -335 -234 2095 0
-332 495 -58 2096 0
-419 108 -333 2097 0
-453 -452 -211 2098 0
-411 372 485 2099 0
-211 -248 -204 2100 0
-238 -429 155 2101 0
-470 -267 246 2102 0
-196 -269 -220 2103 0
-118 -193 182 2104 0
487 -222 173 2105 0
430 -174 47 2106 0
-3 -98 -67 2107 0
310 292 -389 2108 0
-410 253 429 2109 0
-24 314 -278 2110 0
143 419 -159 2111 0
-139 -157 -488 2112 0
206 400 -102 2113 0
-159 -8 172 2114 0
-116 189 -39 2115 0
435 -140 -233 2116 0
407 -277 140 2117 0
246 -76 306 2118 0
459 -245 -370 2119 0
-60 436 -411 2120 0
-131 107 -21 2121 0
286 126 369 2122 0
161 305 219 2123 0
67 -156 -30 2124 0
101 -449 -398 2125 0
313 444 372 2126 0
277 370 358 2127 0
366 -7 -402 2128 0
46 332 98 2129 0
421 47 -186 2130 0
-466 -326 453 2131 0
-467 -147 -389 2132 0
-447 -110 -104 2133 0
3 -385 -263 2134 0
394 138 89 2135 0
-326 -194 278 2136 0
-238 -394 -296 2137 0
-250 -71 241 2138 0
-60 345 132 2139 0
372 -192 432 2140 0
-54 -16 -357 2141 0
-70 -295 -62 2142 0
-4 -346 -384 2143 0
30 305 2 2144 0
-248 375 168 2145 0
199 -242 151 2146 0
-375 464 407 2147 0
455 -289 -391 2148 0
286 478 -126 2149 0
316 -452 -203 2150 0
133 -266 -269 2151 0
233 466 -239 2152 0
408 188 -384 2153 0
451 -320 -325 2154 0
379 475 348 2155 0
256 -407 246 2156 0
211 -361 -354 2157 0
480 431 -475 2158 0
203 -466 -191 2159 0
-334 -232 -401 2160 0
388 -300 139 2161 0
360 -153 -137 2162 0
421 431 112 2163 0
325 -210 -75 2164 0
-166 -54 -44 2165 0
-363 -382 -436 2166 0
-286 -184 471 2167 0
11 -271 -194 2168 0
295 285 -90 2169 0
113 452 239 2170 0
384 18 392 2171 0
81 183 268 2172 0
-309 -432 65 2173 0
-176 456 -79 2174 0
19 -307 -127 2175 0
-122 51 -292 2176 0
148 28 499 2177 0
165 247 129 2178 0
493 478 491 2179 0
-87 -403 -411 2180 0
-285 -473 499 2181 0
-227 -476 59 2182 0
458 -43 452 2183 0
261 -9 -185 2184 0
185 -181 -207 2185 0
-205 -290 474 2186 0
-412 235 175 2187 0
-486 -393 448 2188 0
-19 13 468 2189 0
201 -436 -285 2190 0
196 -498 362 2191 0
-270 -327 -65 2192 0
-282 449 -168 2193 0
244 -381 304 2194 0
-59 454 -464 2195 0
87 -336 77 2196 0
-471 -361 -460 2197 0
-28 500 -203 2198 0
-29 -110 239 2199 0
-312 -18 -29 2200 0
404 163 138 2201 0
59 -98 309 2202 0
205 -158 -260 2203 0
-25 -193 -40 2204 0
-182 175 296 2205 0
-294 408 -349 2206 0
-170 86 -213 2207 0
232 143 297 2208 0
-440 -170 -377 2209 0
270 -83 358 2210 0
467 -354 45 2211 0
-282 362 3 2212 0
238 338 -340 2213 0
-435 496 -189 2214 0
-151 -433 35 2215 0
354 296 393 2216 0
495 -371 42 2217 0
150 -224 -272 2218 0
332 292 -264 2219 0
-193 -189 114 2220 0
-110 -356 -175 2221 0
484 347 -396 2222 0
-212 -317 -354 2223 0
149 -206 14 2224 0
315 317 -283 2225 0
-65 -4 -375 2226 0
-267 -326 -438 2227 0
-254 -317 -318 2228 0
9 200 19 2229 0
-484 -343 314 2230 0
-379 -344 -457 2231 0
-334 484 -367 2232 0
-76 74 -368 2233 0
-66 -154 142 2234 0
-201 -418 -498 2235 0
-269 273 202 2236 0
-279 -116 112 2237 0
218 -99 -16 2238 0
-428 -187 67 2239 0
-140 -492 402 2240 0
182 334 -292 2241 0
457 -124 13 2242 0
-423 -339 -317 2243 0
400 -254 346 2244 0
384 360 -272 2245 0
-8 -126 -118 2246 0
-68 94 -29 2247 0
-483 -494 458 2248 0
195 332 -370 2249 0
267 304 -49 2250 0
321 -218 -104 2251 0
-281 167 405 2252 0
395 110 378 2253 0
180 305 297 2254 0
335 429 343 2255 0
163 -446 -362 2256 0
317 47 226 2257 0
-427 157 273 2258 0
235 -89 304 2259 0
398 174 -377 2260 0
-147 171 -210 2261 0
471 248 -369 2262 0
195 270 -247 2263 0
-316 -187 64 2264 0
-189 -61 -165 2265 0
-203 -84 -246 2266 0
206 44 -120 2267 0
-360 -128 -39 2268 0
-129 -481 249 2269 0
373 149 -315 2270 0
24 283 -37 2271 0
283 286 -50 2272 0
-98 151 389 2273 0
401 354 -70 2274 0
40 -352 240 2275 0
-323 -303 -376 2276 0
444 -186 -372 2277 0
144 349 -360 2278 0
102 -372 187 2279 0
-122 -15 74 2280 0
-317 -226 368 2281 0
-212 313 -148 2282 0
-117 497 -446 2283 0
-225 -243 91 2284 0
-473 -258 -98 2285 0
-7 -271 -298 2286 0
213 410 29 2287 0
-179 110 -6 2288 0
102 -417 334 2289 0
365 -17 -39 2290 0
-463 -344 -400 2291 0
10 -237 -342 2292 0
-242 -454 271 2293 0
228 -89 339 2294 0
346 319 162 2295 0
62 -404 -46 2296 0
493 461 385 2297 0
394 72 199 2298 0
-345 -410 -427 2299 0
389 -244 15 2300 0
-63 221 398 2301 0
-385 240 157 2302 0
474 -77 -469 2303 0
-126 -129 293 2304 0
356 -100 -22 2305 0
484 66 -343 2306 0
-360 242 461 2307 0
446 260 -184 2308 0
100 -204 -212 2309 0
80 225 -255 2310 0
-116 318 491 2311 0
-270 -16 -139 2312 0
24 -464 -402 2313 0
-252 126 -208 2314 0
193 86 404 2315 0
-472 -426 383 2316 0
23 368 302 2317 0
-88 256 -188 2318 0
-77 -219 64 2319 0
-351 6 -44 2320 0
-405 187 -443 2321 0
391 -284 -398 2322 0
215 11 111 2323 0
-70 91 414 2324 0
275 289 -180 2325 0
474 382 6 2326 0
398 250 350 2327 0
480 -76 150 2328 0
145 -259 146 2329 0
392 178 246 2330 0
-257 483 265 2331 0
225 148 76 2332 0
59 -150 423 2333 0
106 321 -230 2334 0
198 338 289 2335 0
-434 300 -327 2336 0
-158 -133 304 2337 0
-208 -28 -486 2338 0
440 -417 -94 2339 0
202 -255 286 2340 0
359 481 -62 2341 0
53 364 -176 2342 0
48 -129 269 2343 0
-137 -204 497 2344 0
-75 170 -276 2345 0
-175 -204 -364 2346 0
252 -5 -384 2347 0
-393 357 45 2348 0
-494 3 398 2349 0
160 -32 491 2350 0
74 -91 172 2351 0
-391 234 107 2352 0
-143 404 -495 2353 0
142 -6 315 2354 0
-33 253 -363 2355 0
490 467 -356 2356 0
-202 351 -124 2357 0
146 80 359 2358 0
235 -320 -414 2359 0
263 176 -18 2360 0
427 73 -137 2361 0
-383 -472 -191 2362 0
447 -474 -439 2363 0
382 368 243 2364 0
-59 383 -270 2365 0
229 -291 -364 2366 0
-383 392 -285 2367 0
-274 -143 -296 2368 0
-257 353 304 2369 0
250 -33 257 2370 0
-151 104 204 2371 0
476 384 -240 2372 0
-197 -227 308 2373 0
-56 217 85 2374 0
139 -120 159 2375 0
477 36 -96 2376 0
-454 -456 -73 2377 0
-383 19 -29 2378 0
-94 -301 -375 2379 0
109 111 148 2380 0
462 -470 55 2381 0
387 -471 -191 2382 0
-344 -464 -15 2383 0
-494 -392 -69 2384 0
-216 26 -298 2385 0
391 294 -59 2386 0
-331 461 -305 2387 0
497 -495 367 2388 0
-180 -51 154 2389 0
-226 -432 -253 2390 0
-384 -214 41 2391 0
-496 -195 -29 2392 0
299 -188 256 2393 0
24 -377 227 2394 0
93 159 -62 2395 0
316 256 -385 2396 0
-205 226 -78 2397 0
-110 -81 434 2398 0
49 -313 196 2399 0
-18 -396 174 2400 0
46 -421 312 2401 0
90 330 361 2402 0
139 432 285 2403 0
98 455 55 2404 0
-369 -284 -395 2405 0
-213 305 -86 2406 0
-79 -46 494 2407 0
304 -323 253 2408 0
-450 -273 392 2409 0
-281 493 -142 2410 0
491 -346 -33 2411 0
119 299 -354 2412 0
-500 -239 -15 2413 0
440 163 -174 2414 0
105 262 -175 2415 0
-173 -213 -346 2416 0
107 -47 272 2417 0
415 -51 76 2418 0
-90 -165 -401 2419 0
-262 -416 246 2420 0
435 -249 -78 2421 0
328 -211 -137 2422 0
106 -402 438 2423 0
57 115 225 2424 0
-497 -111 -183 2425 0
-179 343 249 2426 0
-102 -128 -26 2427 0
-365 -151 383 2428 0
12 60 95 2429 0
-279 130 59 2430 0
188 411 -441 2431 0
-495 -434 -359 2432 0
354 -38 -103 2433 0
17 60 -135 2434 0
-245 82 47 2435 0
423 -299 372 2436 0
-116 -466 284 2437 0
-114 253 -36 2438 0
210 450 -60 2439 0
319 82 400 2440 0
-412 -250 337 2441 0
257 -275 487 2442 0
-386 302 -232 2443 0
298 402 -98 2444 0
327 137 143 2445 0
-120 434 420 2446 0
-438 -164 141 2447 0
24 50 -373 2448 0
-465 152 -406 2449 0
171 238 397 2450 0
127 -285 -36 2451 0
-357 -290 232 2452 0
-372 -115 -384 2453 0
8 -428 319 2454 0
18 -289 -190 2455 0
166 296 -344 2456 0
247 89 -186 2457 0
-110 -389 437 2458 0
84 477 81 2459 0
-41 -332 -487 2460 0
64 -213 126 2461 0
-360 181 -267 2462 0
377 304 365 2463 0
123 -437 -379 2464 0
-93 283 289 2465 0
-261 -126 190 2466 0
-400 -48 462 2467 0
-150 187 317 2468 0
-80 285 -423 2469 0
-485 211 145 2470 0
-7 419 -268 2471 0
-352 313 -326 2472 0
256 -172 125 2473 0
-411 -320 -446 2474 0
-334 262 -187 2475 0
-240 -486 245 2476 0
-66 -461 -202 2477 0
195 -95 16 2478 0
-5 -392 -101 2479 0
-155 270 -273 2480 0
-435 350 -404 2481 0
-315 17 -360 2482 0
346 -395 161 2483 0
-140 176 -275 2484 0
140 143 -48 2485 0
465 -45 442 2486 0
409 386 -287 2487 0
387 -406 -463 2488 0
-205 -3 23 2489 0
317 122 48 2490 0
231 -415 -119 2491 0
-72 -99 192 2492 0
416 237 272 2493 0
202 500 470 2494 0
-389 -290 -246 2495 0
-271 -421 311 2496 0
-21 -205 -465 2497 0
-69 55 -451 2498 0
89 491 428 2499 0
-223 319 -359 2500 0
-316 397 303 2501 0
184 498 190 2502 0
68 -134 -105 2503 0
44 -427 -330 2504 0
192 -235 300 2505 0
-495 96 -157 2506 0
-261 45 -282 2507 0
423 -18 108 2508 0
328 -452 176 2509 0
98 -483 190 2510 0
159 -432 169 2511 0
-322 -412 118 2512 0
180 -231 20 2513 0
-93 306 -433 2514 0
-198 492 -44 2515 0
-96 477 -185 2516 0
444 344 390 2517 0
24 -457 -64 2518 0
262 -431 231 2519 0
-323 -102 -433 2520 0
405 -2 322 2521 0
330 -288 -118 2522 0
-67 484 -391 2523 0
13 -39 494 2524 0
10 -356 307 2525 0
-331 -153 -135 2526 0
-106 243 -306 2527 0
-131 57 -380 2528 0
-12 -280 -488 2529 0
-166 44 -367 2530 0
448 -167 -224 2531 0
83 313 -243 2532 0
404 -297 -43 2533 0
-328 275 -265 2534 0
-81 235 135 2535 0
-419 297 490 2536 0
-406 -255 328 2537 0
-386 470 67 2538 0
451 -188 -196 2539 0
-145 469 -391 2540 0
24 -467 -238 2541 0
145 -114 249 2542 0
-33 -366 326 2543 0
82 -18 113 2544 0
71 241 371 2545 0
341 482 135 2546 0
374 3 260 2547 0
-226 481 292 2548 0
-474 -484 -56 2549 0
119 182 49 2550 0
-255 411 -432 2551 0
370 248 404 2552 0
-218 5 412 2553 0
-316 72 -53 2554 0
-286 -240 56 2555 0
378 46 -294 2556 0
-93 -446 -408 2557 0
100 -298 -49 2558 0
-146 462 281 2559 0
-274 -297 -252 2560 0
470 174 48 2561 0
-401 -83 -72 2562 0
24 -432 287 2563 0
328 -256 86 2564 0
-70 27 350 2565 0
-91 27 -239 2566 0
198 423 -212 2567 0
-226 -253 -299 2568 0
-337 -31 -305 2569 0
384 -243 475 2570 0
-381 -40 294 2571 0
-39 -356 -157 2572 0
-483 441 155 2573 0
-322 -42 -44 2574 0
422 -325 -212 2575 0
20 -408 356 2576 0
79 293 -53 2577 0
-2 -76 497 2578 0
121 -435 -374 2579 0
79 199 -191 2580 0
-421 451 -67 2581 0
-229 218 396 2582 0
-295 -194 -424 2583 0
122 15 -450 2584 0
59 -422 78 2585 0
-470 103 -299 2586 0
-25 -84 -65 2587 0
218 27 -103 2588 0
30 -300 -479 2589 0
-195 406 153 2590 0
-67 306 -69 2591 0
92 -262 430 2592 0
-176 429 199 2593 0
131 -495 -236 2594 0
160 1 83 2595 0
-497 356 293 2596 0
194 -203 8 2597 0
-21 -98 -260 2598 0
-176 410 -122 2599 0
202 135 -456 2600 0
404 401 332 2601 0
-21 -441 -419 2602 0
325 -193 -195 2603 0
324 -167 -69 2604 0
-13 -441 448 2605 0
-434 -52 -153 2606 0
268 111 -357 2607 0
-310 176 -268 2608 0
-361 -27 324 2609 0
329 -296 121 2610 0
489 -189 -341 2611 0
184 -87 -303 2612 0
165 -169 -406 2613 0
93 -35 103 2614 0
239 -345 -450 2615 0
153 -184 22 2616 0
483 -278 -136 2617 0
-219 -500 189 2618 0
323 105 481 2619 0
121 -373 467 2620 0
11 410 99 2621 0
386 -140 153 2622 0
-478 384 -385 2623 0
-247 -494 -406 2624 0
-43 -432 -392 2625 0
480 428 55 2626 0
-33 -362 484 2627 0
476 -475 488 2628 0
-477 -8 386 2629 0
449 -103 -88 2630 0
-356 282 458 2631 0
408 429 216 2632 0
-75 -346 -102 2633 0
-24 300 -189 2634 0
253 -38 198 2635 0
163 424 -331 2636 0
-246 51 -169 2637 0
-121 -435 80 2638 0
260 -318 14 2639 0
-376 -138 310 2640 0
353 -420 344 2641 0
104 259 394 2642 0
-366 -275 -436 2643 0
193 -286 14 2644 0
-393 497 -58 2645 0
213 89 -268 2646 0
-300 -57 -241 2647 0
-233 49 -400 2648 0
430 239 429 2649 0
-249 117 127 2650 0
