p cnf 2650 2150
289 -323 494 501 0
319 -345 178 502 0
-397 364 166 503 0
57 156 -131 504 0
385 -389 -177 505 0
146 -266 397 506 0
-247 -166 -316 507 0
42 252 -2 508 0
453 494 478 509 0
-118 -203 -50 510 0
-365 -13 -473 511 0
93 -405 64 512 0
-103 328 -432 513 0
-468 -126 462 514 0
-404 -382 188 515 0
165 -118 18 516 0
-247 -106 78 517 0
101 194 -287 518 0
-190 -201 -265 519 0
-150 286 -311 520 0
-414 251 113 521 0
250 -499 363 522 0
108 151 -330 523 0
400 -463 -97 524 0
-391 177 492 525 0
-252 -170 377 526 0
306 361 -348 527 0
430 331 -149 528 0
-29 -86 201 529 0
314 218 -419 530 0
-440 340 296 531 0
-235 161 251 532 0
286 116 -238 533 0
173 -233 307 534 0
110 262 -405 535 0
-133 -9 500 536 0
-325 -496 -444 537 0
-351 435 246 538 0
379 24 -263 539 0
-173 -240 272 540 0
146 278 -441 541 0
117 -221 -417 542 0
451 -424 -259 543 0
-375 -77 -120 544 0
-38 261 -471 545 0
254 247 99 546 0
295 330 56 547 0
-139 -97 13 548 0
-426 -476 67 549 0
283 11 -254 550 0
-333 244 -184 551 0
282 -381 -224 552 0
-246 -55 -70 553 0
490 -399 20 554 0
208 158 -129 555 0
-219 327 -391 556 0
374 57 10 557 0
-176 -394 455 558 0
-100 -219 76 559 0
-395 372 -414 560 0
460 490 407 561 0
110 374 -79 562 0
344 427 -233 563 0
-365 -324 17 564 0
456 465 427 565 0
409 -210 -408 566 0
-22 -119 -307 567 0
-203 375 -329 568 0
237 -57 -344 569 0
7 65 495 570 0
-324 264 -329 571 0
283 -288 37 572 0
-38 -396 274 573 0
-144 -434 244 574 0
410 -269 201 575 0
-246 -243 -320 576 0
-162 69 336 577 0
468 32 -63 578 0
305 110 -205 579 0
-60 197 -8 580 0
-324 11 154 581 0
372 64 -225 582 0
-455 -125 104 583 0
-356 275 -111 584 0
-88 346 176 585 0
-301 -178 -124 586 0
-429 -438 37 587 0
-159 122 356 588 0
61 161 183 589 0
92 154 485 590 0
-402 -275 -380 591 0
447 -276 -411 592 0
-89 361 126 593 0
135 -39 440 594 0
-417 -182 -118 595 0
-153 -331 -305 596 0
353 130 -236 597 0
341 -321 -24 598 0
20 -492 -47 599 0
-409 -391 -155 600 0
421 -95 -219 601 0
370 121 347 602 0
52 468 129 603 0
415 207 -105 604 0
-226 -473 -263 605 0
320 -487 356 606 0
-435 -356 -467 607 0
115 -270 -473 608 0
-175 56 192 609 0
-463 47 -15 610 0
-375 316 181 611 0
146 -418 -437 612 0
417 352 146 613 0
473 -97 242 614 0
339 331 -269 615 0
-51 -69 153 616 0
407 475 -8 617 0
132 -197 451 618 0
-92 129 -236 619 0
-413 64 475 620 0
168 -12 260 621 0
492 -439 -192 622 0
-158 -384 -456 623 0
-349 485 262 624 0
55 455 -233 625 0
-231 171 -453 626 0
-379 -125 -280 627 0
-397 310 26 628 0
-83 300 -288 629 0
477 -196 -113 630 0
-165 -344 434 631 0
330 428 -489 632 0
418 -300 265 633 0
-54 302 12 634 0
267 302 451 635 0
-26 455 171 636 0
77 -97 171 637 0
-198 443 -303 638 0
-202 53 245 639 0
259 -59 -73 640 0
-314 180 356 641 0
318 218 -483 642 0
289 354 -424 643 0
110 40 3 644 0
-66 150 438 645 0
267 -356 36 646 0
-359 276 195 647 0
101 -497 -475 648 0
-204 -38 67 649 0
-1 -452 331 650 0
12 482 -479 651 0
-341 247 128 652 0
453 -106 27 653 0
-131 321 488 654 0
-340 -27 -169 655 0
-243 -362 -289 656 0
-377 -250 -133 657 0
-10 -366 -82 658 0
-334 24 144 659 0
130 279 -222 660 0
-154 -54 368 661 0
-331 479 -41 662 0
130 15 162 663 0
172 22 -276 664 0
482 244 106 665 0
452 153 446 666 0
63 -452 -170 667 0
11 -408 -94 668 0
-23 -330 -6 669 0
-115 -151 -96 670 0
-2 -187 147 671 0
345 -462 -293 672 0
-224 473 -209 673 0
371 341 -313 674 0
-373 -459 273 675 0
-389 -479 -1 676 0
231 177 -339 677 0
315 16 -438 678 0
359 157 -66 679 0
-6 -317 74 680 0
-309 442 -337 681 0
280 -232 448 682 0
415 233 443 683 0
492 -463 -334 684 0
-207 194 196 685 0
266 -273 -377 686 0
494 -421 127 687 0
-378 -416 150 688 0
30 119 454 689 0
401 -166 -131 690 0
178 -480 271 691 0
114 -44 3 692 0
416 340 197 693 0
-62 -254 432 694 0
60 86 -113 695 0
370 -159 109 696 0
398 279 423 697 0
-133 -123 -165 698 0
-261 281 112 699 0
465 138 -9 700 0
91 324 -411 701 0
469 -396 -114 702 0
-193 -101 300 703 0
446 455 -412 704 0
-468 -250 -202 705 0
-458 -288 301 706 0
387 343 180 707 0
27 -245 -356 708 0
62 -5 376 709 0
-464 107 234 710 0
-246 -199 -351 711 0
374 -377 -78 712 0
-220 -411 -67 713 0
-222 -37 106 714 0
15 162 469 715 0
235 -30 5 716 0
316 -410 461 717 0
234 1 375 718 0
189 -331 -82 719 0
-132 -485 414 720 0
255 -93 -299 721 0
51 444 -157 722 0
-336 -348 350 723 0
101 -444 -306 724 0
-495 -154 -227 725 0
401 -237 -51 726 0
-479 73 483 727 0
299 -182 197 728 0
-293 -308 -244 729 0
430 -52 -415 730 0
65 91 -300 731 0
-439 297 461 732 0
-19 -46 70 733 0
-80 -99 478 734 0
-479 414 440 735 0
-471 -18 -379 736 0
-397 124 -10 737 0
-495 178 -431 738 0
332 -269 9 739 0
222 -415 -271 740 0
113 -266 53 741 0
307 302 466 742 0
375 13 417 743 0
233 248 -243 744 0
11 -216 388 745 0
186 242 368 746 0
-215 475 -398 747 0
367 -289 -78 748 0
462 -128 -311 749 0
386 -173 -360 750 0
243 -85 453 751 0
-326 197 -77 752 0
-362 -118 -217 753 0
29 57 43 754 0
233 -337 -112 755 0
402 132 -439 756 0
187 -54 229 757 0
-92 -414 309 758 0
-162 -402 -248 759 0
-71 -308 279 760 0
-219 120 199 761 0
362 -140 211 762 0
316 180 -425 763 0
-161 67 -420 764 0
464 -171 -330 765 0
-228 -277 122 766 0
-489 476 -234 767 0
239 -217 440 768 0
-14 254 -167 769 0
-481 -207 473 770 0
-337 320 -45 771 0
-490 -460 -74 772 0
-356 55 -461 773 0
484 -416 -108 774 0
-218 308 246 775 0
10 -44 -388 776 0
35 52 445 777 0
-288 -380 121 778 0
84 -339 -141 779 0
-259 -228 470 780 0
-332 129 -348 781 0
-470 302 103 782 0
452 118 -171 783 0
324 -168 51 784 0
439 138 261 785 0
162 -152 38 786 0
-301 285 -16 787 0
487 -245 -64 788 0
-480 -5 268 789 0
-190 -329 -332 790 0
165 -487 -468 791 0
-4 340 -297 792 0
399 406 -20 793 0
-371 158 9 794 0
339 -253 -75 795 0
315 381 -464 796 0
168 317 -301 797 0
-97 -213 -265 798 0
-497 -259 97 799 0
-287 -180 196 800 0
407 65 -483 801 0
-88 484 300 802 0
-130 238 198 803 0
-125 -124 -488 804 0
298 366 266 805 0
-27 327 389 806 0
216 -228 -396 807 0
128 294 165 808 0
-403 -309 -181 809 0
-392 -319 -150 810 0
-346 385 -425 811 0
-483 110 190 812 0
-473 -460 -54 813 0
-56 313 -229 814 0
19 64 -234 815 0
421 -248 -308 816 0
-35 -274 -127 817 0
318 451 89 818 0
408 -27 186 819 0
138 -478 -21 820 0
-362 -111 113 821 0
-470 -481 -252 822 0
-423 29 -25 823 0
34 210 -154 824 0
422 -162 317 825 0
-264 -253 -292 826 0
307 280 73 827 0
356 263 -384 828 0
328 -331 20 829 0
-461 462 -243 830 0
441 466 -337 831 0
179 -429 -74 832 0
-419 378 -357 833 0
-36 -259 -108 834 0
436 -96 173 835 0
-404 -157 -209 836 0
-453 400 -471 837 0
-183 -170 241 838 0
-46 34 -389 839 0
-474 139 471 840 0
373 -447 38 841 0
-358 -143 -262 842 0
482 -149 -183 843 0
-187 480 -106 844 0
150 -251 -50 845 0
329 471 39 846 0
493 293 -128 847 0
-98 55 -470 848 0
-117 -18 118 849 0
301 -480 417 850 0
315 -149 -37 851 0
246 97 -178 852 0
389 431 263 853 0
-49 -429 103 854 0
122 -428 488 855 0
-22 210 -46 856 0
-188 267 499 857 0
-226 380 -183 858 0
-227 -48 -34 859 0
429 -35 -85 860 0
2 422 5 861 0
-151 -421 -28 862 0
-96 117 353 863 0
402 -177 -494 864 0
-424 -358 -387 865 0
233 422 -144 866 0
344 -498 -209 867 0
318 170 55 868 0
240 344 453 869 0
-365 -308 -433 870 0
-400 -62 230 871 0
68 220 55 872 0
-207 411 197 873 0
213 -154 -109 874 0
481 -382 -342 875 0
489 404 494 876 0
101 334 9 877 0
283 150 -464 878 0
-390 297 42 879 0
-354 -413 -318 880 0
-173 221 -158 881 0
480 466 -178 882 0
-203 -450 -392 883 0
434 -169 -376 884 0
257 340 384 885 0
500 -298 -331 886 0
418 148 -475 887 0
154 -95 185 888 0
-386 186 314 889 0
-482 108 -348 890 0
340 -466 -412 891 0
-105 451 8 892 0
139 -92 49 893 0
137 237 165 894 0
305 -498 -98 895 0
-13 -2 -352 896 0
26 -114 -182 897 0
-48 136 -304 898 0
198 223 457 899 0
-467 149 492 900 0
-248 -375 159 901 0
450 -329 -278 902 0
168 -319 72 903 0
12 -391 285 904 0
310 248 34 905 0
-489 -182 116 906 0
-147 -329 -415 907 0
-414 -355 -60 908 0
-48 -129 294 909 0
495 -297 3 910 0
68 -473 -134 911 0
383 478 -211 912 0
-17 104 -31 913 0
-400 -134 157 914 0
-262 257 125 915 0
243 358 -130 916 0
-18 -489 392 917 0
497 -235 -182 918 0
-368 221 -426 919 0
271 269 -407 920 0
366 94 -475 921 0
191 130 213 922 0
-164 -76 -113 923 0
-432 -136 446 924 0
329 155 339 925 0
394 410 222 926 0
499 -107 291 927 0
-84 -91 -373 928 0
-439 396 -150 929 0
38 184 150 930 0
434 -139 436 931 0
-202 63 -57 932 0
472 370 217 933 0
206 305 333 934 0
-477 84 -242 935 0
-79 1 -10 936 0
262 -373 -133 937 0
72 302 141 938 0
436 -216 -263 939 0
71 -207 -386 940 0
-80 176 -196 941 0
-311 -180 -392 942 0
-146 353 -405 943 0
159 227 -413 944 0
-276 352 -209 945 0
-328 -17 -418 946 0
331 226 -143 947 0
-417 -316 -4 948 0
133 302 -319 949 0
398 62 90 950 0
-57 -21 215 951 0
-300 208 -345 952 0
189 80 -85 953 0
-461 175 -389 954 0
-359 222 -471 955 0
-330 -54 48 956 0
12 -108 -192 957 0
328 243 161 958 0
379 -113 -163 959 0
-347 -386 497 960 0
413 -78 -172 961 0
222 93 -286 962 0
249 -57 -287 963 0
127 43 315 964 0
-197 -76 -487 965 0
169 65 -141 966 0
338 -1 469 967 0
-215 225 -352 968 0
209 -458 -235 969 0
-467 405 53 970 0
287 425 211 971 0
155 105 -377 972 0
499 159 -321 973 0
-486 462 -435 974 0
-18 215 -362 975 0
104 450 58 976 0
-170 -254 -8 977 0
325 289 434 978 0
245 -399 383 979 0
156 -275 -233 980 0
-170 229 -267 981 0
-354 350 -223 982 0
196 191 -153 983 0
-449 -25 42 984 0
196 -402 -451 985 0
-357 198 -221 986 0
335 477 478 987 0
374 120 64 988 0
-368 -190 204 989 0
263 114 -291 990 0
-295 302 462 991 0
-429 186 220 992 0
29 434 424 993 0
-98 298 164 994 0
-155 86 438 995 0
351 470 -178 996 0
-126 458 -403 997 0
-115 -280 336 998 0
217 5 -412 999 0
-254 -130 -169 1000 0
-447 -34 -215 1001 0
-65 -97 78 1002 0
203 485 -330 1003 0
500 -142 427 1004 0
250 -41 295 1005 0
-304 -281 -20 1006 0
257 28 -446 1007 0
390 -160 -125 1008 0
372 -473 458 1009 0
269 -238 -164 1010 0
137 -57 415 1011 0
499 423 -312 1012 0
-195 29 218 1013 0
-145 265 257 1014 0
-114 -469 474 1015 0
490 479 -285 1016 0
-324 -484 -494 1017 0
-347 335 -453 1018 0
-312 314 6 1019 0
-114 67 349 1020 0
297 276 -259 1021 0
210 217 -346 1022 0
196 -80 29 1023 0
54 65 477 1024 0
-107 207 -427 1025 0
-344 -96 -2 1026 0
119 -117 307 1027 0
436 -403 -37 1028 0
-426 -27 -342 1029 0
441 -293 130 1030 0
-2 452 -148 1031 0
21 -201 10 1032 0
39 150 -42 1033 0
-406 229 -230 1034 0
-484 245 -59 1035 0
-245 -440 -26 1036 0
-460 487 324 1037 0
-148 50 322 1038 0
-207 234 -111 1039 0
361 336 -283 1040 0
-12 -267 148 1041 0
-76 -142 -429 1042 0
-406 -198 -392 1043 0
-458 -248 154 1044 0
-471 -313 -337 1045 0
-244 338 400 1046 0
344 -277 -19 1047 0
493 -259 -179 1048 0
43 315 -190 1049 0
201 212 202 1050 0
377 -363 384 1051 0
255 311 -249 1052 0
-174 -310 234 1053 0
-414 -456 473 1054 0
338 46 -465 1055 0
372 -246 -56 1056 0
-133 -179 -103 1057 0
-200 -119 -55 1058 0
165 -309 -381 1059 0
36 292 -392 1060 0
11 -156 -141 1061 0
-186 -164 66 1062 0
464 367 -415 1063 0
481 -85 -326 1064 0
-217 -129 -411 1065 0
-83 -65 261 1066 0
206 375 -71 1067 0
-266 263 357 1068 0
372 306 382 1069 0
447 5 403 1070 0
324 497 -347 1071 0
122 -128 -41 1072 0
-382 -243 -151 1073 0
-95 -121 -147 1074 0
433 72 -285 1075 0
-348 -280 -44 1076 0
12 -144 481 1077 0
497 489 442 1078 0
-266 -353 -330 1079 0
108 -160 -77 1080 0
349 381 -320 1081 0
281 405 -224 1082 0
-358 272 -286 1083 0
20 487 -397 1084 0
-366 -3 476 1085 0
431 308 -434 1086 0
-368 -472 -307 1087 0
-149 -29 68 1088 0
141 -265 -343 1089 0
-102 -85 -285 1090 0
-454 -277 -393 1091 0
154 225 -297 1092 0
-105 -431 -491 1093 0
-336 -323 337 1094 0
-279 -175 -493 1095 0
313 303 366 1096 0
269 368 401 1097 0
-221 367 -10 1098 0
293 363 149 1099 0
309 -216 341 1100 0
-128 339 -65 1101 0
-136 -65 84 1102 0
-6 274 -465 1103 0
456 117 278 1104 0
-207 454 -51 1105 0
299 482 -429 1106 0
77 -380 -152 1107 0
76 -51 -88 1108 0
339 -352 192 1109 0
45 194 -27 1110 0
-420 312 253 1111 0
255 -300 14 1112 0
187 -201 -396 1113 0
-272 256 -451 1114 0
-34 301 -84 1115 0
172 66 488 1116 0
-346 -106 356 1117 0
190 50 489 1118 0
-86 346 432 1119 0
314 497 -471 1120 0
-24 -449 -130 1121 0
-283 412 -340 1122 0
378 167 144 1123 0
-268 396 121 1124 0
397 48 -140 1125 0
427 -31 413 1126 0
-383 27 72 1127 0
468 -216 275 1128 0
293 177 -441 1129 0
-296 -360 -150 1130 0
68 28 493 1131 0
-252 165 -390 1132 0
-158 -130 -85 1133 0
-276 -185 -354 1134 0
406 -48 139 1135 0
214 55 107 1136 0
-219 -187 490 1137 0
389 -490 -139 1138 0
173 288 486 1139 0
2 36 -139 1140 0
-409 5 63 1141 0
-172 149 61 1142 0
468 124 -430 1143 0
71 74 205 1144 0
-385 -68 209 1145 0
295 12 236 1146 0
-287 -52 -46 1147 0
461 69 -207 1148 0
29 -384 -127 1149 0
320 39 -479 1150 0
258 -157 -25 1151 0
303 263 201 1152 0
279 77 96 1153 0
-455 -495 441 1154 0
375 324 -475 1155 0
200 -141 417 1156 0
-181 292 184 1157 0
32 380 465 1158 0
294 477 383 1159 0
197 309 343 1160 0
-175 -166 424 1161 0
-332 455 178 1162 0
363 124 480 1163 0
-172 235 304 1164 0
-309 -238 473 1165 0
329 -280 -497 1166 0
-484 57 -272 1167 0
-336 193 9 1168 0
-226 -80 -368 1169 0
198 214 422 1170 0
394 370 151 1171 0
73 202 -451 1172 0
-67 -78 -69 1173 0
105 9 -171 1174 0
100 -343 96 1175 0
-191 206 162 1176 0
376 11 445 1177 0
85 -23 240 1178 0
-283 -112 455 1179 0
173 218 144 1180 0
-451 13 -420 1181 0
344 -89 308 1182 0
-54 -342 46 1183 0
-412 -491 -276 1184 0
305 277 216 1185 0
-27 84 -347 1186 0
55 252 45 1187 0
-490 28 -393 1188 0
-431 27 406 1189 0
285 128 -254 1190 0
-205 -272 464 1191 0
397 23 396 1192 0
-205 249 -302 1193 0
48 -483 -379 1194 0
-64 222 -227 1195 0
-390 -420 462 1196 0
-484 249 -13 1197 0
367 -478 -98 1198 0
-449 -322 416 1199 0
42 -406 -496 1200 0
127 -265 161 1201 0
125 377 381 1202 0
-499 95 -226 1203 0
-414 -95 210 1204 0
-257 428 -241 1205 0
-406 -385 42 1206 0
-238 165 -89 1207 0
-216 -286 135 1208 0
-378 247 -233 1209 0
477 -92 -419 1210 0
1 -8 -90 1211 0
281 177 -366 1212 0
-486 -22 20 1213 0
16 -417 -1 1214 0
-20 77 -227 1215 0
441 -130 -450 1216 0
172 254 -7 1217 0
-182 -244 37 1218 0
-265 -358 137 1219 0
107 -150 232 1220 0
336 307 479 1221 0
-360 -444 -424 1222 0
-153 305 -406 1223 0
-176 414 455 1224 0
239 -361 -157 1225 0
20 490 -488 1226 0
51 -232 -19 1227 0
379 -459 366 1228 0
-498 -484 248 1229 0
105 -438 -318 1230 0
172 -249 196 1231 0
-310 428 455 1232 0
-251 -376 -212 1233 0
448 35 -144 1234 0
-431 -126 391 1235 0
130 302 -356 1236 0
405 -418 -81 1237 0
-179 225 -429 1238 0
74 325 291 1239 0
-318 -448 52 1240 0
150 -199 -169 1241 0
-76 496 -225 1242 0
484 307 -166 1243 0
208 313 64 1244 0
486 111 55 1245 0
59 -385 -204 1246 0
-45 -99 -57 1247 0
-247 -108 126 1248 0
-470 -367 -11 1249 0
-25 404 -439 1250 0
-39 301 411 1251 0
-456 -261 -416 1252 0
-247 213 412 1253 0
479 431 -322 1254 0
302 -397 -163 1255 0
255 -256 180 1256 0
-20 385 -1 1257 0
-205 279 221 1258 0
376 251 -113 1259 0
477 439 -106 1260 0
-254 -306 -274 1261 0
-467 -209 86 1262 0
-279 388 343 1263 0
240 276 -321 1264 0
169 425 108 1265 0
-145 412 -376 1266 0
88 477 497 1267 0
300 -72 -127 1268 0
484 86 -144 1269 0
96 -88 301 1270 0
28 -132 491 1271 0
367 355 -210 1272 0
75 4 -104 1273 0
-95 308 290 1274 0
-443 4 249 1275 0
100 -327 302 1276 0
-92 369 464 1277 0
417 -162 -34 1278 0
-496 259 437 1279 0
-254 -6 312 1280 0
-191 466 -68 1281 0
-406 -262 431 1282 0
461 -17 12 1283 0
-72 -85 354 1284 0
-150 279 18 1285 0
-306 488 -193 1286 0
388 418 270 1287 0
225 -141 339 1288 0
-313 -152 -450 1289 0
-268 315 157 1290 0
110 26 499 1291 0
-361 176 -468 1292 0
203 -305 -389 1293 0
274 65 -209 1294 0
-119 331 135 1295 0
448 -156 126 1296 0
53 -211 65 1297 0
139 131 314 1298 0
-427 -84 380 1299 0
-4 121 -251 1300 0
318 337 83 1301 0
-187 -346 -261 1302 0
185 -288 249 1303 0
126 -65 -374 1304 0
-77 -218 -327 1305 0
89 -407 329 1306 0
-334 -378 -103 1307 0
465 -447 -69 1308 0
67 -268 195 1309 0
-144 358 61 1310 0
423 -370 249 1311 0
357 -166 344 1312 0
369 132 412 1313 0
110 -438 85 1314 0
-85 296 260 1315 0
-300 382 155 1316 0
202 -214 -367 1317 0
211 -457 -20 1318 0
351 -104 400 1319 0
-347 122 489 1320 0
-461 330 -366 1321 0
372 -426 -364 1322 0
220 -275 435 1323 0
425 -499 382 1324 0
476 282 395 1325 0
467 180 191 1326 0
229 -492 -45 1327 0
-479 203 53 1328 0
393 -439 -30 1329 0
44 347 131 1330 0
-246 1 -448 1331 0
91 -438 -248 1332 0
225 -8 -201 1333 0
-458 -461 88 1334 0
315 163 44 1335 0
-113 410 352 1336 0
189 348 93 1337 0
270 -309 164 1338 0
-423 -276 -412 1339 0
305 -67 383 1340 0
362 -184 -250 1341 0
164 -180 -126 1342 0
-307 -104 328 1343 0
-238 -472 -450 1344 0
-141 -231 -194 1345 0
238 311 419 1346 0
-276 314 378 1347 0
-301 -438 209 1348 0
296 -137 -244 1349 0
-303 -16 -150 1350 0
-120 202 15 1351 0
102 186 -391 1352 0
389 -420 -490 1353 0
19 -267 -392 1354 0
-424 377 387 1355 0
-41 -129 23 1356 0
-380 198 -38 1357 0
233 452 -363 1358 0
-166 406 129 1359 0
-217 134 294 1360 0
-404 372 204 1361 0
125 447 209 1362 0
-500 237 -234 1363 0
121 -498 10 1364 0
-58 -118 -101 1365 0
210 319 -381 1366 0
-437 225 393 1367 0
12 -212 10 1368 0
392 425 -288 1369 0
299 102 -227 1370 0
-30 -264 296 1371 0
45 263 -456 1372 0
-108 -104 -428 1373 0
282 251 80 1374 0
177 136 250 1375 0
-16 167 -98 1376 0
171 80 -257 1377 0
-155 367 64 1378 0
-140 -408 -91 1379 0
-386 481 -34 1380 0
-483 38 360 1381 0
14 45 -218 1382 0
-225 -331 376 1383 0
194 192 -458 1384 0
257 281 56 1385 0
125 -342 187 1386 0
-476 -378 168 1387 0
-135 -140 376 1388 0
204 323 -456 1389 0
-308 430 400 1390 0
112 -476 -144 1391 0
394 198 268 1392 0
249 -280 155 1393 0
1 -492 -253 1394 0
-353 359 -405 1395 0
439 -426 369 1396 0
490 -136 322 1397 0
-406 90 -373 1398 0
-308 217 131 1399 0
498 152 -114 1400 0
385 161 -466 1401 0
-9 407 -199 1402 0
-422 456 -295 1403 0
250 7 472 1404 0
216 -398 268 1405 0
-188 255 2 1406 0
-272 104 -46 1407 0
389 -358 -332 1408 0
140 454 447 1409 0
123 -127 384 1410 0
320 4 98 1411 0
-78 -394 237 1412 0
-233 173 -39 1413 0
-101 211 493 1414 0
-341 305 157 1415 0
-467 -204 -187 1416 0
329 -201 -54 1417 0
-422 -136 -20 1418 0
-362 103 -43 1419 0
458 80 451 1420 0
-394 479 325 1421 0
-179 131 384 1422 0
314 -116 -408 1423 0
-233 398 474 1424 0
-324 424 174 1425 0
415 -186 -375 1426 0
349 -191 210 1427 0
429 -183 -396 1428 0
389 -148 -77 1429 0
-353 29 -393 1430 0
-252 -142 181 1431 0
67 -47 -433 1432 0
389 66 -21 1433 0
-439 -325 -340 1434 0
41 313 4 1435 0
247 419 -489 1436 0
350 -412 208 1437 0
-491 -189 -51 1438 0
-383 155 -46 1439 0
-409 355 219 1440 0
-362 -376 483 1441 0
-255 -369 305 1442 0
97 -482 -460 1443 0
411 194 483 1444 0
286 -258 -443 1445 0
-490 -243 -67 1446 0
476 302 -426 1447 0
-358 209 324 1448 0
220 249 229 1449 0
-215 354 -223 1450 0
441 462 209 1451 0
320 157 -19 1452 0
33 -177 470 1453 0
123 -322 500 1454 0
-358 -121 -385 1455 0
496 -114 -350 1456 0
-60 165 -241 1457 0
184 -333 -90 1458 0
112 16 329 1459 0
-244 73 -88 1460 0
-104 437 141 1461 0
340 179 53 1462 0
303 137 105 1463 0
130 -64 30 1464 0
425 -75 360 1465 0
322 243 279 1466 0
344 -6 187 1467 0
479 186 -285 1468 0
-239 -129 246 1469 0
-46 -71 50 1470 0
-288 -463 331 1471 0
-209 313 189 1472 0
-319 92 201 1473 0
-218 137 434 1474 0
-187 -7 198 1475 0
386 -148 -51 1476 0
-126 -441 109 1477 0
-306 -364 -245 1478 0
112 145 -81 1479 0
442 -202 450 1480 0
353 -196 -81 1481 0
298 -455 -465 1482 0
-15 312 -386 1483 0
-442 -192 330 1484 0
418 -187 -58 1485 0
148 55 48 1486 0
172 -283 280 1487 0
486 -339 267 1488 0
352 409 89 1489 0
-221 339 344 1490 0
320 -302 244 1491 0
38 111 354 1492 0
340 -483 -15 1493 0
64 -123 -495 1494 0
-173 303 476 1495 0
398 224 -221 1496 0
400 439 256 1497 0
308 -61 473 1498 0
326 -239 377 1499 0
-122 428 -477 1500 0
-193 -199 187 1501 0
-467 -66 56 1502 0
2 -86 294 1503 0
-127 -111 -58 1504 0
-239 277 -261 1505 0
32 248 -404 1506 0
-68 443 -166 1507 0
-356 175 52 1508 0
176 55 -260 1509 0
-113 59 79 1510 0
270 458 -109 1511 0
-446 -435 47 1512 0
278 -255 -45 1513 0
-225 -365 -143 1514 0
-305 -119 -228 1515 0
158 -404 391 1516 0
-11 -159 -253 1517 0
-363 455 365 1518 0
19 -436 -278 1519 0
165 -247 -450 1520 0
-419 482 -326 1521 0
-499 121 -441 1522 0
-393 244 -334 1523 0
-20 270 301 1524 0
-216 318 -268 1525 0
-480 -30 76 1526 0
133 -318 349 1527 0
346 -349 176 1528 0
186 48 401 1529 0
459 428 -62 1530 0
-269 138 115 1531 0
-138 170 -450 1532 0
104 -229 -294 1533 0
242 -301 -331 1534 0
339 -313 230 1535 0
342 -477 -156 1536 0
-220 101 -329 1537 0
-291 248 -302 1538 0
-94 417 64 1539 0
475 106 290 1540 0
237 498 -303 1541 0
-225 436 305 1542 0
-328 -145 379 1543 0
-86 -135 -321 1544 0
405 -226 -195 1545 0
-161 52 -256 1546 0
-277 -160 -242 1547 0
345 -269 94 1548 0
-418 -306 222 1549 0
-134 -237 -444 1550 0
484 124 259 1551 0
410 -269 -74 1552 0
-394 214 -174 1553 0
407 -497 -288 1554 0
398 371 420 1555 0
70 -110 -190 1556 0
70 497 179 1557 0
6 -89 -345 1558 0
368 -199 -33 1559 0
100 -273 -262 1560 0
218 290 362 1561 0
245 -482 51 1562 0
-396 -221 65 1563 0
222 -297 307 1564 0
28 46 -83 1565 0
-101 267 120 1566 0
285 -295 -155 1567 0
-152 165 -65 1568 0
14 -114 -3 1569 0
157 319 -245 1570 0
-117 157 1 1571 0
419 -273 287 1572 0
177 -28 69 1573 0
-339 -144 475 1574 0
-332 302 83 1575 0
-431 39 -370 1576 0
211 -459 352 1577 0
48 -393 -154 1578 0
228 -332 -183 1579 0
-111 -179 -439 1580 0
278 306 -146 1581 0
25 -207 -84 1582 0
-140 -346 -270 1583 0
47 6 -337 1584 0
-381 -3 -465 1585 0
448 276 -326 1586 0
273 -402 -235 1587 0
366 -35 411 1588 0
-234 -137 -495 1589 0
180 -53 -167 1590 0
-414 339 478 1591 0
-304 -262 -342 1592 0
11 -40 -447 1593 0
443 330 166 1594 0
-356 -221 490 1595 0
-368 367 211 1596 0
-49 463 206 1597 0
-436 433 -412 1598 0
197 -142 25 1599 0
490 318 -317 1600 0
363 359 -485 1601 0
291 -497 -278 1602 0
281 -153 -116 1603 0
-139 40 -383 1604 0
417 17 254 1605 0
-354 433 285 1606 0
-475 467 391 1607 0
263 -166 -380 1608 0
295 -333 -500 1609 0
-39 354 -399 1610 0
-429 425 4 1611 0
60 -309 -167 1612 0
-104 371 -75 1613 0
-137 199 306 1614 0
3 -444 73 1615 0
-144 -19 266 1616 0
-111 375 -136 1617 0
290 -178 -413 1618 0
41 272 436 1619 0
-169 475 410 1620 0
-164 -427 151 1621 0
-486 31 204 1622 0
-66 500 56 1623 0
-263 -20 21 1624 0
-453 464 490 1625 0
273 -84 93 1626 0
-390 -16 -136 1627 0
-129 413 179 1628 0
359 298 -389 1629 0
19 93 406 1630 0
280 -412 -63 1631 0
334 299 -491 1632 0
-490 -330 433 1633 0
-288 -431 426 1634 0
218 -371 111 1635 0
403 340 170 1636 0
-262 428 -18 1637 0
-73 -7 354 1638 0
-91 -473 186 1639 0
-53 -260 78 1640 0
282 94 -59 1641 0
-206 465 353 1642 0
-420 498 -425 1643 0
112 -253 133 1644 0
-147 -334 450 1645 0
1 491 -96 1646 0
-260 -182 -297 1647 0
-222 373 -405 1648 0
-358 276 366 1649 0
23 130 256 1650 0
167 -210 104 1651 0
-51 322 -22 1652 0
170 -54 -468 1653 0
191 446 19 1654 0
31 -496 353 1655 0
-313 430 361 1656 0
161 459 -337 1657 0
467 265 130 1658 0
-243 420 -18 1659 0
368 52 92 1660 0
-174 -51 -144 1661 0
227 -436 -292 1662 0
257 97 -417 1663 0
-258 3 353 1664 0
-401 -288 -60 1665 0
-284 -66 430 1666 0
-71 -330 -344 1667 0
411 -396 -296 1668 0
483 -14 125 1669 0
-468 15 54 1670 0
162 -92 19 1671 0
203 476 356 1672 0
-73 -368 -416 1673 0
262 -354 389 1674 0
153 -390 342 1675 0
-265 -55 180 1676 0
213 -65 180 1677 0
165 307 -45 1678 0
32 258 428 1679 0
435 96 338 1680 0
139 474 -249 1681 0
-85 -284 311 1682 0
354 -249 -115 1683 0
-367 98 104 1684 0
445 -66 -163 1685 0
-444 396 327 1686 0
101 -277 384 1687 0
30 313 -489 1688 0
-284 -123 305 1689 0
-213 149 -62 1690 0
124 429 -68 1691 0
414 -300 338 1692 0
244 112 330 1693 0
-409 -105 -295 1694 0
-240 11 -358 1695 0
-430 -309 335 1696 0
-339 -433 437 1697 0
6 276 426 1698 0
-329 15 -267 1699 0
43 36 -39 1700 0
93 -417 -421 1701 0
118 -277 325 1702 0
117 20 -228 1703 0
497 107 -202 1704 0
-396 -37 -271 1705 0
-46 -497 -149 1706 0
-200 86 453 1707 0
-300 74 407 1708 0
-497 -55 188 1709 0
-32 340 -318 1710 0
-37 370 -1 1711 0
87 -224 270 1712 0
134 280 60 1713 0
130 452 154 1714 0
331 367 -380 1715 0
11 -77 9 1716 0
77 117 -143 1717 0
-156 -208 109 1718 0
-175 -102 -152 1719 0
-397 465 -42 1720 0
6 83 443 1721 0
126 -245 -304 1722 0
437 310 -164 1723 0
-228 224 416 1724 0
422 -427 316 1725 0
276 469 -343 1726 0
-363 -12 -15 1727 0
-248 -382 -6 1728 0
-319 -438 11 1729 0
-107 -242 -264 1730 0
93 -239 -441 1731 0
-160 30 -39 1732 0
290 -360 386 1733 0
451 471 -312 1734 0
236 447 73 1735 0
-302 473 247 1736 0
384 95 16 1737 0
371 434 -172 1738 0
-173 -79 -355 1739 0
-69 71 223 1740 0
390 18 -159 1741 0
174 -144 491 1742 0
449 -67 -454 1743 0
-79 -81 443 1744 0
-214 -355 311 1745 0
119 246 -189 1746 0
441 413 -46 1747 0
141 -313 -167 1748 0
201 365 243 1749 0
-494 69 -332 1750 0
109 420 361 1751 0
446 -147 42 1752 0
380 -72 -260 1753 0
-172 351 -16 1754 0
-281 -233 155 1755 0
203 271 357 1756 0
-467 -453 -18 1757 0
-143 264 103 1758 0
-464 353 12 1759 0
-353 -27 367 1760 0
-226 494 495 1761 0
-23 -297 53 1762 0
283 -401 -21 1763 0
204 97 -315 1764 0
302 426 -489 1765 0
-272 286 208 1766 0
97 -292 -40 1767 0
-326 295 -298 1768 0
-237 62 73 1769 0
295 239 225 1770 0
-36 -398 -2 1771 0
41 28 453 1772 0
378 -183 325 1773 0
184 147 464 1774 0
67 -349 48 1775 0
-454 -96 -233 1776 0
52 57 267 1777 0
157 120 35 1778 0
-156 -390 203 1779 0
483 -452 184 1780 0
211 -499 1 1781 0
-265 397 192 1782 0
-481 -81 -111 1783 0
-385 -161 410 1784 0
84 -237 374 1785 0
318 92 -437 1786 0
293 281 258 1787 0
396 435 338 1788 0
-486 -396 -373 1789 0
-361 -185 -380 1790 0
373 -387 406 1791 0
174 283 -73 1792 0
289 -236 54 1793 0
68 -332 -479 1794 0
107 26 408 1795 0
-465 481 -276 1796 0
-470 466 -3 1797 0
-420 -35 325 1798 0
42 -150 45 1799 0
-349 -372 -365 1800 0
93 303 188 1801 0
265 72 340 1802 0
177 -125 416 1803 0
-326 -136 303 1804 0
-441 288 9 1805 0
15 389 -413 1806 0
-374 -383 252 1807 0
24 -29 268 1808 0
-130 306 -399 1809 0
-424 -247 76 1810 0
67 -331 -358 1811 0
18 272 -101 1812 0
87 -287 103 1813 0
-75 -86 -24 1814 0
-317 367 341 1815 0
135 -371 285 1816 0
-319 236 150 1817 0
2 216 -350 1818 0
103 -418 55 1819 0
274 -5 -365 1820 0
385 -465 354 1821 0
-326 44 201 1822 0
-356 -185 -34 1823 0
290 192 160 1824 0
297 -342 271 1825 0
-215 -75 -295 1826 0
491 157 -179 1827 0
437 -228 -201 1828 0
-491 44 -243 1829 0
113 392 363 1830 0
124 169 346 1831 0
-312 209 435 1832 0
-173 -161 2 1833 0
174 269 78 1834 0
-147 -407 -187 1835 0
-412 -383 233 1836 0
-37 -315 96 1837 0
152 447 454 1838 0
-359 267 -408 1839 0
-295 212 421 1840 0
344 312 -67 1841 0
118 -173 -295 1842 0
204 342 -188 1843 0
499 -68 265 1844 0
282 59 -16 1845 0
18 -177 -318 1846 0
-491 -11 -82 1847 0
395 -66 -168 1848 0
-167 138 -376 1849 0
-195 -448 -425 1850 0
483 -92 -86 1851 0
180 -347 -422 1852 0
-273 -280 66 1853 0
-495 -137 272 1854 0
-445 350 -41 1855 0
111 -404 57 1856 0
-340 207 350 1857 0
-370 -324 57 1858 0
194 474 363 1859 0
-38 -422 -221 1860 0
367 463 -180 1861 0
-497 -430 122 1862 0
399 248 -266 1863 0
-204 -287 -425 1864 0
39 -156 -306 1865 0
175 -427 -293 1866 0
46 -60 -62 1867 0
4 -238 -407 1868 0
380 212 324 1869 0
202 -81 400 1870 0
-211 -32 -262 1871 0
-489 -199 -47 1872 0
-404 146 -429 1873 0
-22 -268 306 1874 0
-324 188 39 1875 0
364 -29 443 1876 0
-492 -1 -427 1877 0
151 50 255 1878 0
372 -366 282 1879 0
350 134 -178 1880 0
-401 485 362 1881 0
130 395 260 1882 0
-240 286 -438 1883 0
210 297 349 1884 0
-325 155 -70 1885 0
297 -351 -149 1886 0
-131 301 -449 1887 0
409 -392 161 1888 0
-280 4 128 1889 0
-288 -486 410 1890 0
490 -283 459 1891 0
376 429 274 1892 0
-179 -42 61 1893 0
201 249 -357 1894 0
-460 32 -337 1895 0
477 449 379 1896 0
-44 418 -170 1897 0
446 -389 -176 1898 0
-146 -127 193 1899 0
-107 67 374 1900 0
409 240 73 1901 0
-52 27 -333 1902 0
-264 -496 363 1903 0
-250 409 377 1904 0
373 -233 -217 1905 0
-157 -383 458 1906 0
-15 13 -54 1907 0
-363 261 14 1908 0
444 307 109 1909 0
-64 -288 -348 1910 0
-456 487 479 1911 0
-405 -181 -289 1912 0
412 200 -9 1913 0
-256 -275 -226 1914 0
42 -326 434 1915 0
349 432 -481 1916 0
178 251 -134 1917 0
93 178 -22 1918 0
323 176 284 1919 0
-471 -247 478 1920 0
-476 422 460 1921 0
-106 273 385 1922 0
-336 343 348 1923 0
470 -43 197 1924 0
-480 67 283 1925 0
-310 -330 339 1926 0
221 -52 32 1927 0
-453 -354 241 1928 0
264 -77 374 1929 0
-444 16 301 1930 0
-475 329 -103 1931 0
-84 -161 137 1932 0
-311 336 -162 1933 0
12 382 81 1934 0
-253 -344 -226 1935 0
-145 4 463 1936 0
267 -212 172 1937 0
-331 -305 -174 1938 0
245 -398 107 1939 0
101 154 -307 1940 0
-466 -191 -135 1941 0
-349 -392 -115 1942 0
-261 385 -263 1943 0
78 -240 283 1944 0
-482 336 383 1945 0
428 -431 -499 1946 0
170 -280 47 1947 0
116 -31 -245 1948 0
490 442 195 1949 0
34 30 -228 1950 0
73 460 217 1951 0
333 -419 -444 1952 0
52 20 2 1953 0
268 -263 154 1954 0
-141 -492 379 1955 0
-247 107 189 1956 0
-67 181 13 1957 0
-115 253 -307 1958 0
331 -143 -420 1959 0
-359 -337 186 1960 0
115 -454 175 1961 0
461 412 -378 1962 0
-378 265 -306 1963 0
-269 -470 296 1964 0
-59 -174 362 1965 0
-320 -224 302 1966 0
-437 2 459 1967 0
82 124 -242 1968 0
18 -415 -276 1969 0
335 -398 -238 1970 0
88 -29 -340 1971 0
150 265 -55 1972 0
236 -444 -59 1973 0
-67 106 -265 1974 0
131 183 -225 1975 0
-472 119 -379 1976 0
-325 465 -146 1977 0
240 -341 493 1978 0
-282 -434 -131 1979 0
-149 -216 -191 1980 0
-415 308 -170 1981 0
122 -442 480 1982 0
-251 -235 -12 1983 0
362 -165 355 1984 0
-391 -148 -182 1985 0
312 -380 324 1986 0
-130 -26 90 1987 0
-84 -236 176 1988 0
-183 -172 148 1989 0
390 -391 -52 1990 0
61 -300 482 1991 0
109 -202 490 1992 0
-345 -237 -131 1993 0
189 -293 360 1994 0
-322 378 -283 1995 0
422 107 102 1996 0
-218 -59 370 1997 0
-470 237 426 1998 0
-102 182 -365 1999 0
-126 491 -471 2000 0
186 -469 18 2001 0
334 335 -188 2002 0
-214 -64 283 2003 0
457 444 -181 2004 0
225 -335 -449 2005 0
-229 94 257 2006 0
240 -429 410 2007 0
-299 -229 -81 2008 0
-378 475 19 2009 0
117 485 -496 2010 0
161 -329 -376 2011 0
-57 206 413 2012 0
81 489 143 2013 0
164 -392 -395 2014 0
-53 -424 -230 2015 0
-118 -42 100 2016 0
-237 248 -260 2017 0
-271 -383 -364 2018 0
-458 -406 -345 2019 0
298 364 494 2020 0
-382 234 -461 2021 0
129 489 397 2022 0
-407 -241 320 2023 0
160 375 152 2024 0
-425 152 189 2025 0
465 210 349 2026 0
-404 162 440 2027 0
-263 -409 467 2028 0
-406 -176 -202 2029 0
329 318 -95 2030 0
495 -16 225 2031 0
-60 -288 241 2032 0
-438 -166 -86 2033 0
-466 -494 364 2034 0
-437 352 -339 2035 0
471 36 300 2036 0
-83 179 364 2037 0
-365 16 -247 2038 0
-42 -278 -447 2039 0
61 212 -486 2040 0
-261 -237 -469 2041 0
92 -115 480 2042 0
-180 -336 302 2043 0
-98 -294 -100 2044 0
-370 -250 -396 2045 0
-4 -385 20 2046 0
149 -388 362 2047 0
385 -403 -425 2048 0
-409 317 88 2049 0
-112 -386 -462 2050 0
-141 316 89 2051 0
-454 -455 21 2052 0
-49 463 -81 2053 0
282 307 58 2054 0
493 -428 468 2055 0
-188 -174 -203 2056 0
-82 -22 -457 2057 0
-365 -183 -401 2058 0
-134 -289 -115 2059 0
-266 -97 462 2060 0
-344 -137 -341 2061 0
314 225 -272 2062 0
-311 437 -120 2063 0
333 -213 -452 2064 0
-500 411 -18 2065 0
-292 120 -288 2066 0
361 -256 132 2067 0
24 -8 188 2068 0
-112 -152 381 2069 0
95 496 -355 2070 0
474 -56 79 2071 0
-196 -114 107 2072 0
-197 57 -260 2073 0
479 163 227 2074 0
230 -262 143 2075 0
173 435 44 2076 0
216 -297 -495 2077 0
29 206 334 2078 0
314 2 223 2079 0
-241 334 417 2080 0
-491 -151 -113 2081 0
262 340 396 2082 0
-277 -75 374 2083 0
92 -486 8 2084 0
494 334 4 2085 0
7 -260 328 2086 0
85 -3 386 2087 0
489 -88 313 2088 0
-13 -204 -82 2089 0
43 -336 134 2090 0
290 395 -102 2091 0
223 486 141 2092 0
-206 10 339 2093 0
-244 -30 -285 2094 0
-342 -125 -112 2095 0
43 224 -494 2096 0
402 -324 -233 2097 0
-365 -248 335 2098 0
288 -223 -160 2099 0
480 -208 35 2100 0
13 -361 -443 2101 0
485 -294 241 2102 0
209 -341 324 2103 0
-187 134 315 2104 0
-397 388 -382 2105 0
62 -389 18 2106 0
-450 125 296 2107 0
382 133 -248 2108 0
-356 106 -265 2109 0
175 -94 -172 2110 0
-480 -200 -76 2111 0
-480 364 365 2112 0
209 235 -185 2113 0
461 162 -8 2114 0
-497 -196 457 2115 0
-457 81 253 2116 0
-426 -416 338 2117 0
41 335 -110 2118 0
146 388 401 2119 0
-266 -322 -48 2120 0
381 135 358 2121 0
-29 -405 306 2122 0
271 155 -280 2123 0
266 -71 281 2124 0
216 243 118 2125 0
393 443 -43 2126 0
441 185 -497 2127 0
415 -297 381 2128 0
94 495 328 2129 0
-308 -274 221 2130 0
192 208 492 2131 0
199 489 -499 2132 0
-335 -73 -333 2133 0
161 -34 27 2134 0
-438 406 464 2135 0
-43 233 185 2136 0
-301 478 -200 2137 0
-448 388 146 2138 0
-36 130 51 2139 0
-238 39 -144 2140 0
-324 110 367 2141 0
69 -44 -462 2142 0
-187 155 329 2143 0
-5 -370 221 2144 0
-139 389 -451 2145 0
387 453 -67 2146 0
259 352 -45 2147 0
-111 -169 -113 2148 0
-12 -326 487 2149 0
341 450 -364 2150 0
-358 -421 -2 2151 0
401 424 -115 2152 0
278 321 100 2153 0
385 -419 360 2154 0
216 -178 -202 2155 0
-144 402 389 2156 0
224 -238 -64 2157 0
256 188 -398 2158 0
477 -155 146 2159 0
-187 391 320 2160 0
-112 151 -225 2161 0
-252 -378 91 2162 0
90 -266 174 2163 0
51 -446 -55 2164 0
-307 -12 -25 2165 0
-438 354 -195 2166 0
347 -377 -402 2167 0
423 230 -428 2168 0
358 322 -437 2169 0
245 226 -88 2170 0
-221 -300 193 2171 0
36 248 15 2172 0
216 271 200 2173 0
-84 402 311 2174 0
-256 198 305 2175 0
360 363 -480 2176 0
-32 -416 -385 2177 0
259 180 -65 2178 0
356 363 340 2179 0
-184 211 495 2180 0
199 334 259 2181 0
-80 -334 440 2182 0
20 258 -73 2183 0
46 -252 -38 2184 0
-288 243 -439 2185 0
247 6 -498 2186 0
-380 340 -181 2187 0
136 -117 410 2188 0
-393 190 169 2189 0
-38 220 -107 2190 0
-432 468 295 2191 0
-443 -139 -470 2192 0
-270 52 -38 2193 0
-303 -14 385 2194 0
-231 -422 -246 2195 0
49 -442 -332 2196 0
-83 -190 130 2197 0
240 441 342 2198 0
131 -462 38 2199 0
-435 -457 -115 2200 0
-207 80 334 2201 0
182 328 -211 2202 0
143 -273 -153 2203 0
367 -144 -8 2204 0
-253 -274 272 2205 0
-324 -37 -183 2206 0
-163 -285 -269 2207 0
411 180 73 2208 0
-8 -349 -367 2209 0
318 93 336 2210 0
23 -375 -151 2211 0
-66 -366 -288 2212 0
118 437 -60 2213 0
-284 144 -326 2214 0
457 -367 -5 2215 0
73 -291 -52 2216 0
-144 -378 316 2217 0
-282 -12 -304 2218 0
-175 221 132 2219 0
-78 325 -343 2220 0
355 413 -477 2221 0
389 255 -341 2222 0
254 -219 442 2223 0
459 46 64 2224 0
-127 375 201 2225 0
-64 12 -252 2226 0
163 149 266 2227 0
23 -206 265 2228 0
391 138 -107 2229 0
-321 422 -396 2230 0
170 -418 123 2231 0
-127 294 -474 2232 0
374 73 197 2233 0
-385 -129 -34 2234 0
353 -453 -216 2235 0
90 417 91 2236 0
269 333 -332 2237 0
-233 -28 170 2238 0
-212 -11 164 2239 0
-337 -49 159 2240 0
419 46 433 2241 0
-18 -363 -440 2242 0
-24 34 -118 2243 0
5 142 56 2244 0
-231 236 115 2245 0
-404 441 341 2246 0
-388 332 214 2247 0
-390 -378 -146 2248 0
157 -187 -364 2249 0
-14 90 256 2250 0
-318 -202 -42 2251 0
-355 435 390 2252 0
-46 -367 147 2253 0
-3 -321 -419 2254 0
-322 -292 166 2255 0
-133 464 94 2256 0
119 316 313 2257 0
36 84 -492 2258 0
-41 -271 -130 2259 0
259 220 274 2260 0
-22 431 262 2261 0
402 438 -14 2262 0
-275 485 -2 2263 0
-352 364 286 2264 0
-348 327 126 2265 0
-442 141 -138 2266 0
-378 498 262 2267 0
-446 27 -253 2268 0
93 65 -81 2269 0
-444 134 -411 2270 0
-376 -397 460 2271 0
231 97 419 2272 0
482 146 136 2273 0
470 341 166 2274 0
307 273 250 2275 0
234 -93 -34 2276 0
-300 -216 29 2277 0
-287 -65 57 2278 0
289 1 282 2279 0
288 25 346 2280 0
-297 -38 -230 2281 0
431 310 -489 2282 0
7 406 -453 2283 0
-169 382 495 2284 0
-22 207 57 2285 0
-26 -136 60 2286 0
50 224 -80 2287 0
-224 347 493 2288 0
-406 460 142 2289 0
-228 68 -51 2290 0
179 186 -413 2291 0
-63 101 -128 2292 0
208 32 473 2293 0
-18 -384 186 2294 0
248 -303 236 2295 0
-445 356 149 2296 0
488 -396 92 2297 0
227 150 -19 2298 0
-63 -257 -377 2299 0
-299 158 262 2300 0
309 -263 454 2301 0
295 250 -254 2302 0
-277 -48 -74 2303 0
465 -294 247 2304 0
202 -350 274 2305 0
161 -464 372 2306 0
-373 325 -114 2307 0
-269 -424 390 2308 0
125 -330 187 2309 0
-225 -463 3 2310 0
488 393 125 2311 0
-66 245 -148 2312 0
-52 -298 -238 2313 0
396 -21 360 2314 0
-328 -101 -58 2315 0
-116 336 194 2316 0
387 306 -96 2317 0
436 246 219 2318 0
64 164 370 2319 0
-223 -358 318 2320 0
-187 258 296 2321 0
277 339 318 2322 0
-221 -447 360 2323 0
-322 -269 -289 2324 0
193 293 231 2325 0
-149 -263 -464 2326 0
-324 -5 -133 2327 0
119 482 -392 2328 0
183 -226 -25 2329 0
-249 -390 -186 2330 0
-453 308 -139 2331 0
258 55 -363 2332 0
-62 -402 401 2333 0
308 116 -459 2334 0
63 -14 115 2335 0
-476 -16 -499 2336 0
297 -318 389 2337 0
138 180 -297 2338 0
399 88 175 2339 0
-456 409 -241 2340 0
2 -207 -186 2341 0
-406 -453 -242 2342 0
216 136 -96 2343 0
197 39 -27 2344 0
402 215 336 2345 0
-2 257 -36 2346 0
119 -325 212 2347 0
239 244 411 2348 0
-323 135 16 2349 0
66 -340 354 2350 0
26 476 -171 2351 0
-41 -92 -315 2352 0
387 -489 -465 2353 0
167 127 -288 2354 0
471 93 -185 2355 0
306 -348 -143 2356 0
-460 433 -407 2357 0
238 -403 -406 2358 0
64 -342 391 2359 0
-395 316 -345 2360 0
-299 -398 96 2361 0
349 -190 173 2362 0
-38 -485 -223 2363 0
205 -173 -228 2364 0
148 401 262 2365 0
220 84 239 2366 0
-191 424 -22 2367 0
76 -20 332 2368 0
-227 -183 59 2369 0
487 74 143 2370 0
-331 467 300 2371 0
-282 466 264 2372 0
280 -416 431 2373 0
-56 104 217 2374 0
-177 143 247 2375 0
-436 486 112 2376 0
382 -390 -92 2377 0
14 7 361 2378 0
-433 -112 358 2379 0
393 -76 -474 2380 0
62 452 379 2381 0
-492 -197 5 2382 0
-18 -246 -420 2383 0
193 -321 -93 2384 0
-472 -93 299 2385 0
-355 -267 473 2386 0
244 -140 40 2387 0
374 459 323 2388 0
279 415 152 2389 0
385 29 320 2390 0
-495 -212 -447 2391 0
104 -325 207 2392 0
-289 309 -394 2393 0
-80 202 -473 2394 0
470 -194 -280 2395 0
418 70 321 2396 0
57 440 -294 2397 0
366 -386 -375 2398 0
146 82 -15 2399 0
118 -174 464 2400 0
353 -122 312 2401 0
259 148 58 2402 0
-392 -226 309 2403 0
202 -328 126 2404 0
-38 153 24 2405 0
-117 -456 -405 2406 0
111 -422 -35 2407 0
308 83 -145 2408 0
404 -98 233 2409 0
-278 465 -395 2410 0
45 1 -291 2411 0
444 456 -173 2412 0
-167 346 -170 2413 0
-112 139 -66 2414 0
74 -431 -394 2415 0
-141 -142 416 2416 0
142 196 -206 2417 0
62 185 -95 2418 0
127 -404 -19 2419 0
333 -373 -90 2420 0
390 172 -300 2421 0
480 475 -243 2422 0
-391 -316 127 2423 0
277 482 -398 2424 0
-289 -25 -136 2425 0
-411 459 -485 2426 0
195 307 478 2427 0
-94 177 272 2428 0
-487 -94 356 2429 0
-370 137 -161 2430 0
-412 378 -386 2431 0
384 -409 -138 2432 0
-118 265 472 2433 0
288 108 224 2434 0
-48 300 -154 2435 0
-216 -57 310 2436 0
274 -11 456 2437 0
-284 277 -290 2438 0
373 -90 59 2439 0
243 255 -427 2440 0
-467 218 -379 2441 0
-358 -186 295 2442 0
336 -395 86 2443 0
-251 145 218 2444 0
42 -219 -335 2445 0
173 140 -83 2446 0
499 -32 48 2447 0
374 -135 -459 2448 0
-403 230 -369 2449 0
-337 -151 429 2450 0
471 59 -58 2451 0
-213 293 -221 2452 0
225 -240 312 2453 0
-430 450 -246 2454 0
419 55 320 2455 0
461 -465 -399 2456 0
-209 412 -486 2457 0
370 -368 -424 2458 0
-44 -427 372 2459 0
190 217 282 2460 0
-284 65 -74 2461 0
330 -189 -223 2462 0
-284 488 -129 2463 0
55 130 323 2464 0
-39 337 350 2465 0
-18 69 87 2466 0
-483 -429 -231 2467 0
338 488 399 2468 0
-57 -443 303 2469 0
-122 -286 293 2470 0
-48 -128 454 2471 0
-61 -420 199 2472 0
-445 -260 488 2473 0
-494 178 153 2474 0
17 434 -414 2475 0
242 -266 -276 2476 0
-92 -66 244 2477 0
43 -490 -47 2478 0
-301 -497 33 2479 0
-408 94 78 2480 0
-267 28 -11 2481 0
110 -267 166 2482 0
-309 -122 163 2483 0
299 24 -455 2484 0
-180 383 -467 2485 0
276 -440 -58 2486 0
499 -37 -145 2487 0
-129 -332 2 2488 0
-42 -206 326 2489 0
322 -346 171 2490 0
359 82 -163 2491 0
471 36 298 2492 0
23 79 -177 2493 0
280 382 205 2494 0
-22 -459 263 2495 0
137 96 498 2496 0
-444 -458 130 2497 0
-316 324 68 2498 0
-61 -425 -396 2499 0
262 -44 402 2500 0
-72 -117 -15 2501 0
-373 -257 80 2502 0
304 -116 286 2503 0
385 464 76 2504 0
-136 -42 155 2505 0
445 138 -357 2506 0
83 48 -407 2507 0
261 -70 -364 2508 0
100 -105 -324 2509 0
-402 -246 416 2510 0
372 454 -153 2511 0
430 -64 17 2512 0
-126 -352 -4 2513 0
-7 -442 397 2514 0
230 -432 -242 2515 0
-182 177 462 2516 0
-287 -290 261 2517 0
-490 411 156 2518 0
-283 147 288 2519 0
-385 164 -160 2520 0
209 292 275 2521 0
199 -331 -171 2522 0
473 182 -124 2523 0
-61 -321 -143 2524 0
-224 -239 487 2525 0
-202 201 19 2526 0
28 -281 178 2527 0
-466 107 112 2528 0
-134 26 -409 2529 0
-497 -127 -393 2530 0
-428 457 245 2531 0
362 95 350 2532 0
-430 -137 -385 2533 0
-284 390 269 2534 0
-481 391 320 2535 0
-205 489 404 2536 0
192 -476 -481 2537 0
-21 48 -201 2538 0
473 129 -273 2539 0
20 210 18 2540 0
33 -2 88 2541 0
37 -190 217 2542 0
260 33 -296 2543 0
-259 -39 171 2544 0
397 13 406 2545 0
-96 86 394 2546 0
482 56 -74 2547 0
-198 206 85 2548 0
-19 -398 227 2549 0
471 -205 -281 2550 0
37 -424 332 2551 0
-399 -207 31 2552 0
438 -477 83 2553 0
234 132 208 2554 0
300 394 417 2555 0
-403 270 -99 2556 0
-255 -50 474 2557 0
319 243 -164 2558 0
163 -431 -255 2559 0
-87 323 66 2560 0
-188 69 86 2561 0
-173 484 309 2562 0
-63 -360 228 2563 0
-383 -123 -99 2564 0
-493 69 109 2565 0
-225 -318 369 2566 0
136 -53 109 2567 0
-186 465 110 2568 0
241 323 196 2569 0
-48 119 -341 2570 0
6 467 -111 2571 0
-225 282 40 2572 0
-230 140 -441 2573 0
288 380 91 2574 0
412 -22 -420 2575 0
241 -80 429 2576 0
147 -464 -309 2577 0
-379 480 -332 2578 0
-53 -105 -493 2579 0
-15 375 296 2580 0
-401 -442 -464 2581 0
79 -102 -97 2582 0
424 162 -140 2583 0
-75 487 174 2584 0
-448 -98 -239 2585 0
367 102 240 2586 0
-358 20 -444 2587 0
491 -493 -262 2588 0
-434 87 -70 2589 0
-401 -26 245 2590 0
440 100 -392 2591 0
462 -265 289 2592 0
-272 -362 361 2593 0
-85 -212 20 2594 0
-355 42 422 2595 0
213 -143 -262 2596 0
-35 -204 272 2597 0
-414 15 -456 2598 0
-480 53 -55 2599 0
125 -304 -175 2600 0
-310 -110 -74 2601 0
257 354 238 2602 0
386 159 -412 2603 0
-71 324 307 2604 0
-80 237 407 2605 0
-241 150 -79 2606 0
-374 -409 -447 2607 0
159 263 -2 2608 0
-448 -13 -340 2609 0
-295 -283 -116 2610 0
46 -407 -151 2611 0
277 -212 103 2612 0
-39 246 189 2613 0
-374 292 185 2614 0
-294 65 134 2615 0
437 171 333 2616 0
-49 156 131 2617 0
215 492 -44 2618 0
-473 193 225 2619 0
-70 -392 -214 2620 0
27 -75 355 2621 0
257 487 -104 2622 0
174 153 497 2623 0
-237 -470 -214 2624 0
389 40 -223 2625 0
-472 -310 -491 2626 0
349 -424 -401 2627 0
59 187 88 2628 0
216 193 114 2629 0
-166 -62 -465 2630 0
188 377 -460 2631 0
-137 -129 -449 2632 0
146 -217 -46 2633 0
-160 -464 159 2634 0
-471 2 -487 2635 0
151 -473 351 2636 0
162 -393 457 2637 0
447 239 174 2638 0
-98 -256 -116 2639 0
48 -314 389 2640 0
-350 172 -316 2641 0
-353 399 237 2642 0
385 -463 -310 2643 0
330 -379 -111 2644 0
-405 -149 283 2645 0
-71 -66 43 2646 0
217 -168 410 2647 0
47 -470 141 2648 0
-261 50 -130 2649 0
-266 -409 387 2650 0
