p cnf 2650 2150
308 365 151 501 0
56 185 483 502 0
300 -212 178 503 0
-90 195 290 504 0
-30 89 290 505 0
367 391 -261 506 0
-218 166 25 507 0
-177 449 -390 508 0
412 -250 229 509 0
105 -497 -232 510 0
15 8 138 511 0
-70 -37 340 512 0
-311 -395 -106 513 0
-221 -336 60 514 0
-6 -37 -7 515 0
-424 48 -157 516 0
-207 380 -256 517 0
-311 473 -160 518 0
-442 -167 -422 519 0
189 350 444 520 0
411 350 24 521 0
-133 102 -25 522 0
387 406 -85 523 0
-151 -130 -354 524 0
-368 421 -361 525 0
-418 259 -304 526 0
-286 -290 -17 527 0
-24 54 406 528 0
-127 328 -455 529 0
387 195 54 530 0
-419 223 -472 531 0
-161 418 -489 532 0
396 474 -473 533 0
358 285 238 534 0
279 -471 -155 535 0
-92 -496 -391 536 0
-432 472 -160 537 0
-467 -251 -47 538 0
421 -270 223 539 0
272 -22 -296 540 0
499 -389 148 541 0
75 405 -464 542 0
91 20 221 543 0
-459 -440 253 544 0
-484 -378 145 545 0
53 259 204 546 0
304 1 -333 547 0
-205 370 201 548 0
-101 -162 24 549 0
196 398 162 550 0
-75 -26 229 551 0
118 -405 68 552 0
456 -72 312 553 0
10 -362 -179 554 0
-417 468 466 555 0
-362 -431 -29 556 0
436 413 355 557 0
-292 45 -211 558 0
-53 100 212 559 0
309 115 438 560 0
-490 133 434 561 0
-401 -121 -469 562 0
-72 -23 -156 563 0
-98 349 -136 564 0
271 -309 478 565 0
-360 -317 -310 566 0
-351 215 -19 567 0
344 243 209 568 0
-423 235 168 569 0
468 -340 -420 570 0
-29 -272 130 571 0
269 -299 -273 572 0
91 454 146 573 0
-463 124 -331 574 0
-411 -397 -308 575 0
332 -14 288 576 0
318 -397 -111 577 0
-184 370 -266 578 0
469 -348 354 579 0
267 182 79 580 0
-406 -190 -107 581 0
-38 135 -360 582 0
210 -457 443 583 0
-445 -93 -443 584 0
-263 447 -455 585 0
-56 136 -331 586 0
111 191 432 587 0
-367 3 1 588 0
-124 -414 369 589 0
447 -16 -443 590 0
207 192 -263 591 0
-338 278 -415 592 0
361 -425 192 593 0
248 -236 489 594 0
-60 -72 296 595 0
-445 378 -186 596 0
-257 113 -122 597 0
316 -85 -274 598 0
-98 -241 454 599 0
-432 -383 326 600 0
-212 216 100 601 0
88 166 -299 602 0
-244 -418 260 603 0
12 493 305 604 0
227 -36 -386 605 0
366 428 482 606 0
-28 -227 1 607 0
-187 -102 -455 608 0
-189 312 473 609 0
452 260 -424 610 0
-76 191 -299 611 0
-32 188 115 612 0
-216 -1 -348 613 0
426 218 -212 614 0
-400 -345 -169 615 0
38 -424 -86 616 0
181 -473 -125 617 0
-8 303 51 618 0
2 -353 363 619 0
9 -325 436 620 0
-299 -364 414 621 0
-216 279 338 622 0
468 -448 -459 623 0
-153 -344 -31 624 0
-136 -14 -228 625 0
-488 -443 -221 626 0
-276 -257 375 627 0
-1 57 234 628 0
339 269 -307 629 0
3 464 -93 630 0
-146 83 458 631 0
239 -417 388 632 0
-333 255 284 633 0
-462 273 -169 634 0
-44 -353 329 635 0
314 82 -105 636 0
-372 204 -156 637 0
-245 227 -175 638 0
423 -463 292 639 0
-191 361 -3 640 0
-65 -412 277 641 0
-153 -463 309 642 0
375 -132 -231 643 0
106 151 281 644 0
-276 -154 452 645 0
101 -384 -210 646 0
-325 343 -10 647 0
307 -291 495 648 0
473 -303 -383 649 0
-434 470 -347 650 0
336 415 87 651 0
-466 -414 -352 652 0
-108 -393 -281 653 0
360 119 -21 654 0
-352 -167 -248 655 0
-283 194 85 656 0
104 -174 72 657 0
212 -266 -317 658 0
-349 417 427 659 0
-430 -459 381 660 0
-489 380 394 661 0
-307 -336 172 662 0
259 -306 103 663 0
-343 361 84 664 0
144 -335 -211 665 0
307 -185 253 666 0
411 440 -104 667 0
-65 -52 421 668 0
25 114 96 669 0
74 -114 334 670 0
-62 -80 359 671 0
-330 -488 491 672 0
293 230 153 673 0
-302 -331 378 674 0
-452 122 -76 675 0
-357 106 -11 676 0
271 211 -475 677 0
-5 244 362 678 0
-267 173 366 679 0
262 493 -483 680 0
427 -162 -170 681 0
-404 134 -204 682 0
224 -403 -233 683 0
280 465 337 684 0
39 99 144 685 0
-311 -108 -208 686 0
-19 444 -200 687 0
-274 -117 16 688 0
10 107 -1 689 0
-257 -85 464 690 0
185 -245 -488 691 0
355 77 156 692 0
244 -482 300 693 0
-483 85 494 694 0
411 -314 -379 695 0
25 -23 9 696 0
-319 -6 396 697 0
-477 -358 -6 698 0
-39 478 476 699 0
-267 -22 366 700 0
-352 251 48 701 0
204 271 113 702 0
-442 -467 -358 703 0
20 -17 -408 704 0
-2 -142 246 705 0
-169 -131 214 706 0
-21 -131 -226 707 0
378 -392 -345 708 0
-498 -477 -227 709 0
-80 375 -452 710 0
162 404 -242 711 0
1 161 32 712 0
287 -437 390 713 0
154 278 374 714 0
338 283 277 715 0
110 300 401 716 0
390 -383 -453 717 0
119 144 141 718 0
-282 -86 409 719 0
160 36 495 720 0
-86 -429 421 721 0
-14 -353 77 722 0
-233 175 -167 723 0
-157 -381 -221 724 0
-461 300 -286 725 0
147 -414 -37 726 0
-100 -419 207 727 0
370 -26 222 728 0
461 400 252 729 0
-333 -371 -57 730 0
147 -203 465 731 0
36 152 -259 732 0
440 -326 275 733 0
-182 27 -80 734 0
83 261 -192 735 0
287 -187 -442 736 0
-296 103 417 737 0
-120 -48 430 738 0
-150 -18 353 739 0
339 -258 -157 740 0
253 -63 -271 741 0
-12 321 -282 742 0
186 500 202 743 0
375 -175 392 744 0
-8 413 -393 745 0
156 485 -431 746 0
-122 269 -330 747 0
-434 312 -41 748 0
165 421 123 749 0
-353 -404 -445 750 0
43 -158 416 751 0
-484 -304 340 752 0
-49 -75 155 753 0
213 -209 361 754 0
2 98 342 755 0
491 -294 -265 756 0
-488 217 -254 757 0
137 221 -372 758 0
373 495 188 759 0
379 -178 -320 760 0
126 -231 142 761 0
136 103 54 762 0
278 490 355 763 0
170 -242 375 764 0
-151 -277 -484 765 0
-221 492 -417 766 0
37 491 237 767 0
-457 134 492 768 0
-220 -383 -413 769 0
143 170 113 770 0
-106 -98 250 771 0
41 -197 429 772 0
368 -223 72 773 0
-424 -185 -480 774 0
72 313 -24 775 0
81 -435 299 776 0
216 -272 -177 777 0
-334 -498 246 778 0
172 -446 343 779 0
156 446 -403 780 0
165 8 -389 781 0
-108 -144 -218 782 0
259 -19 -84 783 0
386 455 -361 784 0
-101 60 -159 785 0
273 47 333 786 0
363 193 -256 787 0
463 -137 238 788 0
-345 -492 -1 789 0
468 -288 56 790 0
447 123 408 791 0
113 -58 74 792 0
-46 350 -28 793 0
4 -420 -322 794 0
120 20 -72 795 0
359 452 407 796 0
378 -168 -46 797 0
-103 -203 497 798 0
-247 -326 209 799 0
-137 88 91 800 0
484 -285 202 801 0
313 236 221 802 0
338 -169 335 803 0
-443 -163 96 804 0
137 369 246 805 0
198 -340 421 806 0
-136 432 -41 807 0
362 -489 500 808 0
308 -347 77 809 0
2 258 -493 810 0
376 360 -118 811 0
417 -487 -358 812 0
-184 -265 -94 813 0
-282 -69 311 814 0
150 147 -388 815 0
56 -364 -461 816 0
-233 -40 -126 817 0
66 -377 476 818 0
158 -114 261 819 0
-97 -195 316 820 0
332 -479 -44 821 0
139 229 -10 822 0
-8 346 108 823 0
32 183 124 824 0
130 -100 143 825 0
-358 -200 -328 826 0
121 94 -339 827 0
20 -344 -403 828 0
-61 -159 42 829 0
-30 -478 -369 830 0
180 -39 -317 831 0
466 -456 12 832 0
143 308 -253 833 0
-112 388 109 834 0
-316 -379 243 835 0
162 -35 -120 836 0
-320 -18 -52 837 0
398 286 -471 838 0
381 -485 343 839 0
-320 153 417 840 0
-180 -168 -295 841 0
-201 -494 -469 842 0
-246 -361 -453 843 0
41 -387 231 844 0
-386 -464 256 845 0
-301 490 -174 846 0
100 -37 322 847 0
19 -386 -48 848 0
-263 226 -228 849 0
-380 -366 -486 850 0
34 45 488 851 0
278 -398 102 852 0
-187 399 293 853 0
479 -140 13 854 0
131 -410 264 855 0
110 260 497 856 0
-31 375 -310 857 0
-365 -270 111 858 0
-401 -447 421 859 0
-28 347 398 860 0
375 -331 71 861 0
238 -178 99 862 0
-194 -134 87 863 0
-481 -326 -105 864 0
-182 -76 394 865 0
52 -199 -460 866 0
221 371 -251 867 0
23 -196 325 868 0
-463 362 -496 869 0
-3 442 -151 870 0
489 397 178 871 0
186 -156 -20 872 0
-55 348 -31 873 0
31 -487 257 874 0
-192 -390 -431 875 0
-51 233 -60 876 0
296 59 9 877 0
-205 298 -149 878 0
-487 -32 -414 879 0
-58 -173 357 880 0
-181 -390 276 881 0
-424 486 -250 882 0
232 237 -282 883 0
276 419 50 884 0
-347 -184 -353 885 0
-128 -480 77 886 0
-489 -425 -303 887 0
127 -457 352 888 0
-499 -296 423 889 0
56 -184 353 890 0
-381 490 -282 891 0
457 408 238 892 0
-395 -447 51 893 0
446 -333 -426 894 0
-340 76 -189 895 0
433 74 405 896 0
300 -496 -165 897 0
112 203 -456 898 0
-112 -16 7 899 0
-368 145 -379 900 0
330 -35 424 901 0
-46 -363 13 902 0
-253 53 402 903 0
280 -313 -441 904 0
-94 -468 -36 905 0
397 396 -231 906 0
379 -169 -138 907 0
201 312 161 908 0
337 59 382 909 0
394 -391 -495 910 0
-335 17 -231 911 0
-409 -315 -415 912 0
74 -330 383 913 0
355 -173 55 914 0
227 304 -303 915 0
-240 -495 -463 916 0
-260 469 -70 917 0
-5 350 453 918 0
140 3 266 919 0
31 309 162 920 0
-103 163 -92 921 0
157 -90 183 922 0
-313 -280 223 923 0
435 -471 443 924 0
-95 43 -188 925 0
442 289 -281 926 0
44 332 -305 927 0
-488 404 89 928 0
467 -407 -373 929 0
-152 49 -225 930 0
-327 -19 -130 931 0
388 122 -277 932 0
-367 65 -269 933 0
20 -345 -69 934 0
466 123 -115 935 0
162 -457 70 936 0
-372 92 -257 937 0
165 -2 -391 938 0
-438 72 -101 939 0
-26 401 -258 940 0
80 70 -498 941 0
62 -178 119 942 0
394 -136 -188 943 0
-424 363 130 944 0
41 150 49 945 0
-351 -322 375 946 0
30 -259 201 947 0
-300 220 -364 948 0
306 69 -377 949 0
-62 -392 -378 950 0
-237 212 258 951 0
-38 -156 299 952 0
383 496 218 953 0
373 424 -469 954 0
434 -59 494 955 0
489 431 -437 956 0
-125 216 -17 957 0
224 -359 230 958 0
-127 335 329 959 0
-216 -148 -231 960 0
-69 -320 -133 961 0
-243 57 -47 962 0
-393 -141 427 963 0
191 419 -248 964 0
200 -207 90 965 0
354 -259 -114 966 0
-22 150 47 967 0
-282 63 -427 968 0
66 -272 -493 969 0
364 346 292 970 0
44 -473 -34 971 0
86 -493 131 972 0
-354 32 -260 973 0
142 404 430 974 0
261 37 415 975 0
363 278 -7 976 0
68 -83 -89 977 0
153 -428 -439 978 0
303 -141 170 979 0
241 -453 89 980 0
454 -382 414 981 0
-299 -85 -324 982 0
57 -231 239 983 0
223 -97 7 984 0
-318 209 -142 985 0
-371 -72 -176 986 0
353 373 416 987 0
248 -281 -337 988 0
115 -59 492 989 0
256 415 209 990 0
-373 -144 255 991 0
-222 208 -321 992 0
-281 77 -284 993 0
379 246 75 994 0
431 -17 247 995 0
304 -481 77 996 0
425 -440 105 997 0
222 79 462 998 0
-312 368 420 999 0
-124 -425 -393 1000 0
221 -227 402 1001 0
-489 -368 -40 1002 0
-402 62 52 1003 0
-291 -258 -249 1004 0
174 -215 -139 1005 0
-413 -397 -497 1006 0
-430 452 390 1007 0
236 329 -197 1008 0
83 371 -18 1009 0
-237 -113 -414 1010 0
-440 339 -359 1011 0
427 -39 -331 1012 0
-204 101 184 1013 0
-40 488 254 1014 0
283 61 120 1015 0
-408 452 267 1016 0
16 -124 -384 1017 0
-99 271 11 1018 0
166 -236 139 1019 0
298 13 -387 1020 0
-93 -263 265 1021 0
280 180 352 1022 0
-72 -195 -338 1023 0
-443 -10 -328 1024 0
-118 471 60 1025 0
-245 -136 78 1026 0
266 374 -346 1027 0
98 8 -197 1028 0
500 96 -346 1029 0
144 120 111 1030 0
-489 -103 -460 1031 0
-500 153 -83 1032 0
369 304 -426 1033 0
-256 100 320 1034 0
102 -24 267 1035 0
-172 -33 428 1036 0
235 299 -334 1037 0
-433 -10 201 1038 0
254 418 -17 1039 0
223 54 115 1040 0
451 -435 -8 1041 0
407 -91 167 1042 0
332 437 372 1043 0
-320 -365 -131 1044 0
370 404 19 1045 0
180 -254 -149 1046 0
-357 299 482 1047 0
247 -326 243 1048 0
-193 376 -371 1049 0
-105 265 -438 1050 0
-409 -1 110 1051 0
358 193 244 1052 0
70 85 -77 1053 0
224 313 -481 1054 0
-213 273 347 1055 0
-418 -63 -117 1056 0
-31 266 -10 1057 0
354 159 -16 1058 0
173 -57 113 1059 0
-100 -177 -495 1060 0
-228 290 -313 1061 0
135 -446 -452 1062 0
-35 496 -222 1063 0
20 -343 30 1064 0
-314 -62 -487 1065 0
298 327 66 1066 0
-457 251 -294 1067 0
-175 252 -5 1068 0
-368 -244 372 1069 0
-434 253 -44 1070 0
319 -284 128 1071 0
416 -474 -383 1072 0
191 194 481 1073 0
-187 -218 -331 1074 0
-127 -123 378 1075 0
-487 -117 -452 1076 0
-124 -7 228 1077 0
-438 -24 175 1078 0
45 162 -457 1079 0
-341 131 -327 1080 0
-203 -178 -488 1081 0
-261 325 -140 1082 0
-497 399 149 1083 0
270 -132 -386 1084 0
138 243 -48 1085 0
97 499 -46 1086 0
-351 -482 373 1087 0
202 384 -409 1088 0
-333 24 -344 1089 0
30 8 334 1090 0
473 230 -361 1091 0
118 491 -40 1092 0
-16 -234 -304 1093 0
-473 493 20 1094 0
160 -391 93 1095 0
-73 -58 -30 1096 0
193 -465 163 1097 0
-204 6 -182 1098 0
199 461 101 1099 0
64 194 -106 1100 0
154 7 -440 1101 0
256 423 -364 1102 0
-283 -451 -183 1103 0
-394 -452 65 1104 0
-454 12 343 1105 0
-238 72 -297 1106 0
328 -157 -497 1107 0
-174 -382 -355 1108 0
-381 -264 300 1109 0
-53 418 -87 1110 0
338 237 -297 1111 0
-486 205 177 1112 0
-409 -164 8 1113 0
493 -250 -245 1114 0
265 -291 -345 1115 0
70 -437 -208 1116 0
172 345 -335 1117 0
-467 369 222 1118 0
-410 -357 -233 1119 0
-369 -450 -371 1120 0
15 -387 342 1121 0
306 183 288 1122 0
82 -333 253 1123 0
-264 185 -465 1124 0
448 -200 251 1125 0
-60 -96 -116 1126 0
-234 407 -69 1127 0
405 -351 -477 1128 0
-282 386 6 1129 0
-397 -320 239 1130 0
-270 -208 202 1131 0
96 -270 467 1132 0
324 -275 412 1133 0
-136 -171 -15 1134 0
-37 -290 145 1135 0
77 201 -394 1136 0
305 -137 299 1137 0
-250 -460 492 1138 0
-355 300 257 1139 0
477 405 -31 1140 0
-375 243 -341 1141 0
329 -370 -57 1142 0
-9 -482 -120 1143 0
478 116 -435 1144 0
279 -177 -193 1145 0
-239 -102 -389 1146 0
-196 -302 -325 1147 0
-27 -43 -46 1148 0
15 -49 344 1149 0
492 -103 -348 1150 0
-14 -187 497 1151 0
306 -344 414 1152 0
84 -349 440 1153 0
-33 -45 -225 1154 0
258 -489 -483 1155 0
85 159 -295 1156 0
-381 -154 144 1157 0
-356 -29 160 1158 0
500 426 -433 1159 0
-373 -386 162 1160 0
-422 -138 277 1161 0
406 500 143 1162 0
483 84 -444 1163 0
-128 231 -446 1164 0
375 -396 -476 1165 0
-134 444 397 1166 0
158 139 119 1167 0
290 -292 461 1168 0
210 413 -92 1169 0
156 -403 473 1170 0
-140 -214 -282 1171 0
441 -231 -328 1172 0
-166 -61 319 1173 0
109 168 -216 1174 0
-398 -51 -239 1175 0
-27 -37 -430 1176 0
-191 338 62 1177 0
-109 500 306 1178 0
69 181 -7 1179 0
-246 -295 424 1180 0
-434 299 -497 1181 0
-410 325 70 1182 0
-426 -210 281 1183 0
480 475 -342 1184 0
-289 25 -475 1185 0
-332 153 -157 1186 0
329 60 -414 1187 0
-18 -384 -293 1188 0
279 251 60 1189 0
-200 101 -5 1190 0
-122 42 81 1191 0
-362 -394 410 1192 0
55 -67 -463 1193 0
-12 -375 -155 1194 0
73 91 -401 1195 0
-104 35 397 1196 0
-39 438 85 1197 0
-392 -88 -431 1198 0
-407 163 -273 1199 0
319 79 -374 1200 0
189 -413 252 1201 0
405 -266 432 1202 0
276 231 397 1203 0
-288 116 273 1204 0
-187 -492 102 1205 0
9 -486 -120 1206 0
-448 -56 -192 1207 0
-477 -52 175 1208 0
-403 -55 -467 1209 0
-33 111 -494 1210 0
-155 -65 -96 1211 0
203 -240 193 1212 0
288 -379 -364 1213 0
-157 -220 477 1214 0
-473 352 -265 1215 0
-457 290 111 1216 0
-81 484 134 1217 0
-73 -59 -194 1218 0
-63 435 -361 1219 0
300 417 -205 1220 0
-213 -498 359 1221 0
463 -316 319 1222 0
224 -397 -333 1223 0
-280 237 -411 1224 0
-192 272 340 1225 0
388 -372 -231 1226 0
-78 190 374 1227 0
-277 500 89 1228 0
-196 -265 -316 1229 0
187 -220 189 1230 0
392 209 -94 1231 0
-286 309 388 1232 0
401 179 11 1233 0
-265 -260 -236 1234 0
437 221 63 1235 0
-381 251 186 1236 0
-228 -113 -330 1237 0
313 -361 162 1238 0
-44 455 360 1239 0
392 82 -34 1240 0
170 428 297 1241 0
-482 241 16 1242 0
342 -41 -70 1243 0
9 -497 -440 1244 0
-491 -151 -444 1245 0
187 30 29 1246 0
471 374 283 1247 0
91 -251 319 1248 0
344 -275 -4 1249 0
419 -270 219 1250 0
-479 186 215 1251 0
463 110 464 1252 0
230 12 219 1253 0
427 -25 476 1254 0
439 6 151 1255 0
-72 403 -365 1256 0
-332 -61 172 1257 0
96 107 337 1258 0
-394 -410 311 1259 0
-108 -85 382 1260 0
-150 176 173 1261 0
-401 -408 -118 1262 0
-292 237 17 1263 0
-374 228 344 1264 0
-479 -100 132 1265 0
-153 -114 441 1266 0
-272 494 427 1267 0
286 -303 300 1268 0
132 -190 404 1269 0
171 363 -451 1270 0
412 -63 81 1271 0
-71 -352 377 1272 0
10 76 -498 1273 0
-115 -13 -330 1274 0
432 -411 -347 1275 0
20 -138 -162 1276 0
-134 -219 -227 1277 0
145 245 208 1278 0
193 -233 155 1279 0
28 285 34 1280 0
-411 -236 -129 1281 0
82 -381 -430 1282 0
-132 -394 -426 1283 0
207 -51 -176 1284 0
-213 -471 -351 1285 0
-45 -406 422 1286 0
116 128 73 1287 0
412 -129 312 1288 0
-34 -273 257 1289 0
-206 132 -408 1290 0
-236 228 -324 1291 0
-164 393 -322 1292 0
-47 -207 121 1293 0
-20 477 -52 1294 0
12 117 496 1295 0
-382 -439 89 1296 0
-467 188 410 1297 0
-369 176 -48 1298 0
97 467 -155 1299 0
-179 -356 160 1300 0
-170 -267 168 1301 0
136 -372 446 1302 0
-124 -331 -209 1303 0
-258 -406 -371 1304 0
-344 193 177 1305 0
19 158 -499 1306 0
-90 -332 1 1307 0
-73 -321 136 1308 0
457 297 -82 1309 0
182 146 486 1310 0
458 -303 210 1311 0
31 -187 374 1312 0
-500 180 -352 1313 0
155 219 -172 1314 0
116 -45 -248 1315 0
153 -249 -47 1316 0
273 121 -14 1317 0
-478 -117 -46 1318 0
-391 -143 -475 1319 0
-379 -348 301 1320 0
-477 -169 -357 1321 0
-334 -94 -250 1322 0
-215 -472 345 1323 0
447 120 253 1324 0
-46 -347 440 1325 0
137 18 477 1326 0
-336 -244 406 1327 0
-470 -363 495 1328 0
361 -441 -386 1329 0
-366 118 -113 1330 0
289 422 310 1331 0
-365 -283 317 1332 0
236 -40 156 1333 0
-30 -205 479 1334 0
459 36 -437 1335 0
353 186 -450 1336 0
-238 328 -61 1337 0
-446 -415 354 1338 0
173 -336 449 1339 0
-192 -350 -409 1340 0
-198 47 329 1341 0
440 432 -448 1342 0
156 -444 -252 1343 0
21 -371 353 1344 0
120 -335 108 1345 0
-145 41 -278 1346 0
401 42 353 1347 0
188 -45 416 1348 0
-94 334 -268 1349 0
216 -228 -162 1350 0
197 -374 7 1351 0
90 389 364 1352 0
136 339 -88 1353 0
280 -4 286 1354 0
-118 206 439 1355 0
-423 490 -40 1356 0
445 43 -74 1357 0
-279 -407 53 1358 0
103 422 483 1359 0
381 -246 -58 1360 0
-414 -427 -169 1361 0
424 -383 59 1362 0
-34 -366 413 1363 0
168 171 75 1364 0
335 60 207 1365 0
373 193 28 1366 0
-68 -142 312 1367 0
157 387 -191 1368 0
102 246 420 1369 0
-297 320 477 1370 0
419 153 489 1371 0
-142 -79 115 1372 0
25 -228 406 1373 0
-100 310 -37 1374 0
-10 -484 475 1375 0
-281 294 347 1376 0
-387 394 399 1377 0
234 391 -263 1378 0
179 63 -127 1379 0
-250 94 -389 1380 0
276 35 -275 1381 0
16 331 333 1382 0
-500 -202 490 1383 0
-426 -180 -32 1384 0
204 308 89 1385 0
-194 214 177 1386 0
356 68 -372 1387 0
-218 406 289 1388 0
10 114 -62 1389 0
433 -257 -270 1390 0
200 400 415 1391 0
-385 -123 -127 1392 0
-344 86 -112 1393 0
105 475 132 1394 0
-157 327 355 1395 0
484 488 480 1396 0
-373 -272 -366 1397 0
-174 -446 -468 1398 0
166 249 386 1399 0
147 30 -224 1400 0
-247 338 -42 1401 0
-397 46 125 1402 0
-291 188 -305 1403 0
-35 21 482 1404 0
54 134 -337 1405 0
467 471 75 1406 0
280 459 242 1407 0
-212 -443 -248 1408 0
455 166 -253 1409 0
-325 -106 194 1410 0
-35 396 -169 1411 0
-287 -191 -301 1412 0
142 -460 -301 1413 0
-13 -373 -266 1414 0
-202 -142 155 1415 0
337 -122 -110 1416 0
64 84 79 1417 0
-373 49 215 1418 0
335 -172 478 1419 0
-166 -239 -438 1420 0
479 464 9 1421 0
-124 125 -279 1422 0
-126 -227 194 1423 0
-151 -114 -163 1424 0
381 -414 9 1425 0
302 -234 170 1426 0
128 -35 -460 1427 0
380 -284 35 1428 0
131 121 -300 1429 0
459 203 -109 1430 0
128 -4 -171 1431 0
434 175 212 1432 0
152 291 351 1433 0
-132 339 117 1434 0
-64 158 458 1435 0
139 -425 -202 1436 0
347 45 -470 1437 0
-157 188 62 1438 0
186 189 263 1439 0
379 -314 -142 1440 0
-121 330 -72 1441 0
345 -353 233 1442 0
146 392 -248 1443 0
17 -496 -378 1444 0
-8 406 168 1445 0
359 380 96 1446 0
104 -187 -96 1447 0
415 334 -276 1448 0
-178 -105 -52 1449 0
-209 -212 231 1450 0
-418 -322 -104 1451 0
-477 -270 -290 1452 0
-188 347 -271 1453 0
255 201 386 1454 0
-406 494 327 1455 0
415 287 -337 1456 0
490 -77 476 1457 0
174 91 -412 1458 0
134 57 -309 1459 0
-473 -279 -385 1460 0
-341 -186 57 1461 0
380 -56 329 1462 0
-24 -250 -92 1463 0
-338 -277 -88 1464 0
314 255 -215 1465 0
62 -117 210 1466 0
-329 -324 448 1467 0
-214 -323 91 1468 0
-437 -122 -302 1469 0
-145 482 -62 1470 0
-220 217 62 1471 0
-194 139 -250 1472 0
-83 140 -150 1473 0
236 396 -14 1474 0
-171 -169 -183 1475 0
94 313 55 1476 0
-113 353 372 1477 0
-167 274 -412 1478 0
425 65 -23 1479 0
44 -208 102 1480 0
114 -240 49 1481 0
-2 -459 -237 1482 0
134 -485 280 1483 0
-374 -388 392 1484 0
-320 -302 197 1485 0
221 -471 -247 1486 0
25 349 -487 1487 0
-150 -370 -131 1488 0
309 -41 -467 1489 0
-214 336 -293 1490 0
-365 -114 -66 1491 0
-495 271 -62 1492 0
-392 127 51 1493 0
-68 236 254 1494 0
300 331 -46 1495 0
-59 -322 421 1496 0
11 -134 -447 1497 0
-250 457 -500 1498 0
-27 31 327 1499 0
-92 -250 -145 1500 0
491 396 442 1501 0
-474 476 475 1502 0
317 -149 -306 1503 0
338 -229 321 1504 0
121 -423 -143 1505 0
-336 172 27 1506 0
-243 470 -35 1507 0
421 497 16 1508 0
376 311 281 1509 0
-35 -442 253 1510 0
-103 -391 345 1511 0
249 -399 389 1512 0
-309 -447 230 1513 0
220 -214 -419 1514 0
233 310 -76 1515 0
-90 -466 88 1516 0
-184 487 -305 1517 0
114 -166 165 1518 0
-436 -282 186 1519 0
-370 -398 -259 1520 0
-282 296 -170 1521 0
298 145 474 1522 0
26 -372 -265 1523 0
257 242 93 1524 0
-497 45 -346 1525 0
224 355 127 1526 0
-64 -49 385 1527 0
-250 -9 120 1528 0
-449 265 -448 1529 0
482 196 309 1530 0
332 478 397 1531 0
189 -256 28 1532 0
-378 263 340 1533 0
-46 -450 497 1534 0
46 96 -432 1535 0
30 352 -377 1536 0
35 -161 -443 1537 0
429 -70 -299 1538 0
-49 -114 346 1539 0
46 186 -211 1540 0
-28 488 11 1541 0
83 -433 129 1542 0
-6 -411 -487 1543 0
12 -459 320 1544 0
246 -327 -388 1545 0
-31 -314 -178 1546 0
193 308 26 1547 0
-80 127 -416 1548 0
106 -76 -419 1549 0
-35 448 -186 1550 0
-181 131 202 1551 0
-426 199 -66 1552 0
162 -180 -29 1553 0
-145 -273 26 1554 0
200 -292 -304 1555 0
-492 44 -394 1556 0
-90 480 106 1557 0
-380 106 -389 1558 0
459 -404 -256 1559 0
494 -392 260 1560 0
83 -399 265 1561 0
464 -112 -116 1562 0
86 257 5 1563 0
-24 -298 97 1564 0
-73 -289 -327 1565 0
-159 286 21 1566 0
447 301 -184 1567 0
-52 -399 -119 1568 0
-222 89 -86 1569 0
328 96 -435 1570 0
-292 -415 -75 1571 0
-321 188 22 1572 0
-496 -280 -41 1573 0
-113 -293 -107 1574 0
366 288 161 1575 0
491 -214 488 1576 0
-76 151 50 1577 0
87 -370 489 1578 0
40 31 143 1579 0
392 345 100 1580 0
107 -238 500 1581 0
-267 396 271 1582 0
473 -391 -264 1583 0
-150 -84 24 1584 0
-348 -219 -65 1585 0
-201 -287 -141 1586 0
-385 -277 -345 1587 0
-384 235 437 1588 0
-155 238 100 1589 0
-352 -180 -483 1590 0
-300 212 342 1591 0
7 349 -221 1592 0
-63 -195 -135 1593 0
-201 272 294 1594 0
-357 -432 254 1595 0
318 87 65 1596 0
-281 -123 101 1597 0
174 -114 427 1598 0
-48 -278 -390 1599 0
-328 72 404 1600 0
-399 -158 138 1601 0
-122 399 -309 1602 0
367 -115 -451 1603 0
-492 51 -101 1604 0
-276 249 -487 1605 0
-236 143 -101 1606 0
-446 -334 359 1607 0
367 -451 13 1608 0
7 -395 -193 1609 0
307 79 102 1610 0
-483 -429 -489 1611 0
-282 107 27 1612 0
325 -223 -271 1613 0
294 -488 9 1614 0
-415 -65 -473 1615 0
301 -358 140 1616 0
-51 494 -257 1617 0
-354 129 -435 1618 0
103 -467 -298 1619 0
259 -456 -68 1620 0
414 279 -251 1621 0
225 249 231 1622 0
261 13 344 1623 0
-281 90 310 1624 0
307 -89 69 1625 0
494 -27 -221 1626 0
-189 -342 77 1627 0
140 244 301 1628 0
179 427 425 1629 0
314 -85 427 1630 0
-297 -493 -77 1631 0
241 391 209 1632 0
-59 157 -330 1633 0
-123 38 249 1634 0
-224 -35 -166 1635 0
56 -485 -480 1636 0
362 -422 -145 1637 0
19 -131 227 1638 0
14 -414 319 1639 0
-182 -13 71 1640 0
-210 -132 241 1641 0
497 478 486 1642 0
259 268 -340 1643 0
-300 -44 -278 1644 0
282 -23 72 1645 0
172 -142 -78 1646 0
190 143 -189 1647 0
-188 371 -88 1648 0
-419 151 423 1649 0
223 241 -402 1650 0
233 140 416 1651 0
-153 369 139 1652 0
164 -65 -170 1653 0
38 -224 -132 1654 0
-470 -183 482 1655 0
14 -224 150 1656 0
-148 42 -270 1657 0
349 342 195 1658 0
142 127 214 1659 0
142 -366 -96 1660 0
-399 133 71 1661 0
484 309 179 1662 0
-411 309 356 1663 0
215 -47 461 1664 0
463 -7 245 1665 0
468 134 474 1666 0
-70 -50 -142 1667 0
135 -116 457 1668 0
-386 476 -245 1669 0
-441 122 363 1670 0
-387 255 -89 1671 0
-34 -20 373 1672 0
-211 -101 20 1673 0
250 273 85 1674 0
223 -488 -332 1675 0
-296 -331 210 1676 0
457 6 468 1677 0
261 -196 364 1678 0
-57 102 485 1679 0
-72 332 379 1680 0
-305 210 157 1681 0
-65 -98 -266 1682 0
-15 -229 399 1683 0
146 450 -380 1684 0
429 30 204 1685 0
-252 -265 323 1686 0
403 250 -297 1687 0
481 291 -226 1688 0
-266 -492 490 1689 0
-84 146 370 1690 0
-371 412 -331 1691 0
484 -81 220 1692 0
-330 188 -172 1693 0
-25 38 217 1694 0
410 -119 -161 1695 0
480 272 113 1696 0
-126 101 -461 1697 0
-148 212 -152 1698 0
-17 274 470 1699 0
-34 -457 -185 1700 0
-9 -82 -365 1701 0
182 247 100 1702 0
-5 -39 -188 1703 0
-408 114 -336 1704 0
228 185 94 1705 0
131 427 272 1706 0
-200 -352 -215 1707 0
272 -334 -250 1708 0
-283 428 452 1709 0
-182 372 21 1710 0
-440 175 -481 1711 0
192 362 365 1712 0
-178 176 242 1713 0
-331 -215 -15 1714 0
255 178 -20 1715 0
376 -377 435 1716 0
405 -469 -179 1717 0
-65 -323 -461 1718 0
124 -128 482 1719 0
491 -450 -170 1720 0
173 -267 -492 1721 0
112 328 -150 1722 0
322 -110 477 1723 0
-384 -31 -287 1724 0
-26 396 225 1725 0
-153 -293 -203 1726 0
249 494 458 1727 0
-271 -258 -46 1728 0
182 393 221 1729 0
-366 -23 -416 1730 0
-116 -348 -52 1731 0
117 -372 335 1732 0
494 195 -147 1733 0
19 427 -466 1734 0
243 -434 53 1735 0
-352 140 -488 1736 0
268 -308 331 1737 0
-159 14 -306 1738 0
71 290 -31 1739 0
388 305 -421 1740 0
-6 157 349 1741 0
-74 441 -150 1742 0
-461 -130 -352 1743 0
480 49 296 1744 0
275 -370 -30 1745 0
250 247 -212 1746 0
-251 -70 -295 1747 0
358 -450 356 1748 0
-468 212 9 1749 0
464 -209 183 1750 0
180 461 193 1751 0
-427 343 457 1752 0
-346 -161 -81 1753 0
475 76 -215 1754 0
-97 -181 -225 1755 0
99 -112 311 1756 0
-295 -81 -301 1757 0
-363 -406 -376 1758 0
-63 8 309 1759 0
-249 60 -381 1760 0
-273 -103 370 1761 0
274 -478 206 1762 0
111 -6 -251 1763 0
70 -412 269 1764 0
-450 -146 369 1765 0
-163 93 134 1766 0
-101 -179 326 1767 0
255 329 467 1768 0
-472 356 -498 1769 0
-55 -376 349 1770 0
120 -129 411 1771 0
293 346 22 1772 0
11 331 419 1773 0
446 4 259 1774 0
-364 93 319 1775 0
150 -257 404 1776 0
-378 494 -284 1777 0
9 -301 209 1778 0
231 -254 -69 1779 0
80 -230 -119 1780 0
-102 -376 -286 1781 0
-65 422 -48 1782 0
-464 43 -400 1783 0
-5 -71 -101 1784 0
-318 -145 242 1785 0
304 -83 -252 1786 0
-185 -281 -446 1787 0
-161 -357 174 1788 0
-217 -164 346 1789 0
-342 -80 -194 1790 0
68 235 60 1791 0
-56 290 141 1792 0
-478 -376 -289 1793 0
277 -317 -81 1794 0
-494 -329 -135 1795 0
107 -392 290 1796 0
263 -431 -116 1797 0
-251 174 -316 1798 0
-254 390 -296 1799 0
228 -114 -256 1800 0
46 248 448 1801 0
-381 -364 445 1802 0
292 77 -2 1803 0
423 -261 -454 1804 0
452 236 -256 1805 0
466 -363 62 1806 0
-303 -233 -29 1807 0
359 342 -262 1808 0
194 -284 -326 1809 0
400 -441 -333 1810 0
239 119 127 1811 0
49 -6 -54 1812 0
480 389 393 1813 0
435 -381 138 1814 0
77 225 -257 1815 0
-265 -290 -331 1816 0
-247 107 83 1817 0
75 471 108 1818 0
-403 -239 -246 1819 0
-310 351 -279 1820 0
-242 -105 -295 1821 0
-218 -151 103 1822 0
102 144 404 1823 0
260 314 210 1824 0
166 -143 369 1825 0
100 222 -369 1826 0
71 -10 -135 1827 0
-364 80 27 1828 0
-336 -413 -366 1829 0
479 313 -184 1830 0
323 -376 423 1831 0
356 335 138 1832 0
296 -366 -478 1833 0
500 -28 -241 1834 0
-66 335 -208 1835 0
1 42 174 1836 0
-71 218 -257 1837 0
-265 449 -367 1838 0
491 -183 282 1839 0
109 -340 -33 1840 0
217 391 -108 1841 0
8 -134 -478 1842 0
194 -401 -23 1843 0
-472 121 -397 1844 0
-13 -441 431 1845 0
78 421 394 1846 0
-216 78 49 1847 0
319 -250 -139 1848 0
-26 -383 137 1849 0
212 -32 -181 1850 0
-191 33 385 1851 0
-55 11 -77 1852 0
-190 53 287 1853 0
138 291 385 1854 0
167 281 444 1855 0
-60 -450 -262 1856 0
-469 -281 -197 1857 0
286 -51 -277 1858 0
-30 18 -207 1859 0
-334 -190 389 1860 0
-22 -110 -271 1861 0
150 187 406 1862 0
104 -223 354 1863 0
-370 203 471 1864 0
296 53 -284 1865 0
-403 -209 -497 1866 0
198 -218 49 1867 0
-392 137 231 1868 0
-433 72 -382 1869 0
54 164 -163 1870 0
-185 462 -246 1871 0
-440 -430 120 1872 0
237 -384 -226 1873 0
318 -145 478 1874 0
126 168 -49 1875 0
-348 -266 -56 1876 0
227 -365 305 1877 0
-189 428 -392 1878 0
322 334 -162 1879 0
285 389 261 1880 0
440 -334 -475 1881 0
-409 346 -296 1882 0
146 436 -151 1883 0
372 27 -450 1884 0
-287 332 469 1885 0
344 -428 490 1886 0
-193 -345 15 1887 0
-100 271 453 1888 0
-394 324 -478 1889 0
51 -423 251 1890 0
-88 173 -64 1891 0
-402 422 -203 1892 0
-23 28 -410 1893 0
-220 -368 136 1894 0
85 -179 22 1895 0
149 465 39 1896 0
59 -269 -366 1897 0
379 -61 -281 1898 0
155 -494 409 1899 0
-141 -377 -395 1900 0
383 -157 -296 1901 0
-305 -292 -463 1902 0
5 10 -38 1903 0
-16 -91 -433 1904 0
-57 -122 -253 1905 0
-258 86 -230 1906 0
291 -41 335 1907 0
14 -388 -26 1908 0
119 261 -109 1909 0
330 285 417 1910 0
-290 -349 -275 1911 0
162 -452 -265 1912 0
-433 -306 279 1913 0
-50 399 -480 1914 0
417 -433 -284 1915 0
-499 -447 435 1916 0
443 287 -275 1917 0
-134 21 179 1918 0
368 331 -56 1919 0
-19 319 -278 1920 0
496 -428 -384 1921 0
-397 404 65 1922 0
-143 -392 163 1923 0
-352 -481 62 1924 0
-64 -227 249 1925 0
115 10 -474 1926 0
411 -223 23 1927 0
187 -184 -21 1928 0
-396 332 23 1929 0
-205 157 -30 1930 0
122 465 149 1931 0
-293 -429 411 1932 0
187 249 426 1933 0
203 351 152 1934 0
134 -334 -50 1935 0
-357 17 342 1936 0
-135 -86 452 1937 0
391 235 80 1938 0
116 -435 -233 1939 0
32 -387 -431 1940 0
-139 -353 -462 1941 0
236 53 354 1942 0
-328 -318 210 1943 0
-486 -365 -467 1944 0
-151 447 259 1945 0
128 -360 69 1946 0
280 -471 -476 1947 0
217 -406 -176 1948 0
-77 -64 -76 1949 0
449 263 65 1950 0
-204 13 315 1951 0
-168 81 28 1952 0
42 44 -27 1953 0
-274 182 316 1954 0
19 -299 -480 1955 0
-179 -311 -256 1956 0
-429 465 356 1957 0
232 497 -252 1958 0
73 -211 -152 1959 0
-290 224 415 1960 0
272 304 -375 1961 0
-424 -2 -466 1962 0
389 258 -153 1963 0
103 -368 -246 1964 0
411 280 -491 1965 0
214 377 -478 1966 0
409 78 -87 1967 0
338 -20 96 1968 0
485 358 328 1969 0
-358 67 274 1970 0
422 -366 485 1971 0
-294 -409 -440 1972 0
-58 27 -474 1973 0
-359 -118 -194 1974 0
115 317 206 1975 0
337 366 -132 1976 0
-272 -71 -334 1977 0
25 282 -196 1978 0
330 -50 -434 1979 0
213 311 -343 1980 0
-26 -294 384 1981 0
216 312 109 1982 0
269 315 -342 1983 0
-201 -385 282 1984 0
-342 -307 -475 1985 0
-339 -435 114 1986 0
-2 54 -270 1987 0
-275 386 -423 1988 0
184 308 -216 1989 0
-83 355 379 1990 0
-42 -68 -73 1991 0
-43 11 269 1992 0
499 75 -92 1993 0
377 -282 397 1994 0
497 222 -70 1995 0
-313 -34 -284 1996 0
191 94 12 1997 0
-83 -441 -247 1998 0
214 421 367 1999 0
130 198 -204 2000 0
-185 289 -232 2001 0
50 108 87 2002 0
15 287 201 2003 0
173 -192 331 2004 0
-249 451 -193 2005 0
-490 -174 67 2006 0
254 -401 197 2007 0
402 -334 138 2008 0
-454 308 -45 2009 0
-219 374 17 2010 0
-237 36 245 2011 0
208 433 -335 2012 0
-469 253 -366 2013 0
-29 -183 356 2014 0
-313 -494 414 2015 0
221 127 -233 2016 0
-33 -41 234 2017 0
-412 204 499 2018 0
-27 443 -400 2019 0
-411 51 -276 2020 0
-211 10 377 2021 0
-435 -156 -84 2022 0
326 -400 -80 2023 0
-336 374 432 2024 0
17 293 -135 2025 0
32 12 153 2026 0
3 -304 -149 2027 0
85 257 -70 2028 0
293 -90 -418 2029 0
396 182 487 2030 0
44 6 61 2031 0
-487 -315 230 2032 0
51 186 -50 2033 0
-172 293 -117 2034 0
-150 286 267 2035 0
121 -307 211 2036 0
408 31 285 2037 0
-75 -1 -337 2038 0
343 491 290 2039 0
268 -422 -222 2040 0
-217 -203 21 2041 0
224 305 6 2042 0
-234 -148 167 2043 0
-295 141 151 2044 0
425 389 9 2045 0
-210 299 -237 2046 0
-308 -155 -254 2047 0
82 -493 -123 2048 0
-205 -61 492 2049 0
158 110 -73 2050 0
-170 224 -436 2051 0
301 125 319 2052 0
-458 -483 -216 2053 0
-30 -38 -99 2054 0
-131 -216 -179 2055 0
53 -233 32 2056 0
466 310 21 2057 0
-343 460 374 2058 0
162 -60 -132 2059 0
-194 -42 -105 2060 0
378 425 154 2061 0
463 -304 -268 2062 0
-317 346 55 2063 0
168 353 -290 2064 0
8 59 348 2065 0
203 480 138 2066 0
-477 144 -45 2067 0
-229 -118 491 2068 0
-153 -315 67 2069 0
396 -32 116 2070 0
130 380 -464 2071 0
388 120 -390 2072 0
348 -55 -197 2073 0
-220 187 -132 2074 0
-455 370 422 2075 0
495 -325 94 2076 0
362 -249 -443 2077 0
-452 298 -368 2078 0
472 -70 -345 2079 0
-362 -81 8 2080 0
433 -187 458 2081 0
121 185 92 2082 0
161 -325 -240 2083 0
-167 -466 170 2084 0
-256 -148 -337 2085 0
301 -87 -440 2086 0
276 -418 115 2087 0
242 -35 -143 2088 0
196 403 481 2089 0
221 -435 380 2090 0
179 197 128 2091 0
340 422 -460 2092 0
13 -150 370 2093 0
79 -220 -286 2094 0
-123 -78 30 2095 0
-268 -490 176 2096 0
-324 -411 499 2097 0
189 -163 -93 2098 0
-309 86 252 2099 0
-67 -353 -350 2100 0
241 -153 -416 2101 0
-406 -91 139 2102 0
55 500 -319 2103 0
-25 -84 191 2104 0
469 279 204 2105 0
-344 431 -130 2106 0
284 219 122 2107 0
-483 -130 81 2108 0
99 151 -395 2109 0
327 395 -440 2110 0
473 -314 52 2111 0
166 261 -208 2112 0
42 -155 -395 2113 0
295 166 280 2114 0
-214 235 268 2115 0
478 -391 39 2116 0
-373 -250 447 2117 0
315 150 30 2118 0
451 -495 -100 2119 0
-396 -95 -288 2120 0
310 -200 313 2121 0
167 -47 -372 2122 0
-95 -117 480 2123 0
-257 -52 -60 2124 0
-211 317 -454 2125 0
383 -12 257 2126 0
-196 126 -500 2127 0
-19 -350 498 2128 0
64 148 485 2129 0
246 456 -172 2130 0
135 -119 -91 2131 0
239 -386 247 2132 0
174 -423 498 2133 0
282 37 -59 2134 0
398 -348 157 2135 0
336 313 340 2136 0
-294 447 -57 2137 0
464 64 -306 2138 0
-492 194 -64 2139 0
-487 -500 -313 2140 0
76 133 -160 2141 0
325 -169 -365 2142 0
-339 371 422 2143 0
63 -138 -222 2144 0
-111 -495 77 2145 0
18 -305 -31 2146 0
-146 458 -61 2147 0
416 -476 -51 2148 0
396 240 196 2149 0
73 -71 -86 2150 0
286 115 -129 2151 0
-234 -184 -203 2152 0
-343 143 -290 2153 0
45 451 -310 2154 0
-86 -314 470 2155 0
-386 -29 -109 2156 0
-330 420 150 2157 0
-484 -62 129 2158 0
349 79 -39 2159 0
492 -419 -257 2160 0
373 436 -159 2161 0
-364 -429 329 2162 0
-89 28 109 2163 0
473 -398 -336 2164 0
-128 407 -188 2165 0
-7 -86 -498 2166 0
49 -326 -255 2167 0
-32 76 417 2168 0
452 391 316 2169 0
-449 477 -171 2170 0
187 -293 -482 2171 0
346 348 68 2172 0
266 369 -394 2173 0
-390 183 -368 2174 0
231 -90 -298 2175 0
-91 150 461 2176 0
-463 135 -208 2177 0
-456 -356 -452 2178 0
224 419 -267 2179 0
-500 -65 310 2180 0
164 46 -391 2181 0
493 -141 -28 2182 0
444 209 114 2183 0
-434 -487 -166 2184 0
492 -435 -366 2185 0
348 431 24 2186 0
-481 -177 444 2187 0
-360 -443 -158 2188 0
428 -453 -461 2189 0
340 -428 252 2190 0
441 474 263 2191 0
381 -499 -326 2192 0
-255 -167 465 2193 0
-109 -199 325 2194 0
109 -495 -437 2195 0
-369 -352 -76 2196 0
-47 -340 243 2197 0
-352 -264 -319 2198 0
-378 -205 -466 2199 0
101 -221 -338 2200 0
-486 107 -321 2201 0
356 149 -238 2202 0
39 -55 44 2203 0
244 481 408 2204 0
157 419 -298 2205 0
-456 -414 59 2206 0
191 16 118 2207 0
-373 -311 -5 2208 0
500 253 -243 2209 0
-332 -79 -203 2210 0
-233 -360 200 2211 0
-408 180 -9 2212 0
450 213 324 2213 0
282 458 -288 2214 0
-226 -417 -113 2215 0
297 -313 88 2216 0
104 332 -74 2217 0
-468 -299 457 2218 0
-341 48 -53 2219 0
-221 90 -119 2220 0
402 -247 438 2221 0
-215 434 93 2222 0
-476 198 60 2223 0
-112 470 -436 2224 0
-185 427 -166 2225 0
455 397 12 2226 0
-79 -426 -239 2227 0
396 -206 -498 2228 0
-167 -47 -441 2229 0
-425 270 485 2230 0
-330 -137 372 2231 0
-48 -157 -169 2232 0
483 -360 -106 2233 0
-217 242 -258 2234 0
-238 257 336 2235 0
-334 -294 190 2236 0
186 326 319 2237 0
-305 -293 98 2238 0
-189 -238 -323 2239 0
473 -379 215 2240 0
258 360 58 2241 0
304 -297 387 2242 0
-243 335 487 2243 0
-137 227 -306 2244 0
-430 -114 354 2245 0
-331 -352 -369 2246 0
-102 -290 -298 2247 0
162 412 452 2248 0
488 -405 -50 2249 0
-490 -68 262 2250 0
416 167 -405 2251 0
-196 58 8 2252 0
-93 14 133 2253 0
319 451 -18 2254 0
490 -451 207 2255 0
-14 -225 334 2256 0
-276 -205 -176 2257 0
200 -128 -273 2258 0
-16 -460 -446 2259 0
-464 420 -279 2260 0
194 -391 453 2261 0
-165 383 -191 2262 0
-164 -101 -322 2263 0
169 -470 153 2264 0
313 272 -287 2265 0
222 -210 312 2266 0
-61 -106 -239 2267 0
360 318 474 2268 0
-422 -141 -382 2269 0
379 -10 280 2270 0
-467 453 -148 2271 0
466 313 -201 2272 0
-327 209 -409 2273 0
-252 -412 -107 2274 0
156 136 86 2275 0
421 -17 -131 2276 0
-170 -1 -186 2277 0
452 133 480 2278 0
191 -400 25 2279 0
153 -452 343 2280 0
495 280 -234 2281 0
97 -498 -225 2282 0
-127 308 463 2283 0
-307 124 -290 2284 0
111 120 -291 2285 0
434 -305 -280 2286 0
-43 134 484 2287 0
138 345 -218 2288 0
-331 15 343 2289 0
-498 -243 -496 2290 0
172 -291 34 2291 0
-69 -494 26 2292 0
167 312 -416 2293 0
-64 -410 41 2294 0
140 188 -218 2295 0
-485 385 -92 2296 0
-423 65 -333 2297 0
-122 420 -60 2298 0
-465 143 122 2299 0
411 -482 -124 2300 0
237 159 -278 2301 0
57 -413 194 2302 0
458 -235 31 2303 0
148 38 -479 2304 0
-70 -279 375 2305 0
-391 -161 -192 2306 0
36 -246 114 2307 0
-396 210 -336 2308 0
-63 453 -374 2309 0
140 399 -50 2310 0
37 -286 227 2311 0
153 442 396 2312 0
-210 -66 -116 2313 0
83 252 -427 2314 0
-120 -64 -293 2315 0
-324 167 -230 2316 0
-199 495 481 2317 0
-193 412 -201 2318 0
-246 372 -400 2319 0
364 -178 -468 2320 0
228 310 441 2321 0
-436 -199 -330 2322 0
-87 -489 -68 2323 0
-295 67 326 2324 0
459 235 202 2325 0
-356 233 414 2326 0
-54 -462 277 2327 0
153 260 -36 2328 0
-130 308 258 2329 0
462 -224 171 2330 0
87 -267 223 2331 0
-237 6 278 2332 0
-386 112 113 2333 0
381 -15 370 2334 0
348 -234 -45 2335 0
24 90 -17 2336 0
258 -129 -470 2337 0
50 140 425 2338 0
-400 269 -360 2339 0
-337 20 -400 2340 0
149 -324 -170 2341 0
218 -96 109 2342 0
247 -83 196 2343 0
-246 -251 -197 2344 0
351 484 239 2345 0
73 478 51 2346 0
386 -164 300 2347 0
457 121 354 2348 0
-454 162 314 2349 0
-98 -283 -196 2350 0
-472 406 24 2351 0
63 50 255 2352 0
353 279 117 2353 0
-403 407 355 2354 0
136 376 87 2355 0
73 193 -406 2356 0
86 -361 -19 2357 0
-190 119 53 2358 0
37 -335 82 2359 0
354 -344 403 2360 0
-369 241 458 2361 0
-109 -350 195 2362 0
180 -368 -278 2363 0
214 96 -59 2364 0
216 324 -312 2365 0
373 383 -414 2366 0
321 118 244 2367 0
25 -468 -316 2368 0
-476 -429 173 2369 0
-71 -439 -262 2370 0
395 218 -237 2371 0
-366 -43 105 2372 0
160 132 -177 2373 0
432 -94 -299 2374 0
277 -222 355 2375 0
-119 -349 -209 2376 0
-329 280 -271 2377 0
269 357 206 2378 0
-270 312 -308 2379 0
292 247 -168 2380 0
-107 -379 136 2381 0
204 186 -1 2382 0
262 -209 440 2383 0
230 66 -176 2384 0
106 -411 -406 2385 0
-430 307 477 2386 0
209 498 35 2387 0
324 -198 182 2388 0
467 96 -374 2389 0
413 9 432 2390 0
-246 428 -305 2391 0
457 8 64 2392 0
-436 187 419 2393 0
448 -104 464 2394 0
299 293 443 2395 0
-290 356 178 2396 0
-21 97 240 2397 0
-16 406 187 2398 0
-310 -268 75 2399 0
34 -12 208 2400 0
-500 181 303 2401 0
-48 141 -229 2402 0
-330 -473 452 2403 0
-167 -29 -415 2404 0
-364 203 -277 2405 0
118 28 -105 2406 0
-39 446 258 2407 0
-302 425 -18 2408 0
129 42 56 2409 0
-439 375 -75 2410 0
-398 -341 200 2411 0
185 -399 -413 2412 0
-126 350 138 2413 0
-28 -204 481 2414 0
28 199 -248 2415 0
177 430 -485 2416 0
225 -425 -312 2417 0
398 336 -178 2418 0
-125 326 -395 2419 0
285 -451 -159 2420 0
-161 58 14 2421 0
228 -187 416 2422 0
-171 -456 435 2423 0
247 -387 400 2424 0
343 295 -409 2425 0
-493 -499 495 2426 0
-417 65 74 2427 0
-170 386 224 2428 0
-34 -269 -322 2429 0
-262 -448 -471 2430 0
-460 367 -83 2431 0
-340 111 292 2432 0
-430 371 55 2433 0
288 -250 468 2434 0
-81 396 -399 2435 0
-423 258 46 2436 0
-248 -334 -98 2437 0
487 -49 35 2438 0
87 223 447 2439 0
-134 -152 -187 2440 0
-148 -372 70 2441 0
372 -127 -437 2442 0
-256 122 -467 2443 0
-194 -54 -425 2444 0
94 -211 39 2445 0
319 10 474 2446 0
194 -45 70 2447 0
-100 -328 368 2448 0
443 -296 -342 2449 0
-31 358 -90 2450 0
354 -247 -303 2451 0
-487 -49 -387 2452 0
-400 -209 -9 2453 0
-457 361 144 2454 0
-398 90 110 2455 0
-440 143 269 2456 0
-90 75 -192 2457 0
359 -347 -305 2458 0
172 -280 -144 2459 0
-58 -71 340 2460 0
-469 334 78 2461 0
-403 443 400 2462 0
-6 402 -173 2463 0
-290 -242 -149 2464 0
-7 -66 -470 2465 0
-278 487 -49 2466 0
379 -238 -183 2467 0
499 362 439 2468 0
-412 435 -140 2469 0
-326 -345 -485 2470 0
372 -445 -26 2471 0
-32 -192 -349 2472 0
469 160 -7 2473 0
-499 -411 -247 2474 0
373 -136 -216 2475 0
-2 7 -270 2476 0
442 -64 283 2477 0
379 130 -29 2478 0
-170 489 328 2479 0
-422 254 61 2480 0
-132 -467 -474 2481 0
128 367 168 2482 0
271 -265 291 2483 0
-158 -395 404 2484 0
-278 116 235 2485 0
168 70 104 2486 0
-258 27 -176 2487 0
-448 402 235 2488 0
362 -342 -490 2489 0
-391 269 -387 2490 0
359 184 452 2491 0
-188 150 57 2492 0
207 262 67 2493 0
4 181 136 2494 0
367 162 -101 2495 0
328 275 11 2496 0
278 130 -267 2497 0
-218 -316 14 2498 0
382 -203 226 2499 0
-231 -427 349 2500 0
-423 332 359 2501 0
-137 222 -66 2502 0
340 -39 -205 2503 0
142 143 -361 2504 0
184 22 16 2505 0
-477 -310 -183 2506 0
-210 -423 14 2507 0
153 -331 499 2508 0
-416 276 -47 2509 0
417 -227 21 2510 0
115 -436 -427 2511 0
-420 -354 228 2512 0
154 3 14 2513 0
77 118 -389 2514 0
-411 29 -417 2515 0
42 -110 412 2516 0
-162 -45 -219 2517 0
-173 145 -46 2518 0
-368 384 -289 2519 0
121 -151 -40 2520 0
-285 -364 -353 2521 0
-258 74 120 2522 0
66 273 124 2523 0
453 -286 -82 2524 0
465 83 155 2525 0
-280 450 27 2526 0
-78 53 -377 2527 0
217 -307 -230 2528 0
430 -68 309 2529 0
213 -22 -271 2530 0
-339 -291 433 2531 0
-264 -317 -165 2532 0
467 299 -307 2533 0
363 -400 85 2534 0
-2 362 -343 2535 0
349 273 84 2536 0
-489 -369 -184 2537 0
-119 -410 238 2538 0
308 -331 -172 2539 0
-86 -229 317 2540 0
-159 226 489 2541 0
361 -313 148 2542 0
-22 490 179 2543 0
181 -163 -140 2544 0
20 322 337 2545 0
-299 411 120 2546 0
-275 -468 6 2547 0
363 179 -401 2548 0
44 -52 358 2549 0
-94 423 -126 2550 0
254 24 -135 2551 0
-305 36 -482 2552 0
330 -329 83 2553 0
323 -4 138 2554 0
-87 313 307 2555 0
-77 -240 -71 2556 0
90 94 24 2557 0
110 362 58 2558 0
-250 -407 205 2559 0
-165 -347 -235 2560 0
100 311 182 2561 0
-53 414 47 2562 0
450 -497 460 2563 0
336 -152 46 2564 0
164 -151 -236 2565 0
-60 -131 185 2566 0
-340 -80 -262 2567 0
-138 -500 107 2568 0
167 317 335 2569 0
297 31 311 2570 0
51 381 55 2571 0
-429 -304 -270 2572 0
-395 -161 -329 2573 0
301 -123 386 2574 0
-152 -308 -289 2575 0
157 -145 -367 2576 0
417 -431 -81 2577 0
-235 -480 9 2578 0
469 214 54 2579 0
473 242 -428 2580 0
-33 458 -186 2581 0
444 -254 73 2582 0
-476 -425 -139 2583 0
439 254 -184 2584 0
53 -439 -477 2585 0
499 184 -226 2586 0
-221 -262 31 2587 0
447 -380 -36 2588 0
-239 -157 197 2589 0
-40 -79 430 2590 0
339 386 178 2591 0
-43 153 -394 2592 0
70 -400 -475 2593 0
356 -82 386 2594 0
65 49 -320 2595 0
104 470 26 2596 0
-330 -8 426 2597 0
-291 -498 27 2598 0
388 110 -315 2599 0
-46 -475 378 2600 0
-11 334 286 2601 0
310 238 -498 2602 0
186 202 466 2603 0
498 -266 -478 2604 0
-25 113 -154 2605 0
-449 131 -485 2606 0
-288 194 -164 2607 0
179 482 363 2608 0
491 -313 132 2609 0
-397 27 -402 2610 0
331 -413 -244 2611 0
266 219 200 2612 0
252 94 -395 2613 0
-242 370 -411 2614 0
418 98 157 2615 0
-423 241 -201 2616 0
-488 -9 492 2617 0
-425 -174 242 2618 0
185 -188 192 2619 0
-311 361 51 2620 0
-490 -403 311 2621 0
-276 -34 279 2622 0
170 -336 -124 2623 0
234 -397 452 2624 0
169 -307 417 2625 0
-151 -303 -213 2626 0
466 281 361 2627 0
-426 -295 269 2628 0
43 -185 402 2629 0
-361 -276 -38 2630 0
182 -97 -498 2631 0
-272 442 -499 2632 0
326 343 78 2633 0
-240 261 -406 2634 0
-329 -104 -415 2635 0
-152 -51 -476 2636 0
-258 -207 12 2637 0
140 -475 -404 2638 0
-282 422 276 2639 0
320 -396 397 2640 0
-453 -432 293 2641 0
157 255 282 2642 0
185 -69 243 2643 0
53 347 -436 2644 0
334 -433 250 2645 0
-327 -460 474 2646 0
-245 -158 201 2647 0
-323 -161 388 2648 0
42 198 403 2649 0
78 360 -138 2650 0
