p cnf 2650 2150
84 -412 -419 501 0
-38 22 295 502 0
-485 487 51 503 0
235 -108 -335 504 0
63 41 -232 505 0
-52 285 -32 506 0
303 -408 23 507 0
-74 -407 -255 508 0
-185 -166 -422 509 0
-348 272 2 510 0
-70 -384 356 511 0
435 -249 406 512 0
265 -24 320 513 0
431 5 386 514 0
181 292 -387 515 0
51 296 -372 516 0
-75 37 190 517 0
232 -432 283 518 0
65 -467 -2 519 0
-416 347 -115 520 0
-206 -339 -489 521 0
-154 -15 312 522 0
-339 296 273 523 0
-28 -441 301 524 0
447 480 -276 525 0
-154 -378 308 526 0
343 45 466 527 0
-99 96 -402 528 0
-283 -418 195 529 0
-466 352 -270 530 0
345 -294 418 531 0
315 -148 -65 532 0
241 -29 -408 533 0
85 437 334 534 0
-323 -167 -232 535 0
385 365 -99 536 0
-261 -356 298 537 0
-329 -286 -441 538 0
-147 -375 -329 539 0
270 -273 -87 540 0
-269 42 -417 541 0
-290 386 63 542 0
-117 449 498 543 0
217 312 -29 544 0
481 430 136 545 0
-176 -234 165 546 0
-379 414 208 547 0
288 -20 -313 548 0
-217 379 472 549 0
-308 261 306 550 0
141 369 -167 551 0
-82 -32 497 552 0
457 30 176 553 0
341 343 -409 554 0
386 -281 97 555 0
61 -96 -23 556 0
-324 7 -234 557 0
-428 448 -29 558 0
-65 359 262 559 0
-26 117 135 560 0
-374 235 -455 561 0
-315 -147 -286 562 0
-429 -388 -249 563 0
448 -304 -44 564 0
391 -370 96 565 0
98 -170 -40 566 0
-272 298 292 567 0
183 -436 -232 568 0
-370 176 35 569 0
114 361 93 570 0
60 -264 444 571 0
7 -355 -118 572 0
290 -4 220 573 0
-253 -495 -21 574 0
-333 -185 -352 575 0
462 417 -461 576 0
50 -243 -42 577 0
293 368 -468 578 0
-68 -235 -422 579 0
-36 136 -172 580 0
212 365 333 581 0
147 48 -283 582 0
-489 494 410 583 0
-31 -337 34 584 0
498 -279 -1 585 0
-479 42 238 586 0
85 -220 126 587 0
51 -33 -332 588 0
-365 -380 206 589 0
-100 -323 376 590 0
139 348 78 591 0
69 389 -454 592 0
322 153 -416 593 0
-438 -462 75 594 0
-235 322 410 595 0
488 -222 -459 596 0
-500 52 -389 597 0
161 -62 405 598 0
-105 -374 90 599 0
-16 199 236 600 0
-171 -429 272 601 0
-43 492 -496 602 0
258 144 -184 603 0
207 -233 493 604 0
8 -492 -376 605 0
-80 366 258 606 0
-133 -489 -56 607 0
-116 -236 7 608 0
-16 377 -52 609 0
14 104 169 610 0
245 -283 -486 611 0
-456 68 303 612 0
-395 53 -302 613 0
-82 -353 -212 614 0
-326 -66 -367 615 0
167 -303 138 616 0
-431 2 -153 617 0
-70 -162 211 618 0
107 467 37 619 0
-423 370 -387 620 0
-310 -29 350 621 0
-374 -219 8 622 0
-71 455 287 623 0
328 264 -99 624 0
228 75 -98 625 0
-83 38 -115 626 0
181 -212 -103 627 0
-348 -162 -419 628 0
405 -186 129 629 0
-443 474 383 630 0
323 469 497 631 0
-45 354 85 632 0
-454 -81 -376 633 0
-129 -46 374 634 0
346 344 335 635 0
334 -296 -15 636 0
338 -19 386 637 0
458 -450 47 638 0
235 -369 265 639 0
-443 -14 -226 640 0
-155 -163 -418 641 0
-171 112 311 642 0
-43 37 -465 643 0
141 -447 178 644 0
324 -316 -223 645 0
-357 166 -21 646 0
-293 306 -144 647 0
-394 45 137 648 0
401 -86 178 649 0
-269 -351 230 650 0
84 -282 -133 651 0
410 -358 -377 652 0
10 -373 -103 653 0
358 285 333 654 0
363 -472 19 655 0
-316 135 17 656 0
-333 -438 141 657 0
-151 448 243 658 0
-248 346 398 659 0
105 -151 8 660 0
65 73 -75 661 0
-342 455 133 662 0
327 292 463 663 0
181 95 -1 664 0
-186 263 240 665 0
-231 326 374 666 0
-267 66 -394 667 0
247 -289 351 668 0
-87 142 -430 669 0
-500 407 76 670 0
-149 411 19 671 0
414 171 -162 672 0
-431 314 135 673 0
-90 379 -454 674 0
486 -310 -328 675 0
411 -29 69 676 0
-11 -307 211 677 0
-451 107 -498 678 0
-308 4 -328 679 0
-300 86 -441 680 0
495 335 120 681 0
-300 -489 15 682 0
134 10 -54 683 0
68 154 133 684 0
-234 -236 190 685 0
-78 225 -457 686 0
-210 -433 38 687 0
441 431 -254 688 0
-418 -151 -187 689 0
-372 186 -323 690 0
213 261 -180 691 0
-271 480 492 692 0
334 -15 52 693 0
-349 -402 117 694 0
-494 314 -364 695 0
-271 -151 12 696 0
-429 233 -451 697 0
-83 206 408 698 0
351 317 394 699 0
-54 -49 486 700 0
156 152 -267 701 0
256 348 496 702 0
-417 -346 -424 703 0
425 -382 -423 704 0
330 42 -178 705 0
-322 -30 446 706 0
221 148 342 707 0
-451 -94 291 708 0
-471 -340 264 709 0
94 -128 -117 710 0
476 -382 395 711 0
447 -186 369 712 0
-243 -179 -122 713 0
108 -344 89 714 0
68 -151 -303 715 0
-386 384 -375 716 0
-431 -43 328 717 0
-417 -479 117 718 0
-157 -329 1 719 0
-154 19 -339 720 0
328 -269 -396 721 0
403 417 236 722 0
-263 468 -294 723 0
219 -183 -49 724 0
-14 -412 -199 725 0
-58 -205 -131 726 0
66 170 500 727 0
31 27 -446 728 0
420 253 5 729 0
-353 -321 417 730 0
-16 -192 371 731 0
-422 28 -378 732 0
-367 372 436 733 0
440 210 -287 734 0
-5 -187 133 735 0
251 -354 181 736 0
-341 379 -412 737 0
-358 194 -449 738 0
400 -314 -360 739 0
-366 -256 -107 740 0
348 -313 -83 741 0
-28 -389 -134 742 0
-275 -499 -270 743 0
361 204 180 744 0
-469 332 111 745 0
251 -205 119 746 0
-370 -489 -216 747 0
178 429 -366 748 0
114 370 236 749 0
401 25 381 750 0
268 361 -92 751 0
343 -404 208 752 0
217 -181 -447 753 0
416 338 -87 754 0
497 137 -467 755 0
-215 -422 -283 756 0
-157 270 -100 757 0
-437 -31 -410 758 0
-50 248 -172 759 0
443 -337 72 760 0
220 150 413 761 0
115 94 199 762 0
-252 14 -500 763 0
183 248 491 764 0
473 -227 427 765 0
-233 324 -12 766 0
351 469 280 767 0
-80 -126 33 768 0
-188 41 -56 769 0
-464 -185 -365 770 0
128 -329 -484 771 0
-219 -441 278 772 0
401 -12 -387 773 0
-63 -469 349 774 0
141 284 329 775 0
-49 -165 -327 776 0
355 -437 307 777 0
139 305 -387 778 0
327 -385 -231 779 0
-12 -395 64 780 0
479 322 339 781 0
167 326 478 782 0
-230 14 -419 783 0
251 287 -66 784 0
29 257 309 785 0
210 -219 -238 786 0
-283 483 65 787 0
-389 227 -302 788 0
461 193 -370 789 0
13 278 142 790 0
305 -332 -120 791 0
238 -318 146 792 0
-336 -380 -49 793 0
9 -176 -443 794 0
-25 -330 444 795 0
344 -488 -317 796 0
-88 106 -197 797 0
-100 99 71 798 0
75 256 -377 799 0
-448 129 -106 800 0
23 236 382 801 0
482 -143 -37 802 0
72 -486 267 803 0
-246 -207 -13 804 0
379 194 429 805 0
-133 126 -486 806 0
-298 163 -132 807 0
-162 -103 -416 808 0
-130 -354 186 809 0
-316 332 -184 810 0
-16 -493 177 811 0
-27 453 -155 812 0
277 65 207 813 0
4 -273 -438 814 0
-386 168 -195 815 0
269 384 367 816 0
-39 102 -136 817 0
-170 -369 485 818 0
-357 -158 -191 819 0
397 388 -356 820 0
-72 -61 198 821 0
-353 -84 275 822 0
241 -153 34 823 0
-176 37 -324 824 0
72 -86 240 825 0
-161 -289 88 826 0
304 361 388 827 0
244 -165 -13 828 0
-62 -387 -32 829 0
69 -357 287 830 0
-1 -137 -420 831 0
-466 323 -467 832 0
128 -395 -477 833 0
-66 54 -82 834 0
415 92 -240 835 0
298 120 -238 836 0
-136 171 -257 837 0
449 74 -62 838 0
185 -56 -495 839 0
17 193 460 840 0
53 344 318 841 0
154 31 227 842 0
129 -313 -124 843 0
150 -88 240 844 0
156 104 489 845 0
279 404 2 846 0
-367 -477 419 847 0
-52 -357 415 848 0
466 -76 -1 849 0
186 211 61 850 0
-31 181 -377 851 0
356 24 -272 852 0
214 446 322 853 0
-341 239 43 854 0
310 214 125 855 0
-396 170 371 856 0
-152 -237 67 857 0
120 105 213 858 0
-291 -337 -446 859 0
384 -414 390 860 0
221 -185 80 861 0
243 -395 221 862 0
-459 -93 270 863 0
191 319 141 864 0
-411 -329 74 865 0
139 -462 248 866 0
180 200 -497 867 0
-259 216 -391 868 0
-341 -258 484 869 0
-351 -218 -457 870 0
301 -190 54 871 0
250 -442 -361 872 0
-486 216 -80 873 0
112 -497 153 874 0
-163 -33 -168 875 0
-374 -203 -420 876 0
-459 -236 -253 877 0
-5 -420 304 878 0
-165 -78 -192 879 0
-301 -357 228 880 0
-47 -41 165 881 0
3 124 393 882 0
-275 -240 -345 883 0
-435 337 130 884 0
-176 -409 224 885 0
237 488 -325 886 0
90 -238 58 887 0
-35 -257 425 888 0
46 435 -84 889 0
159 402 -343 890 0
293 490 383 891 0
-481 -195 147 892 0
-151 -104 197 893 0
23 62 226 894 0
314 53 -454 895 0
-435 362 26 896 0
-15 -386 442 897 0
201 409 89 898 0
187 -105 -274 899 0
-365 144 145 900 0
-432 -465 -7 901 0
489 88 -353 902 0
332 -187 53 903 0
258 -148 -299 904 0
-408 259 -178 905 0
423 194 455 906 0
203 -410 -405 907 0
422 335 -382 908 0
325 -17 414 909 0
-191 -73 -138 910 0
185 245 127 911 0
466 -427 -439 912 0
-247 -55 -292 913 0
394 86 -371 914 0
-112 -320 -185 915 0
-347 -73 406 916 0
369 478 -98 917 0
-418 -389 -255 918 0
-127 492 254 919 0
-145 -130 -169 920 0
481 127 -361 921 0
462 -37 192 922 0
-493 469 -457 923 0
-137 334 -447 924 0
-81 250 -426 925 0
-161 -223 125 926 0
-175 -160 -375 927 0
190 139 408 928 0
-12 199 265 929 0
136 243 89 930 0
-395 -99 268 931 0
-31 -434 59 932 0
-495 -206 266 933 0
437 323 -190 934 0
51 456 -188 935 0
102 3 -378 936 0
405 -362 299 937 0
-49 -238 452 938 0
-434 -272 -432 939 0
-411 -449 -182 940 0
157 494 -246 941 0
259 -53 -284 942 0
-380 97 416 943 0
-99 318 -91 944 0
-57 -284 -130 945 0
-273 -127 -190 946 0
120 -220 -13 947 0
-1 -300 -249 948 0
-242 -416 -256 949 0
-306 189 -351 950 0
-441 358 -48 951 0
-318 -452 411 952 0
-424 -3 5 953 0
381 371 -155 954 0
-372 210 -325 955 0
277 199 -22 956 0
186 -207 58 957 0
-249 -220 -165 958 0
-371 259 -395 959 0
292 -152 426 960 0
138 -23 201 961 0
-441 471 376 962 0
-448 146 -454 963 0
189 -186 -478 964 0
479 91 -258 965 0
-397 -374 166 966 0
-337 226 -488 967 0
-235 472 152 968 0
481 -13 18 969 0
-363 106 -204 970 0
-129 -94 -372 971 0
250 409 -438 972 0
-313 -10 -69 973 0
147 -124 -123 974 0
-319 -219 -481 975 0
-364 410 136 976 0
125 210 -428 977 0
-30 -236 422 978 0
408 -493 258 979 0
-37 -332 -103 980 0
40 137 -71 981 0
-96 348 -469 982 0
-192 -264 63 983 0
-476 -40 53 984 0
399 136 -295 985 0
412 -386 92 986 0
489 -115 -500 987 0
491 -396 404 988 0
375 -242 96 989 0
-117 354 -146 990 0
-49 -428 235 991 0
343 -36 383 992 0
-90 -185 250 993 0
-87 38 -151 994 0
277 482 370 995 0
-139 273 -299 996 0
419 211 -500 997 0
-412 239 -67 998 0
163 -427 -170 999 0
120 225 -223 1000 0
-199 -305 330 1001 0
382 -52 -225 1002 0
62 -490 370 1003 0
-364 -139 -77 1004 0
-263 412 -161 1005 0
-481 495 321 1006 0
-21 -469 -16 1007 0
-334 145 19 1008 0
23 -113 226 1009 0
448 -156 -120 1010 0
-156 -199 -310 1011 0
408 -311 482 1012 0
80 43 -111 1013 0
148 119 172 1014 0
-122 294 -121 1015 0
-276 172 -300 1016 0
170 -468 -456 1017 0
-355 -361 38 1018 0
-1 171 -99 1019 0
193 430 190 1020 0
392 76 151 1021 0
-15 -285 474 1022 0
-151 -498 83 1023 0
-281 -95 -441 1024 0
-183 239 -454 1025 0
-247 315 -410 1026 0
293 -86 251 1027 0
-290 -473 -422 1028 0
-449 319 88 1029 0
-207 158 317 1030 0
326 30 279 1031 0
-479 437 -465 1032 0
337 -83 -127 1033 0
352 -264 130 1034 0
-313 377 18 1035 0
-177 398 462 1036 0
-432 -296 346 1037 0
-422 -490 -124 1038 0
408 -172 -61 1039 0
-66 -183 199 1040 0
112 -292 85 1041 0
-189 87 -445 1042 0
-285 -34 -79 1043 0
355 229 -58 1044 0
-278 193 -52 1045 0
-255 102 229 1046 0
62 -417 -256 1047 0
-253 -179 489 1048 0
303 -240 -251 1049 0
-472 156 198 1050 0
459 404 -343 1051 0
-303 155 16 1052 0
-338 89 -347 1053 0
142 73 -473 1054 0
335 -251 31 1055 0
-209 -341 315 1056 0
-135 -84 -382 1057 0
-433 448 261 1058 0
202 375 100 1059 0
-213 -71 434 1060 0
88 -412 -57 1061 0
411 247 -357 1062 0
311 338 -6 1063 0
-151 384 63 1064 0
450 -158 -476 1065 0
138 -183 232 1066 0
-236 400 -115 1067 0
-464 187 -323 1068 0
-129 329 140 1069 0
-112 435 -72 1070 0
-418 -235 -209 1071 0
-391 -179 433 1072 0
288 -64 -249 1073 0
217 -349 -255 1074 0
-353 316 172 1075 0
-79 183 282 1076 0
-18 41 -358 1077 0
-466 230 -397 1078 0
-154 -15 -432 1079 0
-9 -421 407 1080 0
57 -28 150 1081 0
348 164 323 1082 0
-310 -347 241 1083 0
288 411 -158 1084 0
-168 -214 -386 1085 0
194 -77 309 1086 0
478 -136 303 1087 0
296 -490 -335 1088 0
-165 -292 199 1089 0
-179 3 -469 1090 0
-264 -96 191 1091 0
85 -490 358 1092 0
200 286 -316 1093 0
-354 -45 -100 1094 0
-258 21 -199 1095 0
-66 156 440 1096 0
450 203 -176 1097 0
407 70 -107 1098 0
-201 92 310 1099 0
-440 -338 -370 1100 0
184 -429 -314 1101 0
-432 207 276 1102 0
-280 -121 -98 1103 0
412 -100 462 1104 0
353 -290 -146 1105 0
-401 4 333 1106 0
-361 327 328 1107 0
76 373 -155 1108 0
-91 -183 -457 1109 0
-212 19 -214 1110 0
-351 339 129 1111 0
-194 -167 347 1112 0
-394 461 178 1113 0
-363 -332 216 1114 0
49 -191 92 1115 0
132 445 -275 1116 0
20 -455 131 1117 0
-367 269 -482 1118 0
60 86 239 1119 0
246 -345 219 1120 0
54 -342 -409 1121 0
-261 356 141 1122 0
-484 -17 86 1123 0
-269 248 -272 1124 0
200 -262 493 1125 0
-148 -375 176 1126 0
-448 -57 -372 1127 0
-407 192 -66 1128 0
466 278 -425 1129 0
495 424 -163 1130 0
375 -185 101 1131 0
346 452 -350 1132 0
-490 477 -156 1133 0
145 267 -394 1134 0
106 350 -25 1135 0
-195 63 360 1136 0
-187 -38 351 1137 0
62 385 14 1138 0
-233 256 325 1139 0
-55 273 249 1140 0
-268 298 -480 1141 0
-274 -31 487 1142 0
-386 15 270 1143 0
-97 303 -221 1144 0
-145 -321 -122 1145 0
382 499 -204 1146 0
198 13 -155 1147 0
275 18 -364 1148 0
-477 -179 374 1149 0
31 -112 -127 1150 0
-180 473 217 1151 0
-203 -15 -111 1152 0
-252 21 472 1153 0
451 340 -466 1154 0
-373 -118 247 1155 0
406 477 262 1156 0
-36 87 -499 1157 0
-161 258 -466 1158 0
60 -50 -305 1159 0
-491 75 33 1160 0
-276 198 -137 1161 0
126 -476 22 1162 0
-385 -12 -305 1163 0
-331 84 20 1164 0
-77 -428 361 1165 0
-269 88 -28 1166 0
-119 -415 -156 1167 0
379 -201 -195 1168 0
-233 390 20 1169 0
428 195 36 1170 0
-303 300 -17 1171 0
311 -487 -159 1172 0
153 -313 -199 1173 0
-249 466 375 1174 0
-67 49 462 1175 0
295 81 -359 1176 0
322 371 -128 1177 0
-213 -49 -264 1178 0
-217 -225 97 1179 0
334 -363 57 1180 0
449 143 -299 1181 0
314 -397 -356 1182 0
-411 -306 209 1183 0
65 -312 -175 1184 0
-343 -276 -154 1185 0
148 -403 136 1186 0
156 428 487 1187 0
-362 185 -293 1188 0
-167 64 375 1189 0
-410 -474 482 1190 0
425 -112 -471 1191 0
-58 470 179 1192 0
13 -124 -155 1193 0
-321 486 103 1194 0
479 156 396 1195 0
-490 341 383 1196 0
-328 291 -108 1197 0
-135 -79 409 1198 0
250 366 257 1199 0
-214 -134 -175 1200 0
49 213 154 1201 0
432 121 -383 1202 0
-357 123 -419 1203 0
217 241 -199 1204 0
-26 180 351 1205 0
376 -164 -55 1206 0
-150 -156 260 1207 0
-73 -337 -364 1208 0
-120 164 -173 1209 0
-257 -319 -464 1210 0
62 58 271 1211 0
-325 -38 -484 1212 0
139 -54 355 1213 0
265 -251 245 1214 0
-297 300 18 1215 0
402 460 8 1216 0
-75 266 -176 1217 0
-54 -355 -350 1218 0
90 298 -248 1219 0
-448 434 -326 1220 0
-496 6 355 1221 0
-235 377 -2 1222 0
187 -6 -417 1223 0
-104 137 -322 1224 0
232 312 491 1225 0
-440 387 -491 1226 0
-266 144 -426 1227 0
-363 398 -454 1228 0
-172 335 -193 1229 0
-5 497 165 1230 0
-187 136 -497 1231 0
445 326 247 1232 0
-319 497 386 1233 0
-72 343 -414 1234 0
-77 -389 434 1235 0
213 448 160 1236 0
-408 214 -329 1237 0
64 16 -383 1238 0
443 98 -254 1239 0
-135 73 353 1240 0
360 220 209 1241 0
276 -374 122 1242 0
-226 -447 187 1243 0
224 207 209 1244 0
361 -162 -349 1245 0
303 -470 483 1246 0
-161 -341 -389 1247 0
-71 -297 317 1248 0
226 -322 -187 1249 0
137 -438 -397 1250 0
-433 -33 -425 1251 0
-241 -333 340 1252 0
-16 370 462 1253 0
-189 -46 -250 1254 0
-195 -440 361 1255 0
279 101 92 1256 0
-395 -69 -305 1257 0
-157 139 45 1258 0
81 65 280 1259 0
-124 -383 -282 1260 0
-43 154 70 1261 0
-109 -36 -416 1262 0
71 265 -80 1263 0
483 500 223 1264 0
142 336 -81 1265 0
-419 -432 46 1266 0
240 -399 -86 1267 0
387 32 226 1268 0
-165 -22 -221 1269 0
-133 143 -122 1270 0
403 -83 197 1271 0
362 -460 471 1272 0
-381 373 -154 1273 0
-246 346 209 1274 0
-157 -19 150 1275 0
-96 76 232 1276 0
306 -166 -249 1277 0
177 -119 264 1278 0
274 200 472 1279 0
431 74 -295 1280 0
-230 -253 35 1281 0
-254 -452 52 1282 0
414 -382 95 1283 0
-40 72 -431 1284 0
-309 259 -271 1285 0
74 1 -352 1286 0
421 352 -265 1287 0
-190 -109 -411 1288 0
-431 26 -488 1289 0
-287 445 246 1290 0
-177 356 -420 1291 0
247 488 -244 1292 0
-225 -43 292 1293 0
313 -17 -131 1294 0
1 -467 -268 1295 0
255 52 38 1296 0
2 8 227 1297 0
248 79 -356 1298 0
312 193 286 1299 0
269 131 -413 1300 0
283 274 466 1301 0
-60 -452 -84 1302 0
-182 -396 133 1303 0
-382 -73 -253 1304 0
-22 -315 -124 1305 0
-308 447 -471 1306 0
-191 -312 95 1307 0
-158 455 -139 1308 0
-187 -194 -278 1309 0
181 458 387 1310 0
-295 485 313 1311 0
-219 -457 -82 1312 0
-182 186 383 1313 0
377 -78 286 1314 0
297 467 108 1315 0
123 -176 205 1316 0
206 79 74 1317 0
-73 -311 -464 1318 0
-29 168 -22 1319 0
-213 -207 -271 1320 0
-148 68 -125 1321 0
415 -95 -155 1322 0
51 224 163 1323 0
173 104 46 1324 0
377 -191 -333 1325 0
397 57 -188 1326 0
300 -279 326 1327 0
-94 155 274 1328 0
135 -53 74 1329 0
151 154 -485 1330 0
375 469 7 1331 0
-308 62 338 1332 0
271 298 -413 1333 0
-61 -347 -285 1334 0
380 -253 -81 1335 0
-114 -181 -324 1336 0
267 -159 109 1337 0
-337 305 109 1338 0
140 -155 422 1339 0
-1 402 5 1340 0
256 320 267 1341 0
432 -218 65 1342 0
205 319 139 1343 0
-70 400 -226 1344 0
-110 -484 -443 1345 0
130 25 -157 1346 0
487 -381 -30 1347 0
-344 -450 61 1348 0
-241 237 311 1349 0
-69 446 252 1350 0
203 -497 -286 1351 0
-118 296 37 1352 0
322 425 -457 1353 0
56 128 -74 1354 0
-448 498 -377 1355 0
147 -259 352 1356 0
152 -217 315 1357 0
25 394 290 1358 0
-131 -252 45 1359 0
-465 -239 452 1360 0
121 131 -474 1361 0
487 142 67 1362 0
447 166 -462 1363 0
450 -260 -69 1364 0
386 26 159 1365 0
-469 144 -214 1366 0
243 -107 -6 1367 0
80 306 -104 1368 0
-405 359 -109 1369 0
-388 -374 14 1370 0
-378 246 224 1371 0
-80 493 266 1372 0
157 -226 419 1373 0
-84 305 1 1374 0
166 25 -326 1375 0
-23 430 -88 1376 0
480 18 -453 1377 0
-271 416 489 1378 0
214 308 -356 1379 0
-251 221 -344 1380 0
220 -318 261 1381 0
-378 -110 103 1382 0
-22 154 -317 1383 0
77 -343 435 1384 0
-15 -89 214 1385 0
-493 -4 -35 1386 0
-102 -392 -367 1387 0
381 -25 -210 1388 0
449 -29 -131 1389 0
-230 -90 290 1390 0
425 -434 -465 1391 0
458 94 -228 1392 0
311 -283 127 1393 0
-177 -201 -56 1394 0
-394 451 -138 1395 0
55 -453 -495 1396 0
-433 1 345 1397 0
164 225 16 1398 0
452 -6 408 1399 0
-494 2 -355 1400 0
-197 -53 -242 1401 0
-125 338 -75 1402 0
-310 460 -36 1403 0
-460 477 65 1404 0
-336 -245 -209 1405 0
-57 -380 -131 1406 0
260 431 353 1407 0
176 -212 -164 1408 0
320 -43 106 1409 0
216 -286 111 1410 0
39 -444 -148 1411 0
-187 233 -335 1412 0
-154 334 -124 1413 0
247 -303 304 1414 0
-264 -461 -352 1415 0
430 354 106 1416 0
82 -247 -149 1417 0
-334 -443 290 1418 0
92 211 119 1419 0
-8 336 -42 1420 0
251 449 32 1421 0
170 -245 118 1422 0
-487 -384 293 1423 0
285 -55 415 1424 0
397 -331 75 1425 0
-130 -272 -302 1426 0
-108 377 -448 1427 0
127 392 -439 1428 0
-80 -487 -190 1429 0
71 -224 61 1430 0
221 88 97 1431 0
-50 460 228 1432 0
42 371 -80 1433 0
493 45 69 1434 0
-431 -153 87 1435 0
-328 96 -4 1436 0
17 263 -239 1437 0
214 -498 -285 1438 0
-287 -53 -157 1439 0
295 292 -149 1440 0
125 -298 -301 1441 0
-197 481 -458 1442 0
48 219 -213 1443 0
-224 96 -265 1444 0
-309 -405 -66 1445 0
82 -397 329 1446 0
324 -7 177 1447 0
-50 -202 95 1448 0
-106 -112 -240 1449 0
-35 -462 247 1450 0
-160 -6 -376 1451 0
56 -128 442 1452 0
-66 137 52 1453 0
-468 -344 309 1454 0
-216 -256 -149 1455 0
-396 490 -360 1456 0
239 -387 361 1457 0
-113 -86 -274 1458 0
-260 -365 -328 1459 0
485 483 8 1460 0
114 499 -258 1461 0
486 -480 -117 1462 0
-259 -391 -474 1463 0
287 -400 -421 1464 0
-458 -446 -243 1465 0
473 -157 107 1466 0
-380 -497 -312 1467 0
488 -295 -228 1468 0
2 436 487 1469 0
-428 -329 -145 1470 0
313 -370 344 1471 0
-336 -116 51 1472 0
462 349 -444 1473 0
-455 137 -469 1474 0
-151 -46 351 1475 0
174 469 -409 1476 0
203 411 453 1477 0
456 68 286 1478 0
-274 249 -67 1479 0
-437 335 411 1480 0
-111 55 306 1481 0
347 262 235 1482 0
201 -197 -430 1483 0
-146 26 91 1484 0
-391 79 -27 1485 0
-403 -147 234 1486 0
231 119 -354 1487 0
227 -307 266 1488 0
183 -379 -103 1489 0
391 -154 413 1490 0
241 431 -378 1491 0
258 -376 121 1492 0
-36 184 -284 1493 0
-443 194 3 1494 0
-205 438 -420 1495 0
-401 -97 214 1496 0
-223 -381 308 1497 0
-163 -446 -406 1498 0
306 42 -77 1499 0
65 102 10 1500 0
251 349 -24 1501 0
122 123 443 1502 0
174 358 -29 1503 0
131 -342 413 1504 0
-127 -159 -361 1505 0
-205 9 -204 1506 0
493 206 -474 1507 0
-408 380 -468 1508 0
473 -348 -111 1509 0
76 -32 334 1510 0
462 190 183 1511 0
383 -53 247 1512 0
-62 59 91 1513 0
486 -208 97 1514 0
-190 459 -227 1515 0
-275 -238 99 1516 0
235 298 320 1517 0
315 295 235 1518 0
-293 -23 59 1519 0
-93 -491 461 1520 0
-48 399 -67 1521 0
124 265 469 1522 0
171 -73 182 1523 0
-257 71 288 1524 0
165 129 -425 1525 0
139 -143 277 1526 0
44 383 313 1527 0
22 -352 366 1528 0
-298 223 -24 1529 0
-127 134 -410 1530 0
-107 139 -248 1531 0
-22 249 -104 1532 0
-367 -14 477 1533 0
466 155 121 1534 0
-371 109 -359 1535 0
-174 114 13 1536 0
-183 167 271 1537 0
113 -259 -273 1538 0
154 -117 260 1539 0
390 194 -268 1540 0
490 -140 -123 1541 0
36 -80 -239 1542 0
-360 496 46 1543 0
134 44 182 1544 0
422 -471 500 1545 0
-445 84 458 1546 0
-272 465 94 1547 0
430 315 353 1548 0
-75 318 190 1549 0
51 -259 -59 1550 0
-1 112 -329 1551 0
406 -270 348 1552 0
367 107 91 1553 0
-367 300 140 1554 0
-409 323 317 1555 0
265 32 -224 1556 0
410 -71 173 1557 0
130 111 -376 1558 0
-404 -303 374 1559 0
229 -71 191 1560 0
496 458 -248 1561 0
383 346 -256 1562 0
205 194 481 1563 0
-499 164 -114 1564 0
-382 -105 351 1565 0
121 203 147 1566 0
-356 -353 453 1567 0
367 110 -41 1568 0
460 194 489 1569 0
-91 379 -426 1570 0
390 34 -39 1571 0
282 -284 -146 1572 0
491 116 -22 1573 0
-110 -146 -228 1574 0
437 289 -309 1575 0
175 233 239 1576 0
-47 -139 -497 1577 0
-394 51 459 1578 0
69 -367 -124 1579 0
-94 -356 146 1580 0
-115 14 484 1581 0
-98 274 -105 1582 0
265 60 39 1583 0
-297 282 32 1584 0
-23 27 -179 1585 0
16 422 -268 1586 0
481 104 491 1587 0
-394 207 356 1588 0
294 -62 -130 1589 0
383 146 183 1590 0
-223 353 382 1591 0
-399 232 -400 1592 0
176 -149 482 1593 0
-83 -315 -183 1594 0
170 -344 -80 1595 0
319 92 -390 1596 0
-389 -93 318 1597 0
229 -210 216 1598 0
-249 -313 -224 1599 0
-388 290 3 1600 0
-481 471 -444 1601 0
-169 -477 -220 1602 0
-208 -330 -429 1603 0
456 -353 474 1604 0
-312 352 -106 1605 0
-22 177 -214 1606 0
-349 270 453 1607 0
340 -134 -260 1608 0
255 -251 -151 1609 0
202 -474 -5 1610 0
307 432 103 1611 0
235 245 142 1612 0
-377 -251 121 1613 0
470 232 -66 1614 0
386 246 -497 1615 0
82 329 -115 1616 0
-331 285 218 1617 0
233 151 353 1618 0
-287 -127 -141 1619 0
228 16 325 1620 0
55 103 284 1621 0
-237 -56 -169 1622 0
-56 -237 -220 1623 0
300 -69 200 1624 0
-162 79 359 1625 0
367 -427 -11 1626 0
-154 -459 257 1627 0
-233 -260 46 1628 0
-85 347 50 1629 0
-296 -333 -52 1630 0
-116 -45 235 1631 0
-69 362 189 1632 0
-100 -181 -255 1633 0
466 -218 429 1634 0
245 -257 -231 1635 0
217 363 360 1636 0
-104 361 192 1637 0
61 -63 -401 1638 0
429 -487 53 1639 0
-327 -25 461 1640 0
397 477 386 1641 0
341 -342 -359 1642 0
-198 -93 405 1643 0
-145 111 -39 1644 0
365 220 -360 1645 0
-5 -239 -171 1646 0
-448 -174 -492 1647 0
-217 -477 497 1648 0
-67 -75 35 1649 0
-406 -58 475 1650 0
-123 -139 -4 1651 0
94 -271 -487 1652 0
20 -47 468 1653 0
451 378 422 1654 0
340 462 304 1655 0
75 7 238 1656 0
-121 -155 94 1657 0
177 -32 476 1658 0
-496 49 -241 1659 0
-378 -190 -66 1660 0
150 227 -188 1661 0
-60 -342 227 1662 0
-387 455 -494 1663 0
99 -434 -484 1664 0
58 47 -81 1665 0
381 49 -233 1666 0
64 47 -196 1667 0
-408 -154 101 1668 0
89 7 395 1669 0
-191 268 -499 1670 0
369 336 -222 1671 0
436 -373 464 1672 0
255 -245 -461 1673 0
-17 301 -280 1674 0
420 -266 -271 1675 0
28 -381 199 1676 0
415 101 243 1677 0
-437 491 321 1678 0
-343 230 -344 1679 0
268 95 342 1680 0
-6 395 -329 1681 0
-308 12 -7 1682 0
249 -250 251 1683 0
-203 -473 201 1684 0
129 214 -354 1685 0
-150 298 353 1686 0
-186 -331 -477 1687 0
433 -234 -393 1688 0
-93 197 -84 1689 0
65 -403 -308 1690 0
11 -490 -136 1691 0
276 223 275 1692 0
276 7 -20 1693 0
428 -179 -98 1694 0
31 181 -22 1695 0
-110 -173 -341 1696 0
-393 -292 12 1697 0
-394 105 181 1698 0
379 -319 -411 1699 0
-79 399 -216 1700 0
443 245 -30 1701 0
-166 -183 -217 1702 0
-218 151 439 1703 0
185 -178 -1 1704 0
-274 257 48 1705 0
70 -217 85 1706 0
-372 15 -63 1707 0
174 117 428 1708 0
-335 -386 -453 1709 0
-481 35 -121 1710 0
-139 -105 106 1711 0
334 -310 -355 1712 0
-10 -371 206 1713 0
-405 -61 -58 1714 0
-485 -467 -59 1715 0
-357 430 92 1716 0
321 -347 283 1717 0
-216 109 378 1718 0
-33 78 261 1719 0
175 -76 26 1720 0
362 43 -126 1721 0
-26 -290 -457 1722 0
486 75 -441 1723 0
-375 338 -248 1724 0
324 337 489 1725 0
495 -266 411 1726 0
21 491 -269 1727 0
64 -219 89 1728 0
165 238 -52 1729 0
165 -171 -411 1730 0
281 370 299 1731 0
37 402 -271 1732 0
-446 -412 236 1733 0
-330 28 110 1734 0
41 45 -336 1735 0
221 264 219 1736 0
348 -410 171 1737 0
318 208 -314 1738 0
90 -443 425 1739 0
487 431 81 1740 0
217 75 -9 1741 0
-376 486 -46 1742 0
244 435 -35 1743 0
83 313 335 1744 0
247 -41 346 1745 0
227 462 -147 1746 0
-147 -475 292 1747 0
-266 123 434 1748 0
-251 114 -282 1749 0
378 342 -372 1750 0
29 -289 58 1751 0
-215 425 -299 1752 0
-17 337 -391 1753 0
192 20 464 1754 0
-272 -374 -69 1755 0
5 -380 321 1756 0
-58 -469 485 1757 0
35 437 443 1758 0
239 -489 145 1759 0
155 -181 -393 1760 0
282 345 271 1761 0
500 -331 -405 1762 0
-64 433 111 1763 0
-427 -70 491 1764 0
-63 -101 -442 1765 0
467 210 84 1766 0
-16 165 -2 1767 0
-43 -5 -363 1768 0
265 -253 -432 1769 0
343 -139 25 1770 0
-110 48 -61 1771 0
164 -56 -48 1772 0
-323 360 -431 1773 0
356 161 355 1774 0
392 199 393 1775 0
294 -108 -278 1776 0
-118 435 358 1777 0
459 -356 -166 1778 0
-36 290 76 1779 0
-426 319 -264 1780 0
305 -167 322 1781 0
441 -377 380 1782 0
234 -8 312 1783 0
-243 -377 432 1784 0
399 -500 37 1785 0
272 -216 -456 1786 0
-255 372 -25 1787 0
-247 236 -94 1788 0
59 -2 231 1789 0
-249 -334 -359 1790 0
396 -279 57 1791 0
-286 392 -171 1792 0
-150 363 442 1793 0
126 188 -23 1794 0
490 419 248 1795 0
447 -189 352 1796 0
-154 407 210 1797 0
205 -73 428 1798 0
450 -304 74 1799 0
-356 10 -461 1800 0
-437 -205 109 1801 0
34 341 -299 1802 0
-281 291 15 1803 0
390 -19 -397 1804 0
-335 -70 20 1805 0
-469 354 361 1806 0
424 -181 127 1807 0
-199 -164 -180 1808 0
85 482 95 1809 0
179 139 -215 1810 0
492 -130 115 1811 0
452 47 336 1812 0
-483 178 260 1813 0
249 251 320 1814 0
-37 487 -115 1815 0
-25 212 -465 1816 0
-388 375 -248 1817 0
-161 -409 447 1818 0
85 -250 -164 1819 0
299 386 -432 1820 0
157 83 371 1821 0
-9 99 266 1822 0
-186 -341 248 1823 0
152 414 215 1824 0
-230 285 -367 1825 0
-48 250 363 1826 0
339 -193 -43 1827 0
-42 178 -120 1828 0
91 378 -240 1829 0
376 216 498 1830 0
-157 89 -21 1831 0
-158 -432 309 1832 0
153 -230 -249 1833 0
-29 -95 262 1834 0
215 -335 436 1835 0
-281 -392 181 1836 0
332 204 -224 1837 0
492 -470 -135 1838 0
269 221 495 1839 0
9 -50 288 1840 0
-426 317 -301 1841 0
-13 492 378 1842 0
299 349 352 1843 0
240 -405 -127 1844 0
256 -500 425 1845 0
427 8 314 1846 0
220 -336 239 1847 0
-87 -152 -209 1848 0
-93 178 175 1849 0
272 341 60 1850 0
198 101 -315 1851 0
288 94 239 1852 0
-196 413 -404 1853 0
-176 -437 -226 1854 0
489 293 12 1855 0
305 -461 121 1856 0
58 303 271 1857 0
153 -46 -55 1858 0
-314 -394 -495 1859 0
-352 -331 88 1860 0
296 322 66 1861 0
-414 7 -146 1862 0
-500 143 29 1863 0
-32 -284 109 1864 0
-263 37 252 1865 0
-405 471 112 1866 0
101 -474 108 1867 0
-160 170 -500 1868 0
331 173 -466 1869 0
307 466 147 1870 0
465 493 205 1871 0
362 -80 287 1872 0
-13 -5 -355 1873 0
-45 -348 263 1874 0
24 -378 133 1875 0
-273 169 -38 1876 0
312 10 89 1877 0
-474 168 359 1878 0
286 -474 -98 1879 0
13 147 -43 1880 0
-39 358 -22 1881 0
-172 209 443 1882 0
482 -443 222 1883 0
236 -84 136 1884 0
88 375 473 1885 0
220 385 -333 1886 0
252 77 -334 1887 0
-494 -160 -261 1888 0
297 -96 -388 1889 0
111 -195 -351 1890 0
-285 269 -342 1891 0
46 -338 -297 1892 0
-184 -436 4 1893 0
33 130 326 1894 0
360 332 -329 1895 0
-93 -422 442 1896 0
304 398 -142 1897 0
-265 -94 123 1898 0
43 -445 149 1899 0
21 -40 341 1900 0
432 418 218 1901 0
398 -282 -226 1902 0
181 139 243 1903 0
49 -120 -248 1904 0
-338 336 101 1905 0
-37 235 248 1906 0
42 -445 -414 1907 0
-372 -297 -366 1908 0
44 147 -149 1909 0
287 -5 29 1910 0
307 432 408 1911 0
82 -72 -164 1912 0
-91 -86 215 1913 0
-235 331 -311 1914 0
330 203 418 1915 0
-461 -146 237 1916 0
-236 -267 -332 1917 0
123 31 473 1918 0
-235 216 308 1919 0
-463 -267 372 1920 0
32 397 181 1921 0
-72 -366 386 1922 0
-220 108 -258 1923 0
348 365 332 1924 0
441 -481 293 1925 0
300 448 98 1926 0
438 -137 491 1927 0
-383 364 245 1928 0
448 -480 408 1929 0
-185 257 199 1930 0
413 -72 69 1931 0
424 316 181 1932 0
187 321 401 1933 0
-428 -439 -381 1934 0
102 -43 429 1935 0
-188 -423 -82 1936 0
-403 173 -484 1937 0
-177 271 -153 1938 0
274 -194 251 1939 0
184 404 -317 1940 0
359 -208 198 1941 0
97 499 210 1942 0
-256 -60 -234 1943 0
-242 88 478 1944 0
-101 -496 -305 1945 0
203 -246 312 1946 0
43 -313 -10 1947 0
-146 -176 -213 1948 0
266 -31 -185 1949 0
487 -363 -102 1950 0
470 -220 -95 1951 0
-96 99 -446 1952 0
186 71 -313 1953 0
-106 -416 -316 1954 0
173 70 136 1955 0
247 293 498 1956 0
251 -65 61 1957 0
350 -496 -152 1958 0
-291 -401 -475 1959 0
-323 265 244 1960 0
-84 -388 -162 1961 0
-303 -226 78 1962 0
474 90 -189 1963 0
319 251 461 1964 0
262 -351 -367 1965 0
-185 -458 478 1966 0
199 212 -428 1967 0
487 91 -278 1968 0
490 -141 182 1969 0
393 300 -491 1970 0
335 325 -153 1971 0
-424 395 14 1972 0
-391 178 315 1973 0
411 236 400 1974 0
-273 -470 -468 1975 0
177 -435 260 1976 0
-195 -472 382 1977 0
402 42 -147 1978 0
197 -140 -323 1979 0
-155 154 -336 1980 0
181 364 -16 1981 0
83 -494 347 1982 0
325 -344 -2 1983 0
-97 199 -170 1984 0
-396 472 462 1985 0
-444 316 -332 1986 0
90 450 -409 1987 0
312 323 456 1988 0
240 -78 447 1989 0
51 -227 218 1990 0
425 177 182 1991 0
-22 428 262 1992 0
6 467 -130 1993 0
-23 -98 -144 1994 0
371 -480 266 1995 0
-350 170 -418 1996 0
-17 272 -114 1997 0
289 4 -66 1998 0
-268 -419 157 1999 0
-393 135 326 2000 0
406 -72 364 2001 0
223 237 156 2002 0
-321 184 382 2003 0
-388 265 -296 2004 0
-383 49 -430 2005 0
58 -296 -353 2006 0
-415 293 -481 2007 0
-63 306 74 2008 0
-274 190 410 2009 0
-323 359 117 2010 0
-428 63 -140 2011 0
10 68 137 2012 0
475 321 -117 2013 0
-183 126 -286 2014 0
-291 -155 -10 2015 0
-126 26 -459 2016 0
-225 41 59 2017 0
-380 307 213 2018 0
81 -12 397 2019 0
-80 220 -71 2020 0
-26 432 -265 2021 0
-99 -157 5 2022 0
129 -248 310 2023 0
309 61 336 2024 0
-452 388 302 2025 0
-371 -274 74 2026 0
371 -174 -337 2027 0
-100 -246 128 2028 0
-307 95 291 2029 0
-285 51 34 2030 0
3 100 443 2031 0
386 183 -146 2032 0
67 302 -94 2033 0
295 63 -59 2034 0
323 285 468 2035 0
388 134 285 2036 0
50 343 -351 2037 0
425 -271 -205 2038 0
-344 -103 317 2039 0
-364 -56 -394 2040 0
-261 72 -265 2041 0
-255 471 -383 2042 0
137 -386 495 2043 0
-365 -9 -334 2044 0
86 356 -55 2045 0
432 487 -374 2046 0
-120 216 -314 2047 0
402 457 -420 2048 0
-103 -439 229 2049 0
428 -74 26 2050 0
-63 61 113 2051 0
-191 160 227 2052 0
480 86 229 2053 0
-290 185 -399 2054 0
96 -55 -328 2055 0
196 -42 93 2056 0
-432 -226 -227 2057 0
-268 320 50 2058 0
-26 -188 -222 2059 0
-104 -336 -407 2060 0
382 123 -226 2061 0
-438 55 370 2062 0
318 306 412 2063 0
286 -315 -82 2064 0
329 -21 -79 2065 0
-4 -305 -210 2066 0
200 316 164 2067 0
-318 -293 -310 2068 0
493 -118 362 2069 0
42 -89 -146 2070 0
-204 -493 -181 2071 0
-31 25 -74 2072 0
-253 405 158 2073 0
-169 313 -317 2074 0
206 147 115 2075 0
-468 473 111 2076 0
-126 -185 -421 2077 0
-387 -461 293 2078 0
72 347 -90 2079 0
147 411 355 2080 0
-304 320 164 2081 0
-165 -248 204 2082 0
369 94 -126 2083 0
-264 494 -16 2084 0
342 7 -25 2085 0
-336 309 37 2086 0
487 287 266 2087 0
-328 235 -390 2088 0
-7 -168 -234 2089 0
61 -54 467 2090 0
-330 -10 -457 2091 0
469 -310 246 2092 0
255 240 334 2093 0
359 61 -310 2094 0
171 -233 -277 2095 0
112 336 -285 2096 0
-256 -483 -417 2097 0
-93 -475 -7 2098 0
-219 101 -389 2099 0
-432 324 423 2100 0
-299 -270 184 2101 0
-87 -214 216 2102 0
64 18 -476 2103 0
-301 -1 -348 2104 0
9 -386 -12 2105 0
-498 -19 -438 2106 0
-237 -142 -150 2107 0
121 276 430 2108 0
-300 60 -473 2109 0
89 -201 80 2110 0
-361 -158 213 2111 0
-263 -150 -27 2112 0
83 -18 221 2113 0
-429 -294 462 2114 0
-292 -69 80 2115 0
237 -379 -195 2116 0
-362 313 -292 2117 0
342 -33 241 2118 0
40 -96 -411 2119 0
457 -223 -385 2120 0
-251 283 -402 2121 0
454 118 257 2122 0
-281 90 494 2123 0
28 458 -473 2124 0
-241 -256 73 2125 0
-263 -486 475 2126 0
-240 439 108 2127 0
35 -439 -159 2128 0
342 -464 95 2129 0
-497 -176 -15 2130 0
-63 -20 422 2131 0
-245 171 -273 2132 0
306 235 -493 2133 0
50 407 -500 2134 0
304 270 -356 2135 0
-83 447 131 2136 0
133 -310 -363 2137 0
-290 443 -478 2138 0
438 312 -248 2139 0
-33 427 478 2140 0
-71 168 -500 2141 0
-420 205 97 2142 0
404 235 -51 2143 0
478 7 -425 2144 0
366 -154 348 2145 0
363 -5 11 2146 0
350 -460 223 2147 0
-172 229 -352 2148 0
-113 -291 481 2149 0
114 -456 -461 2150 0
-359 -160 496 2151 0
244 484 465 2152 0
447 331 -286 2153 0
-500 317 37 2154 0
150 -295 -429 2155 0
6 289 233 2156 0
483 138 -168 2157 0
404 178 148 2158 0
57 -306 -150 2159 0
-324 -121 486 2160 0
431 5 -411 2161 0
452 -18 -286 2162 0
-418 260 -492 2163 0
-71 219 -369 2164 0
-304 477 116 2165 0
349 494 -466 2166 0
494 -80 473 2167 0
497 417 420 2168 0
46 203 -409 2169 0
-71 125 -326 2170 0
-141 222 42 2171 0
481 -218 -361 2172 0
-61 246 250 2173 0
-357 441 -32 2174 0
-60 205 101 2175 0
-129 26 -399 2176 0
233 -176 313 2177 0
450 -56 -395 2178 0
-106 -446 249 2179 0
347 500 -424 2180 0
-48 436 -377 2181 0
166 -7 469 2182 0
-378 62 185 2183 0
-37 225 -190 2184 0
18 -117 444 2185 0
293 455 356 2186 0
-121 -162 -369 2187 0
176 61 -145 2188 0
-432 153 -3 2189 0
-53 70 -187 2190 0
-60 5 236 2191 0
497 -135 178 2192 0
334 171 -162 2193 0
-333 -207 284 2194 0
-264 -22 82 2195 0
-154 201 219 2196 0
145 -225 266 2197 0
79 173 -414 2198 0
-89 -36 -73 2199 0
-405 -252 496 2200 0
500 -178 -305 2201 0
-431 15 394 2202 0
402 381 424 2203 0
-204 -15 57 2204 0
481 -353 192 2205 0
-5 150 -242 2206 0
-399 123 -199 2207 0
-421 -218 223 2208 0
-305 385 484 2209 0
271 -406 -51 2210 0
437 -147 397 2211 0
324 -260 170 2212 0
66 291 -34 2213 0
196 96 -420 2214 0
54 -487 449 2215 0
180 -210 -54 2216 0
282 486 -190 2217 0
278 55 -222 2218 0
-478 141 181 2219 0
-254 -268 -449 2220 0
-130 -102 -48 2221 0
-377 320 157 2222 0
-328 -91 -73 2223 0
-324 -170 227 2224 0
97 226 -347 2225 0
269 -455 -200 2226 0
-88 -192 -414 2227 0
-224 -422 407 2228 0
110 -270 156 2229 0
-231 -380 -297 2230 0
-25 368 247 2231 0
-360 -144 220 2232 0
-259 -109 -57 2233 0
-183 -297 71 2234 0
287 59 -255 2235 0
278 -83 -445 2236 0
-409 -68 205 2237 0
121 -83 124 2238 0
424 -414 11 2239 0
167 -312 -258 2240 0
-283 -123 -413 2241 0
464 226 -15 2242 0
317 -500 -240 2243 0
481 -379 468 2244 0
264 -55 113 2245 0
-176 -66 -116 2246 0
-5 227 324 2247 0
-459 392 47 2248 0
218 135 -16 2249 0
-313 229 114 2250 0
-434 461 -420 2251 0
219 359 267 2252 0
381 -253 165 2253 0
-421 83 -483 2254 0
-351 -480 -61 2255 0
85 -244 -381 2256 0
-217 -248 -345 2257 0
339 -123 -229 2258 0
193 -478 -320 2259 0
423 119 -63 2260 0
461 -38 277 2261 0
213 199 -302 2262 0
-263 -457 242 2263 0
-289 165 -174 2264 0
441 77 -443 2265 0
-497 79 -56 2266 0
-323 388 54 2267 0
-354 -96 135 2268 0
-418 -457 -430 2269 0
17 -11 -420 2270 0
-125 -365 347 2271 0
19 124 228 2272 0
306 -469 -254 2273 0
110 -205 335 2274 0
-345 -137 -271 2275 0
52 335 98 2276 0
-92 232 -458 2277 0
15 117 -345 2278 0
-478 -108 287 2279 0
86 -295 -5 2280 0
276 -144 39 2281 0
-426 232 -160 2282 0
295 95 396 2283 0
201 391 -135 2284 0
480 169 84 2285 0
-150 363 369 2286 0
-62 408 -438 2287 0
-36 178 -91 2288 0
302 -392 214 2289 0
273 -213 -497 2290 0
-77 134 50 2291 0
391 255 325 2292 0
380 271 340 2293 0
-324 -260 -427 2294 0
-107 -97 39 2295 0
421 -219 254 2296 0
-103 -185 -1 2297 0
478 -484 -334 2298 0
-382 249 -33 2299 0
321 466 61 2300 0
395 307 114 2301 0
81 -201 28 2302 0
-83 -79 -219 2303 0
-417 -209 438 2304 0
-458 -321 273 2305 0
-221 -115 497 2306 0
-23 138 89 2307 0
-346 438 -219 2308 0
-162 -472 -22 2309 0
284 -104 -242 2310 0
288 -282 391 2311 0
-59 -365 284 2312 0
479 164 -268 2313 0
-314 368 -371 2314 0
78 -115 305 2315 0
-126 131 99 2316 0
436 -311 -277 2317 0
-350 447 61 2318 0
-304 -217 494 2319 0
441 -109 439 2320 0
-176 215 -365 2321 0
113 281 -27 2322 0
251 86 238 2323 0
350 257 344 2324 0
-313 17 182 2325 0
304 -319 -426 2326 0
-338 -450 369 2327 0
-32 -48 -483 2328 0
156 -330 -395 2329 0
115 -480 -73 2330 0
-383 -317 489 2331 0
-403 21 -49 2332 0
-449 355 388 2333 0
-307 -363 469 2334 0
399 -185 -176 2335 0
-336 -102 -215 2336 0
393 -467 -83 2337 0
-210 -427 -155 2338 0
-299 -211 -262 2339 0
142 -414 -103 2340 0
-383 -93 -253 2341 0
-437 377 288 2342 0
126 -279 475 2343 0
98 -119 -493 2344 0
-107 -429 324 2345 0
272 263 129 2346 0
-25 -380 -359 2347 0
-274 -64 -321 2348 0
-469 -303 -139 2349 0
-23 155 232 2350 0
326 28 -132 2351 0
-328 84 -160 2352 0
-463 -36 447 2353 0
-302 144 434 2354 0
-464 441 272 2355 0
-262 346 -454 2356 0
132 -445 -114 2357 0
226 251 -120 2358 0
-133 -57 -96 2359 0
297 -14 278 2360 0
436 127 -242 2361 0
288 -102 177 2362 0
333 -112 -96 2363 0
-371 237 149 2364 0
231 492 469 2365 0
20 -92 88 2366 0
-480 -211 257 2367 0
269 156 -37 2368 0
-315 468 308 2369 0
473 6 -100 2370 0
-463 314 161 2371 0
-315 11 195 2372 0
-190 -319 -375 2373 0
239 72 -70 2374 0
-489 356 -375 2375 0
92 485 203 2376 0
-36 -241 -410 2377 0
321 -14 -34 2378 0
-74 -94 -431 2379 0
-248 -59 -262 2380 0
428 134 -275 2381 0
-207 461 -407 2382 0
267 432 382 2383 0
85 96 -278 2384 0
165 441 110 2385 0
-138 269 -237 2386 0
40 227 -295 2387 0
406 61 -495 2388 0
-252 50 -167 2389 0
170 304 155 2390 0
92 -410 496 2391 0
437 159 489 2392 0
-235 439 421 2393 0
84 261 69 2394 0
-105 -16 -244 2395 0
-294 -476 -407 2396 0
340 -425 -133 2397 0
-408 -195 208 2398 0
480 -430 139 2399 0
31 -405 263 2400 0
-312 -24 258 2401 0
-166 124 -142 2402 0
403 -332 -500 2403 0
317 -411 -404 2404 0
365 486 -242 2405 0
91 -464 -317 2406 0
378 -146 205 2407 0
275 -59 325 2408 0
29 -245 -109 2409 0
-234 61 149 2410 0
-395 -426 159 2411 0
-318 -11 -406 2412 0
283 490 440 2413 0
-364 221 -317 2414 0
442 -229 -143 2415 0
232 -36 -292 2416 0
113 -187 -231 2417 0
491 278 -290 2418 0
-24 172 176 2419 0
390 67 283 2420 0
318 -204 500 2421 0
177 157 -301 2422 0
265 -266 -274 2423 0
426 -12 442 2424 0
-388 44 173 2425 0
-81 -44 -123 2426 0
-339 -277 -476 2427 0
106 332 -165 2428 0
413 -83 384 2429 0
-255 -467 497 2430 0
244 195 213 2431 0
154 -388 357 2432 0
116 -228 323 2433 0
499 -492 -10 2434 0
-437 -379 -399 2435 0
183 -22 -134 2436 0
-204 391 253 2437 0
-252 139 -424 2438 0
430 413 -70 2439 0
27 355 353 2440 0
-465 28 69 2441 0
-474 287 249 2442 0
-258 -319 186 2443 0
69 -220 211 2444 0
-43 -33 500 2445 0
155 -75 -136 2446 0
-319 268 -58 2447 0
-382 113 100 2448 0
85 -225 -491 2449 0
127 -49 -36 2450 0
-406 -449 370 2451 0
-294 -320 234 2452 0
-347 -286 -392 2453 0
-114 -298 -281 2454 0
-17 -493 -423 2455 0
113 -8 154 2456 0
-451 143 -254 2457 0
369 419 -350 2458 0
436 309 -317 2459 0
-85 116 407 2460 0
-300 28 274 2461 0
486 448 -254 2462 0
424 -405 -184 2463 0
-247 -327 -334 2464 0
112 416 -159 2465 0
-98 -47 76 2466 0
-172 -389 426 2467 0
252 -34 268 2468 0
-236 -376 351 2469 0
-414 42 -413 2470 0
483 -301 -430 2471 0
-491 -118 24 2472 0
-417 -22 -180 2473 0
405 -446 -227 2474 0
218 292 -41 2475 0
-272 -37 -394 2476 0
14 -235 -148 2477 0
-427 405 -104 2478 0
141 -173 162 2479 0
37 91 -391 2480 0
276 -60 -42 2481 0
-299 207 92 2482 0
13 215 445 2483 0
-285 -271 279 2484 0
-207 -182 19 2485 0
-345 317 -396 2486 0
172 -416 13 2487 0
457 415 -447 2488 0
-84 5 175 2489 0
-466 -484 346 2490 0
-108 -172 64 2491 0
438 -388 7 2492 0
417 269 -62 2493 0
252 -26 228 2494 0
-111 487 10 2495 0
-48 84 -132 2496 0
176 77 -9 2497 0
-495 330 -497 2498 0
331 262 171 2499 0
441 130 -193 2500 0
-71 -203 -109 2501 0
424 -130 -458 2502 0
-278 394 449 2503 0
248 -461 -83 2504 0
-355 -449 7 2505 0
231 -445 463 2506 0
5 123 83 2507 0
298 -29 -71 2508 0
-334 83 -473 2509 0
-100 -497 500 2510 0
5 268 300 2511 0
-241 -425 -33 2512 0
495 420 243 2513 0
99 474 289 2514 0
134 -434 -148 2515 0
165 77 -449 2516 0
273 -94 -300 2517 0
-480 367 -103 2518 0
-485 208 310 2519 0
-286 -340 434 2520 0
98 238 96 2521 0
297 317 371 2522 0
-109 -318 113 2523 0
-443 139 -267 2524 0
394 477 88 2525 0
181 477 -101 2526 0
134 -356 125 2527 0
-49 -334 -226 2528 0
-492 -272 160 2529 0
413 -275 -90 2530 0
-376 -438 5 2531 0
340 -46 467 2532 0
-365 236 400 2533 0
204 218 391 2534 0
68 -444 -366 2535 0
-480 -287 204 2536 0
256 -286 417 2537 0
-104 342 427 2538 0
255 201 260 2539 0
431 -163 -496 2540 0
-30 186 21 2541 0
179 -51 -217 2542 0
42 469 -228 2543 0
-173 -232 -148 2544 0
107 174 -79 2545 0
-440 339 -443 2546 0
-234 -35 258 2547 0
252 -194 -234 2548 0
-360 -414 94 2549 0
-215 -320 -162 2550 0
454 -9 400 2551 0
-89 143 76 2552 0
-246 422 254 2553 0
358 474 400 2554 0
130 395 -69 2555 0
339 428 -331 2556 0
195 273 101 2557 0
-299 -494 -418 2558 0
-439 352 157 2559 0
-266 -248 35 2560 0
90 -246 230 2561 0
31 474 -18 2562 0
-368 -427 240 2563 0
-185 443 303 2564 0
275 -487 -240 2565 0
-417 199 190 2566 0
-266 -182 440 2567 0
290 222 -352 2568 0
-4 418 -297 2569 0
213 -309 -303 2570 0
395 -457 -170 2571 0
366 -203 53 2572 0
126 305 364 2573 0
186 -216 206 2574 0
-259 104 -407 2575 0
450 -447 404 2576 0
-447 257 -340 2577 0
225 270 155 2578 0
-187 -231 -343 2579 0
45 -202 131 2580 0
-202 -381 366 2581 0
348 -496 212 2582 0
272 64 -245 2583 0
-150 139 -93 2584 0
132 -208 398 2585 0
-158 -231 -134 2586 0
-278 -122 -206 2587 0
-167 -178 -497 2588 0
246 220 320 2589 0
486 -266 1 2590 0
-382 -241 200 2591 0
-412 -185 -43 2592 0
346 -477 183 2593 0
-177 -87 274 2594 0
-381 -141 82 2595 0
441 -479 92 2596 0
-271 -324 141 2597 0
-4 125 -243 2598 0
383 276 34 2599 0
-194 -467 -152 2600 0
482 -26 -43 2601 0
404 296 371 2602 0
123 187 438 2603 0
79 -458 67 2604 0
-142 -104 -25 2605 0
-176 -408 -472 2606 0
36 83 -222 2607 0
178 -498 394 2608 0
484 -352 -406 2609 0
-282 271 -217 2610 0
299 94 -330 2611 0
451 -166 -66 2612 0
219 29 -285 2613 0
-133 128 -95 2614 0
-37 -263 126 2615 0
-154 1 243 2616 0
471 -449 -446 2617 0
374 -468 -210 2618 0
154 467 -429 2619 0
102 -54 66 2620 0
-149 472 -423 2621 0
252 -185 190 2622 0
-125 -213 117 2623 0
215 237 398 2624 0
-215 376 455 2625 0
122 401 -46 2626 0
-432 -475 -346 2627 0
283 57 60 2628 0
321 -11 -301 2629 0
-425 349 -260 2630 0
236 -372 314 2631 0
117 231 151 2632 0
-34 126 -302 2633 0
-454 -346 -335 2634 0
69 214 426 2635 0
247 -188 193 2636 0
92 -27 -45 2637 0
249 -202 -103 2638 0
-305 -88 -368 2639 0
-387 -375 419 2640 0
-475 -42 -289 2641 0
308 -93 267 2642 0
138 -404 332 2643 0
-16 155 -208 2644 0
-455 365 -89 2645 0
362 311 298 2646 0
-325 -277 404 2647 0
-144 427 312 2648 0
164 -122 451 2649 0
413 401 90 2650 0
