p cnf 2650 2150
308 403 436 501 0
-460 -379 57 502 0
401 113 73 503 0
-119 345 -169 504 0
-179 -234 470 505 0
-231 221 16 506 0
-302 -357 -198 507 0
-154 443 4 508 0
264 301 40 509 0
-323 430 -403 510 0
-331 224 -315 511 0
-495 -329 -308 512 0
-397 181 -350 513 0
407 287 258 514 0
43 52 -178 515 0
-197 428 496 516 0
-454 -40 -90 517 0
459 241 -201 518 0
-43 -452 471 519 0
22 168 110 520 0
88 -104 -448 521 0
464 -242 -410 522 0
67 -389 -466 523 0
23 397 404 524 0
198 -299 -238 525 0
-57 -354 461 526 0
45 -225 329 527 0
347 -96 -73 528 0
-209 347 -419 529 0
-373 55 167 530 0
355 -237 23 531 0
475 -176 -424 532 0
394 23 -477 533 0
-43 -135 112 534 0
-10 311 104 535 0
-33 -309 176 536 0
284 -207 -62 537 0
-328 306 66 538 0
-361 -393 247 539 0
-450 404 -13 540 0
421 212 -417 541 0
-391 -336 -182 542 0
156 293 243 543 0
-229 483 -394 544 0
-109 381 223 545 0
-283 -180 -117 546 0
-431 89 -223 547 0
51 131 237 548 0
-241 -145 479 549 0
-487 425 -66 550 0
-76 -87 -108 551 0
282 -263 379 552 0
211 96 87 553 0
48 236 413 554 0
32 132 51 555 0
-197 -489 404 556 0
124 363 453 557 0
-7 150 61 558 0
496 -299 125 559 0
338 -327 285 560 0
293 420 -5 561 0
-425 -391 292 562 0
491 159 358 563 0
383 -317 399 564 0
-205 325 436 565 0
242 338 -11 566 0
-346 396 -404 567 0
-223 -304 -279 568 0
-207 106 277 569 0
-342 275 344 570 0
465 192 263 571 0
37 -264 -98 572 0
-68 -73 -403 573 0
-348 63 426 574 0
-420 -241 2 575 0
426 -304 208 576 0
-426 -75 286 577 0
222 362 -452 578 0
262 -72 -134 579 0
-128 -79 -215 580 0
148 -251 -152 581 0
-40 -104 398 582 0
28 408 -442 583 0
440 -306 250 584 0
-44 -286 -258 585 0
45 -375 -464 586 0
-360 472 38 587 0
153 -124 -302 588 0
225 -381 249 589 0
-467 -71 34 590 0
239 99 -484 591 0
-261 208 -434 592 0
-119 304 291 593 0
138 -226 -188 594 0
102 -95 -445 595 0
-262 80 -239 596 0
-86 3 481 597 0
-368 -64 414 598 0
-10 -236 -479 599 0
125 -28 82 600 0
260 -133 -476 601 0
-80 -250 -420 602 0
-206 -125 -474 603 0
-226 -452 -52 604 0
-185 486 325 605 0
-326 482 108 606 0
-165 -355 -137 607 0
-403 229 85 608 0
269 -163 -19 609 0
413 306 339 610 0
-181 185 -488 611 0
-27 302 -364 612 0
-486 -273 -444 613 0
363 380 -283 614 0
340 -22 -121 615 0
-129 -225 107 616 0
6 280 -232 617 0
72 -441 4 618 0
-256 493 213 619 0
-280 402 -488 620 0
-219 170 211 621 0
-429 96 49 622 0
211 466 234 623 0
-405 -315 -77 624 0
468 -452 42 625 0
-11 383 168 626 0
409 56 419 627 0
-201 336 -382 628 0
-205 -362 -42 629 0
-471 407 339 630 0
-324 -3 467 631 0
246 -260 174 632 0
-326 478 247 633 0
-17 247 -356 634 0
-27 -50 -195 635 0
376 -63 -436 636 0
-50 330 -421 637 0
-196 43 -321 638 0
459 19 -92 639 0
255 -48 154 640 0
383 -100 165 641 0
-410 -378 434 642 0
97 10 -272 643 0
123 -165 369 644 0
-327 -396 -242 645 0
459 -54 -119 646 0
-6 397 -180 647 0
-16 227 337 648 0
-180 73 -310 649 0
188 15 -144 650 0
-404 158 -329 651 0
-466 483 -289 652 0
-235 -299 -258 653 0
73 343 125 654 0
402 -332 471 655 0
-34 -199 -110 656 0
-33 211 -495 657 0
113 -323 80 658 0
-8 355 -127 659 0
-296 -358 -137 660 0
-100 -452 -497 661 0
58 -142 155 662 0
128 -65 38 663 0
231 357 64 664 0
-29 367 -390 665 0
-379 -266 380 666 0
66 249 156 667 0
-264 472 488 668 0
-51 415 -336 669 0
355 438 -308 670 0
-77 -449 466 671 0
115 -218 -140 672 0
340 42 -303 673 0
372 29 -475 674 0
297 -46 -405 675 0
62 -140 -411 676 0
455 187 -347 677 0
-86 232 -410 678 0
-441 115 -390 679 0
-11 316 495 680 0
-180 -84 -455 681 0
51 -471 -406 682 0
-43 32 -269 683 0
94 122 -254 684 0
-118 345 -430 685 0
492 -202 -160 686 0
359 -28 216 687 0
-454 -59 339 688 0
-470 398 208 689 0
95 45 -114 690 0
-247 243 -357 691 0
382 -251 -455 692 0
100 -236 -447 693 0
-55 93 38 694 0
462 -188 179 695 0
-81 55 96 696 0
54 200 -313 697 0
116 -48 417 698 0
-290 -251 -235 699 0
-491 70 459 700 0
-444 -323 -12 701 0
-158 -73 -395 702 0
-290 -243 -459 703 0
349 -358 -230 704 0
-249 -110 181 705 0
226 -329 260 706 0
349 115 -367 707 0
-74 -21 39 708 0
214 -482 -474 709 0
-151 -132 259 710 0
353 -111 450 711 0
36 -151 -5 712 0
-448 260 281 713 0
-152 296 -29 714 0
-289 481 -436 715 0
135 -104 49 716 0
-293 -179 232 717 0
56 -94 214 718 0
-477 -6 -203 719 0
-275 -162 105 720 0
376 -500 -222 721 0
221 -160 15 722 0
-404 -95 -470 723 0
450 445 320 724 0
-191 -471 319 725 0
148 -395 -428 726 0
314 417 -197 727 0
-330 362 -104 728 0
229 373 139 729 0
-491 268 85 730 0
110 -440 -187 731 0
-438 -82 -345 732 0
-412 -176 -117 733 0
148 -50 354 734 0
-45 378 208 735 0
310 397 392 736 0
254 -8 213 737 0
68 -168 267 738 0
-18 103 -355 739 0
56 -126 -91 740 0
-363 -374 -43 741 0
-56 152 364 742 0
392 -59 -31 743 0
149 -476 183 744 0
-497 -270 381 745 0
141 20 315 746 0
92 -54 22 747 0
-36 -490 -412 748 0
-327 342 -464 749 0
-245 497 489 750 0
164 -165 270 751 0
-115 -4 -245 752 0
65 70 418 753 0
-306 -447 7 754 0
-344 -225 474 755 0
69 223 244 756 0
473 289 294 757 0
100 -188 474 758 0
-379 -409 498 759 0
69 339 146 760 0
-166 63 -93 761 0
394 -37 484 762 0
-180 -30 -105 763 0
-305 303 -346 764 0
-352 203 36 765 0
-13 -174 -169 766 0
-471 -324 -473 767 0
204 -259 362 768 0
136 -27 119 769 0
440 -383 -367 770 0
322 450 -136 771 0
175 210 -244 772 0
401 147 355 773 0
-164 -326 -333 774 0
305 -34 -385 775 0
-51 -156 353 776 0
108 -305 299 777 0
384 308 -287 778 0
-182 -310 117 779 0
-418 -20 295 780 0
-165 -347 -306 781 0
479 112 393 782 0
363 -448 414 783 0
-215 -430 494 784 0
-436 458 434 785 0
-105 -88 270 786 0
-344 55 51 787 0
-490 -208 -290 788 0
387 -193 59 789 0
146 364 -360 790 0
97 427 481 791 0
-147 -261 367 792 0
-167 228 -484 793 0
171 108 -210 794 0
81 235 363 795 0
-312 -2 340 796 0
-184 -64 359 797 0
-6 -222 267 798 0
-395 -238 160 799 0
-175 -250 -21 800 0
-403 316 -400 801 0
-224 -117 287 802 0
382 -236 -75 803 0
-201 279 -168 804 0
428 -485 280 805 0
-430 310 -46 806 0
-301 176 182 807 0
461 -129 187 808 0
-340 -163 6 809 0
383 130 430 810 0
337 -410 266 811 0
-208 303 97 812 0
-462 -419 -369 813 0
64 -16 -393 814 0
-123 -72 -436 815 0
332 148 213 816 0
409 401 -483 817 0
176 1 329 818 0
-493 174 -114 819 0
-30 -43 367 820 0
-14 -42 -26 821 0
277 42 445 822 0
-108 66 -150 823 0
500 438 466 824 0
-303 -412 -494 825 0
-168 128 -258 826 0
-1 -175 -145 827 0
447 467 -174 828 0
-434 -436 90 829 0
425 -351 90 830 0
85 -327 112 831 0
227 -385 370 832 0
-120 -277 -76 833 0
375 -165 -126 834 0
64 -429 68 835 0
-292 -469 394 836 0
26 218 139 837 0
-60 401 70 838 0
397 -99 -495 839 0
-184 -499 -263 840 0
386 -337 66 841 0
-118 415 373 842 0
-385 -433 386 843 0
340 -376 -214 844 0
287 -350 493 845 0
-176 494 -258 846 0
-103 45 205 847 0
-312 116 12 848 0
420 280 -495 849 0
137 124 196 850 0
402 -440 -427 851 0
-231 372 -11 852 0
443 189 99 853 0
-402 460 13 854 0
443 -48 -3 855 0
-218 330 332 856 0
356 -156 464 857 0
-184 -108 -45 858 0
268 160 -376 859 0
391 355 -438 860 0
242 -133 -98 861 0
-301 -177 446 862 0
368 288 476 863 0
-361 -24 -235 864 0
-440 -394 327 865 0
-286 121 -391 866 0
327 495 295 867 0
393 160 307 868 0
-383 338 -380 869 0
306 -408 208 870 0
152 -180 440 871 0
292 224 44 872 0
300 416 -43 873 0
373 -43 490 874 0
-303 345 305 875 0
336 -119 -449 876 0
238 237 -389 877 0
149 402 -170 878 0
318 -292 162 879 0
-411 -133 -216 880 0
-419 21 -316 881 0
90 -355 460 882 0
348 -457 -405 883 0
-221 417 -65 884 0
-6 344 417 885 0
-250 23 -496 886 0
214 -188 142 887 0
-445 416 -124 888 0
-435 -365 417 889 0
-447 -364 -68 890 0
-170 -240 -190 891 0
-139 -48 -333 892 0
-376 26 -49 893 0
368 218 -296 894 0
-492 77 208 895 0
-130 194 301 896 0
62 89 -64 897 0
-415 68 -57 898 0
183 413 268 899 0
-326 -232 364 900 0
-316 54 -110 901 0
-463 -274 -101 902 0
-329 -292 162 903 0
-488 244 350 904 0
94 -73 332 905 0
-240 415 -84 906 0
186 236 422 907 0
-284 417 -499 908 0
237 -215 -74 909 0
61 34 -116 910 0
-113 -349 -301 911 0
-364 -367 1 912 0
207 421 326 913 0
136 131 323 914 0
-239 50 130 915 0
155 177 111 916 0
249 -319 11 917 0
-146 -147 -459 918 0
-78 253 325 919 0
-300 222 -316 920 0
-429 -316 433 921 0
-353 460 477 922 0
127 82 51 923 0
258 276 -171 924 0
438 217 -163 925 0
328 -136 -247 926 0
388 -120 87 927 0
-350 37 142 928 0
33 64 450 929 0
-475 407 74 930 0
-493 129 8 931 0
-308 414 -262 932 0
83 262 -332 933 0
-379 380 340 934 0
-287 -270 -124 935 0
413 -211 -456 936 0
12 -317 -142 937 0
-52 -125 -246 938 0
-2 251 -142 939 0
-436 376 -292 940 0
39 -183 -5 941 0
48 -371 408 942 0
-370 -58 -67 943 0
483 362 369 944 0
104 -438 -14 945 0
1 128 310 946 0
493 355 337 947 0
89 247 184 948 0
485 -105 203 949 0
-86 214 -30 950 0
213 129 -233 951 0
-273 -385 -366 952 0
452 491 -263 953 0
-43 -486 220 954 0
-329 188 -25 955 0
248 -218 378 956 0
-45 100 403 957 0
301 -328 -248 958 0
342 498 -255 959 0
-266 39 -409 960 0
-148 392 -366 961 0
-65 -84 43 962 0
-31 -225 330 963 0
-311 -45 321 964 0
357 -381 -278 965 0
-194 312 196 966 0
350 -397 157 967 0
-278 224 -274 968 0
-80 -232 -147 969 0
-366 80 -397 970 0
376 190 -483 971 0
111 -224 -287 972 0
-89 -466 -166 973 0
-295 -27 118 974 0
485 -443 149 975 0
236 -344 -118 976 0
45 -19 307 977 0
-441 223 -380 978 0
-464 -141 225 979 0
-92 468 -187 980 0
-428 192 363 981 0
-326 197 367 982 0
418 147 -54 983 0
411 32 53 984 0
-252 303 65 985 0
370 279 158 986 0
172 -317 -283 987 0
486 174 -456 988 0
373 -328 354 989 0
250 -410 -334 990 0
-372 -69 -122 991 0
51 80 -383 992 0
166 437 27 993 0
451 13 127 994 0
308 -159 -316 995 0
-238 -208 186 996 0
218 351 6 997 0
-414 -386 -228 998 0
-222 203 -158 999 0
-247 465 381 1000 0
-177 346 219 1001 0
363 433 485 1002 0
73 -51 102 1003 0
-91 194 -427 1004 0
-273 -374 103 1005 0
-371 277 -65 1006 0
-262 -42 -6 1007 0
182 323 -130 1008 0
311 -170 27 1009 0
284 141 117 1010 0
-159 -490 -71 1011 0
-52 -45 401 1012 0
258 217 411 1013 0
470 487 134 1014 0
106 98 -455 1015 0
-418 -312 -137 1016 0
-87 -214 -38 1017 0
-194 303 -116 1018 0
182 164 131 1019 0
438 -215 219 1020 0
129 252 256 1021 0
490 -353 -33 1022 0
302 -392 -450 1023 0
359 -206 -156 1024 0
-432 -382 -12 1025 0
491 88 -11 1026 0
304 377 292 1027 0
238 100 304 1028 0
-361 60 -46 1029 0
164 348 -44 1030 0
-31 -36 139 1031 0
-250 -353 306 1032 0
-160 498 229 1033 0
361 -203 -473 1034 0
-440 -332 190 1035 0
-59 257 293 1036 0
-10 269 21 1037 0
41 136 -47 1038 0
214 -302 -163 1039 0
412 -307 -57 1040 0
473 -377 89 1041 0
20 231 79 1042 0
-238 443 194 1043 0
-447 337 -168 1044 0
-189 -366 -136 1045 0
-411 -95 -220 1046 0
-309 109 148 1047 0
118 -472 -464 1048 0
-151 130 124 1049 0
156 -133 -26 1050 0
-134 361 -320 1051 0
176 -54 371 1052 0
-100 303 -421 1053 0
495 -113 -284 1054 0
117 -198 373 1055 0
-170 162 220 1056 0
-211 85 -352 1057 0
299 204 -372 1058 0
162 279 376 1059 0
-156 450 313 1060 0
-97 410 -113 1061 0
-198 -300 133 1062 0
-90 -162 -267 1063 0
375 259 223 1064 0
202 -489 -248 1065 0
364 -152 -201 1066 0
-435 -466 -338 1067 0
-474 -496 204 1068 0
311 469 300 1069 0
43 471 -71 1070 0
278 -251 262 1071 0
307 -351 221 1072 0
153 -290 94 1073 0
169 432 273 1074 0
59 417 431 1075 0
145 466 -8 1076 0
-129 369 173 1077 0
27 134 372 1078 0
221 39 -258 1079 0
299 -81 197 1080 0
111 -262 20 1081 0
200 96 115 1082 0
-141 -474 -244 1083 0
310 76 425 1084 0
-143 139 73 1085 0
-180 405 -61 1086 0
131 -359 325 1087 0
17 302 61 1088 0
-140 -349 429 1089 0
117 -250 -305 1090 0
-78 27 -282 1091 0
-307 269 -283 1092 0
-97 15 -21 1093 0
-12 -369 160 1094 0
354 209 219 1095 0
153 149 145 1096 0
-178 -187 389 1097 0
-114 -148 -449 1098 0
104 365 -301 1099 0
319 -3 -5 1100 0
-229 161 77 1101 0
2 -386 45 1102 0
412 -295 325 1103 0
336 -28 -146 1104 0
-390 -63 -161 1105 0
390 488 152 1106 0
345 -58 -406 1107 0
401 -13 -466 1108 0
-33 167 157 1109 0
450 -482 299 1110 0
271 -471 455 1111 0
155 24 -319 1112 0
-490 -138 -51 1113 0
-292 -443 405 1114 0
196 -183 -44 1115 0
71 237 -253 1116 0
-124 342 222 1117 0
-326 -392 -327 1118 0
-301 121 207 1119 0
264 133 -464 1120 0
-171 78 220 1121 0
230 -69 399 1122 0
371 269 -203 1123 0
307 -39 275 1124 0
-198 3 -159 1125 0
-58 -364 -239 1126 0
37 9 -288 1127 0
221 257 -312 1128 0
-334 -14 -272 1129 0
-122 -24 275 1130 0
-131 371 240 1131 0
-497 359 -140 1132 0
-329 228 11 1133 0
360 -310 -104 1134 0
167 -196 203 1135 0
212 -401 368 1136 0
89 -66 72 1137 0
63 103 -482 1138 0
324 -2 -234 1139 0
-256 -234 -482 1140 0
-25 172 130 1141 0
-37 163 -100 1142 0
-466 265 119 1143 0
227 -11 -136 1144 0
78 206 182 1145 0
325 -429 -341 1146 0
-332 -52 222 1147 0
371 -169 497 1148 0
85 -492 -180 1149 0
59 454 -482 1150 0
482 -84 -224 1151 0
-353 -205 263 1152 0
38 187 -176 1153 0
214 284 -497 1154 0
104 489 20 1155 0
-276 -273 -124 1156 0
146 -274 273 1157 0
-25 -309 218 1158 0
-297 -114 -450 1159 0
62 -291 -211 1160 0
-342 -360 -366 1161 0
-65 -27 -458 1162 0
88 53 481 1163 0
-440 -120 365 1164 0
-269 150 -483 1165 0
-76 168 432 1166 0
-47 -351 257 1167 0
4 -279 -62 1168 0
-8 -310 5 1169 0
-90 97 26 1170 0
-419 474 -216 1171 0
196 -209 170 1172 0
-107 -213 -194 1173 0
197 301 -155 1174 0
-117 297 -295 1175 0
42 -393 -414 1176 0
-119 317 -382 1177 0
-235 365 -315 1178 0
-488 76 304 1179 0
129 -156 147 1180 0
-381 -203 -124 1181 0
431 485 65 1182 0
-31 -161 -324 1183 0
294 -414 -73 1184 0
143 -463 -55 1185 0
-237 422 143 1186 0
-27 313 -450 1187 0
-172 51 492 1188 0
-356 -148 462 1189 0
-326 105 -268 1190 0
163 -58 2 1191 0
153 401 324 1192 0
353 172 326 1193 0
378 -350 -226 1194 0
330 -454 -294 1195 0
-41 -26 -458 1196 0
396 -231 -190 1197 0
-241 27 154 1198 0
472 279 124 1199 0
49 -278 256 1200 0
-139 -417 -446 1201 0
-70 321 349 1202 0
309 -61 -215 1203 0
-204 421 346 1204 0
406 -388 185 1205 0
-281 -160 -3 1206 0
466 378 -417 1207 0
222 94 106 1208 0
-297 -126 -283 1209 0
437 79 -292 1210 0
-173 319 360 1211 0
100 310 -336 1212 0
-26 -216 -349 1213 0
179 -403 -32 1214 0
-164 12 433 1215 0
-483 299 372 1216 0
312 -103 -112 1217 0
319 -3 119 1218 0
193 36 323 1219 0
201 -326 -377 1220 0
-425 378 -104 1221 0
-422 -380 51 1222 0
-432 360 -77 1223 0
274 97 189 1224 0
-107 326 -196 1225 0
-49 147 253 1226 0
-162 449 173 1227 0
13 -368 360 1228 0
421 224 -400 1229 0
404 -208 34 1230 0
27 378 -165 1231 0
271 444 -378 1232 0
-446 242 234 1233 0
431 -319 -191 1234 0
-422 -166 13 1235 0
400 -129 33 1236 0
-391 205 -21 1237 0
91 423 -240 1238 0
-476 259 304 1239 0
-349 5 -43 1240 0
-311 374 -67 1241 0
-450 -66 391 1242 0
27 -400 50 1243 0
336 -86 39 1244 0
-60 453 131 1245 0
101 302 437 1246 0
439 -111 -24 1247 0
-425 -491 -495 1248 0
-434 499 87 1249 0
337 -127 -252 1250 0
344 -229 -84 1251 0
132 -63 223 1252 0
-370 -47 -41 1253 0
357 243 77 1254 0
-406 -126 361 1255 0
-409 7 19 1256 0
-53 319 -78 1257 0
416 44 -123 1258 0
32 -295 255 1259 0
478 484 -284 1260 0
-268 -429 266 1261 0
-416 22 -356 1262 0
111 -116 276 1263 0
-11 93 -94 1264 0
277 -271 149 1265 0
-438 -423 -76 1266 0
-400 -455 170 1267 0
114 -359 200 1268 0
291 -426 -19 1269 0
-101 -164 -434 1270 0
225 135 105 1271 0
-116 151 464 1272 0
318 155 -116 1273 0
430 181 351 1274 0
374 -344 -431 1275 0
-360 -203 -361 1276 0
146 110 -462 1277 0
337 384 388 1278 0
-34 -47 -173 1279 0
304 95 282 1280 0
357 -319 -282 1281 0
438 275 -328 1282 0
-137 439 -402 1283 0
-468 46 159 1284 0
-294 -383 157 1285 0
304 -64 340 1286 0
217 -201 -258 1287 0
34 320 342 1288 0
249 -54 307 1289 0
237 -280 -377 1290 0
207 32 145 1291 0
-312 -316 106 1292 0
-446 229 -263 1293 0
-401 -341 -196 1294 0
-464 -99 -129 1295 0
-465 -52 364 1296 0
247 193 389 1297 0
435 -212 389 1298 0
322 157 -87 1299 0
-330 -451 405 1300 0
-16 37 31 1301 0
144 345 -272 1302 0
-285 190 -352 1303 0
-188 -183 -402 1304 0
188 238 -335 1305 0
46 -410 273 1306 0
-421 -239 442 1307 0
-365 -429 402 1308 0
294 -181 -348 1309 0
-419 357 384 1310 0
-50 67 479 1311 0
-23 -468 252 1312 0
-86 242 43 1313 0
18 -301 325 1314 0
-36 211 355 1315 0
6 -450 378 1316 0
-87 70 -130 1317 0
277 -108 456 1318 0
459 252 195 1319 0
446 -420 -144 1320 0
-70 137 -119 1321 0
139 402 66 1322 0
-345 357 -339 1323 0
-289 -131 398 1324 0
-270 95 175 1325 0
405 183 150 1326 0
185 201 475 1327 0
-355 -20 -326 1328 0
-58 -288 -2 1329 0
74 -59 214 1330 0
-392 137 388 1331 0
196 358 -239 1332 0
270 95 478 1333 0
-358 -305 -233 1334 0
390 266 448 1335 0
-388 242 177 1336 0
-484 -223 -379 1337 0
384 -84 -391 1338 0
226 -367 -460 1339 0
23 -124 62 1340 0
332 -160 250 1341 0
-43 368 -86 1342 0
-37 434 -249 1343 0
-53 219 227 1344 0
-248 282 413 1345 0
171 216 -158 1346 0
-286 -416 -31 1347 0
273 285 67 1348 0
-129 -248 69 1349 0
-440 -320 456 1350 0
36 -80 281 1351 0
36 476 -173 1352 0
310 288 -249 1353 0
327 -329 330 1354 0
-346 -145 412 1355 0
103 306 -317 1356 0
-157 359 -297 1357 0
240 -104 205 1358 0
-159 -235 -248 1359 0
-34 -452 -425 1360 0
399 -122 -317 1361 0
-432 488 158 1362 0
-371 488 -90 1363 0
-108 96 217 1364 0
-233 290 -18 1365 0
151 368 -408 1366 0
158 -250 -131 1367 0
-134 309 -72 1368 0
-14 224 -68 1369 0
84 -431 375 1370 0
318 -112 -113 1371 0
471 -276 396 1372 0
-469 -234 -184 1373 0
-90 60 -76 1374 0
-119 371 -187 1375 0
423 -102 -59 1376 0
-135 -189 438 1377 0
-377 -8 -16 1378 0
-347 99 43 1379 0
25 -410 -113 1380 0
-448 -275 493 1381 0
-261 423 193 1382 0
421 -499 -431 1383 0
-223 200 -10 1384 0
267 450 -106 1385 0
-136 -377 -218 1386 0
-267 203 126 1387 0
241 -310 -494 1388 0
-87 147 -63 1389 0
-175 186 -47 1390 0
494 14 369 1391 0
63 -472 -464 1392 0
-195 267 391 1393 0
443 156 -308 1394 0
-168 443 -270 1395 0
114 -224 62 1396 0
-420 131 319 1397 0
-26 104 212 1398 0
43 55 46 1399 0
225 356 313 1400 0
-387 -23 -109 1401 0
-425 -105 -354 1402 0
-172 -228 -53 1403 0
18 -24 436 1404 0
-252 161 -29 1405 0
-7 -398 -182 1406 0
434 340 -127 1407 0
474 177 126 1408 0
500 128 -179 1409 0
-447 19 -248 1410 0
276 156 -141 1411 0
87 52 -295 1412 0
-286 -173 422 1413 0
-158 -392 -261 1414 0
101 89 399 1415 0
-426 -119 -97 1416 0
353 207 121 1417 0
481 -313 359 1418 0
7 151 -394 1419 0
361 401 150 1420 0
-280 -208 -121 1421 0
-428 -454 39 1422 0
154 -195 429 1423 0
-76 -158 -166 1424 0
414 -267 -395 1425 0
499 320 417 1426 0
-412 -405 -63 1427 0
-55 70 117 1428 0
-487 -414 125 1429 0
-119 148 -320 1430 0
-494 -469 267 1431 0
285 -98 440 1432 0
145 480 399 1433 0
-476 -175 -290 1434 0
270 -139 334 1435 0
-464 -112 -283 1436 0
-418 190 245 1437 0
41 -467 72 1438 0
467 -29 112 1439 0
-11 102 -8 1440 0
-398 -362 -15 1441 0
-39 -106 58 1442 0
-411 186 -183 1443 0
350 207 -149 1444 0
348 -284 -215 1445 0
-245 -317 224 1446 0
422 235 456 1447 0
439 99 113 1448 0
144 -225 311 1449 0
-269 369 475 1450 0
123 293 182 1451 0
451 -435 -29 1452 0
238 -395 347 1453 0
-94 -66 31 1454 0
138 -433 394 1455 0
450 -109 207 1456 0
-308 383 363 1457 0
421 81 -270 1458 0
-118 460 250 1459 0
-328 190 88 1460 0
60 -85 -94 1461 0
96 -201 210 1462 0
234 458 358 1463 0
-351 260 -264 1464 0
-498 -495 -418 1465 0
250 -428 171 1466 0
240 34 -107 1467 0
-70 -61 -300 1468 0
-299 -211 -127 1469 0
33 -275 -35 1470 0
-281 2 -59 1471 0
-82 357 -308 1472 0
173 414 46 1473 0
355 247 -252 1474 0
-264 214 373 1475 0
-125 -311 340 1476 0
363 -125 201 1477 0
195 -38 -500 1478 0
-28 -241 -380 1479 0
-427 -358 199 1480 0
209 -112 271 1481 0
-262 -315 -243 1482 0
-113 214 415 1483 0
-339 262 105 1484 0
-201 389 228 1485 0
-207 -160 25 1486 0
256 458 -360 1487 0
340 -181 321 1488 0
285 82 187 1489 0
-62 57 -155 1490 0
-84 -499 -296 1491 0
396 -192 340 1492 0
368 499 357 1493 0
-51 202 -112 1494 0
-170 69 237 1495 0
472 -410 290 1496 0
378 480 -17 1497 0
-196 -414 282 1498 0
106 -163 4 1499 0
433 416 -158 1500 0
-276 -68 -44 1501 0
-141 -135 13 1502 0
-371 322 193 1503 0
-446 226 -496 1504 0
-20 119 -261 1505 0
401 443 -476 1506 0
-236 -338 153 1507 0
-271 346 446 1508 0
-278 -258 -338 1509 0
-195 246 -61 1510 0
225 315 -173 1511 0
-76 240 -38 1512 0
311 473 -120 1513 0
-75 297 -30 1514 0
-47 -442 -31 1515 0
-61 -151 131 1516 0
323 180 481 1517 0
66 -328 141 1518 0
497 -324 -320 1519 0
338 -27 318 1520 0
367 193 -135 1521 0
353 138 -392 1522 0
272 -106 75 1523 0
270 324 -52 1524 0
404 26 -402 1525 0
275 74 489 1526 0
-102 341 -71 1527 0
-52 389 377 1528 0
17 -207 408 1529 0
-176 161 -143 1530 0
185 211 117 1531 0
79 -154 186 1532 0
-166 -423 317 1533 0
-16 -226 -57 1534 0
223 436 -410 1535 0
385 159 394 1536 0
330 -95 39 1537 0
136 -196 -85 1538 0
423 -148 206 1539 0
-79 -271 -185 1540 0
38 61 389 1541 0
132 136 -354 1542 0
-62 -424 -443 1543 0
-498 -192 -122 1544 0
412 370 383 1545 0
-181 395 -139 1546 0
341 164 238 1547 0
-187 -131 100 1548 0
-35 441 -369 1549 0
304 117 266 1550 0
76 -187 235 1551 0
369 -4 120 1552 0
-13 238 81 1553 0
-292 -291 -159 1554 0
-404 -25 44 1555 0
262 350 -264 1556 0
347 165 -238 1557 0
36 -405 45 1558 0
-98 -220 152 1559 0
63 360 399 1560 0
459 -449 496 1561 0
432 -207 336 1562 0
165 -385 -185 1563 0
284 460 -153 1564 0
37 6 -239 1565 0
376 329 -226 1566 0
469 -287 61 1567 0
-119 55 -480 1568 0
-10 -270 -116 1569 0
-231 -352 -229 1570 0
-381 -214 194 1571 0
430 447 34 1572 0
140 -445 290 1573 0
-39 -36 -291 1574 0
-128 145 278 1575 0
65 8 -247 1576 0
-80 419 233 1577 0
-406 -244 -18 1578 0
80 19 -40 1579 0
-38 301 -415 1580 0
-206 -444 -249 1581 0
-8 -188 419 1582 0
-369 -50 495 1583 0
-466 -474 -290 1584 0
54 -353 108 1585 0
188 -415 -412 1586 0
-46 477 -422 1587 0
-246 371 229 1588 0
-249 4 -302 1589 0
82 -346 456 1590 0
-61 -187 145 1591 0
-89 202 162 1592 0
-416 -85 224 1593 0
26 312 -311 1594 0
-328 493 -127 1595 0
-374 -118 306 1596 0
-392 -163 263 1597 0
-223 175 203 1598 0
168 486 477 1599 0
139 458 -306 1600 0
-281 248 -337 1601 0
-371 35 -41 1602 0
-15 -407 -281 1603 0
496 -500 272 1604 0
-137 283 -2 1605 0
-499 66 34 1606 0
245 447 -243 1607 0
221 283 137 1608 0
-169 407 282 1609 0
224 2 397 1610 0
9 -63 30 1611 0
360 233 391 1612 0
-381 493 167 1613 0
-116 -107 -39 1614 0
-232 395 280 1615 0
470 245 348 1616 0
421 143 327 1617 0
-95 295 -32 1618 0
23 -211 -7 1619 0
-64 338 86 1620 0
-411 -160 350 1621 0
-498 -247 308 1622 0
445 198 463 1623 0
-63 -11 411 1624 0
-329 306 34 1625 0
267 458 378 1626 0
-468 -122 -44 1627 0
-226 419 377 1628 0
-499 -111 -488 1629 0
288 30 -337 1630 0
93 204 -5 1631 0
93 -151 -366 1632 0
326 -495 -130 1633 0
-213 219 -360 1634 0
375 273 -308 1635 0
-393 67 -170 1636 0
385 -366 443 1637 0
48 -83 417 1638 0
-83 -437 41 1639 0
-409 355 449 1640 0
395 -7 -141 1641 0
-326 -363 143 1642 0
206 322 -293 1643 0
416 -159 318 1644 0
-500 -439 51 1645 0
-260 410 118 1646 0
-245 -70 -278 1647 0
137 465 408 1648 0
28 -374 349 1649 0
89 135 74 1650 0
-112 -417 -59 1651 0
323 30 -410 1652 0
493 -223 -80 1653 0
196 -217 427 1654 0
1 472 -109 1655 0
-325 -102 395 1656 0
-15 -20 -242 1657 0
-486 -230 252 1658 0
278 300 40 1659 0
7 -398 -251 1660 0
67 -42 379 1661 0
-83 -10 -118 1662 0
488 163 416 1663 0
-194 351 328 1664 0
-69 -137 -81 1665 0
423 -260 153 1666 0
348 -310 91 1667 0
-196 144 99 1668 0
340 48 251 1669 0
38 81 49 1670 0
-357 -360 -170 1671 0
163 394 93 1672 0
318 -384 11 1673 0
-165 -276 474 1674 0
-78 -300 204 1675 0
361 299 -476 1676 0
-50 -122 257 1677 0
160 -318 164 1678 0
84 -257 198 1679 0
-210 -99 102 1680 0
-426 -119 -40 1681 0
235 -253 -6 1682 0
-212 -117 -239 1683 0
333 -71 431 1684 0
303 -395 120 1685 0
-91 74 218 1686 0
344 275 248 1687 0
478 -441 -370 1688 0
-57 187 -444 1689 0
-301 -74 208 1690 0
-174 466 -446 1691 0
26 292 -306 1692 0
73 285 -253 1693 0
-393 172 487 1694 0
-146 117 402 1695 0
-46 -276 221 1696 0
462 -401 -42 1697 0
-419 -151 410 1698 0
-19 137 94 1699 0
348 -448 -232 1700 0
34 259 -79 1701 0
212 -163 345 1702 0
14 475 -137 1703 0
-117 350 354 1704 0
-214 -219 -251 1705 0
6 -458 -217 1706 0
82 244 308 1707 0
-117 -205 -427 1708 0
-423 -297 479 1709 0
-209 80 93 1710 0
-307 484 115 1711 0
-75 445 -168 1712 0
-39 382 -248 1713 0
-342 -415 223 1714 0
466 496 225 1715 0
162 278 166 1716 0
-188 364 401 1717 0
-362 123 -70 1718 0
-138 232 46 1719 0
-27 13 202 1720 0
-326 -216 -492 1721 0
-65 274 -471 1722 0
111 265 466 1723 0
-9 95 91 1724 0
232 340 251 1725 0
-275 -377 -113 1726 0
-328 21 -306 1727 0
-135 -500 482 1728 0
80 11 -224 1729 0
-443 -221 -413 1730 0
139 183 -426 1731 0
206 -345 -74 1732 0
308 -353 -223 1733 0
-28 -411 353 1734 0
467 -107 436 1735 0
-450 212 -498 1736 0
-413 230 -216 1737 0
-59 -482 129 1738 0
-303 -141 73 1739 0
97 -234 27 1740 0
187 447 444 1741 0
-106 -22 361 1742 0
-123 -220 -84 1743 0
-364 -434 7 1744 0
-404 344 473 1745 0
270 193 99 1746 0
-189 367 273 1747 0
-323 -267 -31 1748 0
315 333 -78 1749 0
-154 279 248 1750 0
-437 -68 387 1751 0
-346 144 -77 1752 0
-106 272 -58 1753 0
-337 196 260 1754 0
334 44 -370 1755 0
219 59 182 1756 0
-315 -361 -356 1757 0
143 -287 -9 1758 0
357 -279 -384 1759 0
-252 442 -341 1760 0
409 80 270 1761 0
-328 -99 175 1762 0
-86 -485 -57 1763 0
229 187 309 1764 0
-171 227 -118 1765 0
174 -235 -161 1766 0
-391 -107 -445 1767 0
-185 -209 193 1768 0
-199 464 -12 1769 0
376 390 348 1770 0
-132 -189 -448 1771 0
-177 -175 346 1772 0
-317 -42 398 1773 0
388 106 -342 1774 0
-259 -47 391 1775 0
418 385 127 1776 0
37 406 211 1777 0
215 71 242 1778 0
72 -346 73 1779 0
-304 -104 464 1780 0
301 -488 140 1781 0
132 -312 218 1782 0
358 -335 169 1783 0
189 124 70 1784 0
-491 195 385 1785 0
-362 -368 -294 1786 0
-61 -240 106 1787 0
148 318 104 1788 0
362 -301 394 1789 0
458 -33 -99 1790 0
-80 228 443 1791 0
-273 -487 103 1792 0
-143 -474 297 1793 0
239 -415 -490 1794 0
136 286 -259 1795 0
-398 -43 -213 1796 0
104 324 -65 1797 0
294 423 -38 1798 0
-114 160 -432 1799 0
323 -145 -314 1800 0
156 187 -12 1801 0
297 451 -76 1802 0
491 383 -218 1803 0
500 -277 328 1804 0
344 -124 63 1805 0
-365 -493 -483 1806 0
-146 26 -145 1807 0
-303 202 105 1808 0
-180 37 454 1809 0
28 298 -4 1810 0
-200 -242 262 1811 0
457 -493 462 1812 0
475 429 -19 1813 0
-366 -208 -364 1814 0
-1 130 60 1815 0
460 400 111 1816 0
420 274 259 1817 0
-326 11 -228 1818 0
-457 -190 274 1819 0
169 -35 500 1820 0
439 -194 -233 1821 0
-261 166 -450 1822 0
468 327 234 1823 0
160 -47 -132 1824 0
451 136 259 1825 0
6 -87 413 1826 0
143 -302 196 1827 0
-333 -454 255 1828 0
-429 -328 312 1829 0
224 -192 -193 1830 0
-112 456 -325 1831 0
372 454 -102 1832 0
233 -462 -196 1833 0
337 339 178 1834 0
-32 -325 -104 1835 0
-358 -195 32 1836 0
120 380 493 1837 0
-439 497 -113 1838 0
452 127 455 1839 0
318 -353 481 1840 0
-126 -1 -83 1841 0
-440 74 -11 1842 0
-76 239 461 1843 0
212 -106 214 1844 0
-355 -112 -248 1845 0
-404 273 -466 1846 0
461 485 239 1847 0
-413 111 -220 1848 0
453 131 -403 1849 0
-178 -232 -294 1850 0
-372 252 -293 1851 0
-364 -433 52 1852 0
-175 223 112 1853 0
25 -434 343 1854 0
475 -91 139 1855 0
-371 258 485 1856 0
149 -482 374 1857 0
194 -383 236 1858 0
161 -107 -202 1859 0
-478 374 -77 1860 0
-136 -487 -207 1861 0
-8 167 -275 1862 0
-63 -499 82 1863 0
199 -177 -160 1864 0
16 376 -327 1865 0
34 -383 -329 1866 0
-15 -154 -341 1867 0
215 103 -465 1868 0
-462 -3 115 1869 0
55 186 113 1870 0
449 469 -194 1871 0
-308 304 -491 1872 0
-384 -405 -164 1873 0
416 -267 -42 1874 0
-466 -476 51 1875 0
326 280 187 1876 0
-275 59 46 1877 0
72 -468 97 1878 0
47 -51 -359 1879 0
455 292 93 1880 0
412 -118 -422 1881 0
-437 278 -385 1882 0
-193 113 423 1883 0
292 92 168 1884 0
458 -204 -447 1885 0
253 439 184 1886 0
-232 240 -251 1887 0
-242 292 -287 1888 0
-255 -489 73 1889 0
-450 -417 -324 1890 0
217 -414 -468 1891 0
376 -211 -75 1892 0
-425 -118 -38 1893 0
106 477 261 1894 0
331 160 365 1895 0
307 456 449 1896 0
-94 -197 -463 1897 0
-228 308 367 1898 0
207 -91 -119 1899 0
86 -348 484 1900 0
146 -225 34 1901 0
274 76 -347 1902 0
438 -394 144 1903 0
386 -233 359 1904 0
87 -13 412 1905 0
-365 -50 -406 1906 0
439 46 -469 1907 0
22 -427 -356 1908 0
349 470 -216 1909 0
196 227 -42 1910 0
-226 163 -182 1911 0
-286 229 -398 1912 0
-437 -175 384 1913 0
-493 308 -61 1914 0
-400 -440 -14 1915 0
-262 7 -218 1916 0
-461 -373 416 1917 0
42 -29 51 1918 0
-491 115 -452 1919 0
390 179 426 1920 0
294 66 365 1921 0
468 338 217 1922 0
332 219 91 1923 0
298 250 -327 1924 0
-277 -199 -33 1925 0
197 -72 111 1926 0
265 -301 -399 1927 0
69 1 380 1928 0
346 393 88 1929 0
-388 16 158 1930 0
44 -364 456 1931 0
-277 452 42 1932 0
-267 -54 31 1933 0
-114 -232 477 1934 0
36 -85 -57 1935 0
-424 -42 -46 1936 0
215 46 430 1937 0
32 -363 -244 1938 0
372 -491 -452 1939 0
429 97 380 1940 0
-447 -242 -455 1941 0
331 162 497 1942 0
324 -292 142 1943 0
-73 365 428 1944 0
110 -253 -259 1945 0
-430 -103 -230 1946 0
79 33 -397 1947 0
-478 53 -32 1948 0
53 338 -244 1949 0
-292 6 389 1950 0
411 305 270 1951 0
-215 -362 -89 1952 0
-135 -5 -346 1953 0
-179 39 229 1954 0
-494 -325 -3 1955 0
-106 -75 -486 1956 0
51 -82 -115 1957 0
-244 -219 353 1958 0
-373 -434 -145 1959 0
-456 -130 291 1960 0
-486 391 -15 1961 0
-322 -186 -455 1962 0
329 460 486 1963 0
142 -380 196 1964 0
-318 97 -39 1965 0
199 -161 -455 1966 0
-457 45 332 1967 0
154 -347 328 1968 0
210 228 -323 1969 0
390 -172 312 1970 0
-404 131 420 1971 0
248 -342 -446 1972 0
-311 355 -228 1973 0
85 -44 -54 1974 0
279 -460 437 1975 0
-81 235 -414 1976 0
342 12 219 1977 0
-14 -446 15 1978 0
198 102 -36 1979 0
-149 347 -300 1980 0
204 -197 151 1981 0
-498 491 401 1982 0
-499 262 208 1983 0
472 158 -65 1984 0
-402 -90 29 1985 0
213 -400 249 1986 0
-126 -133 207 1987 0
344 -33 93 1988 0
22 -242 -191 1989 0
-107 180 147 1990 0
318 487 -489 1991 0
477 -175 -284 1992 0
-219 229 116 1993 0
-168 -266 71 1994 0
405 411 83 1995 0
-119 179 -169 1996 0
395 30 -451 1997 0
88 1 -165 1998 0
-137 -237 -67 1999 0
265 448 93 2000 0
297 320 -102 2001 0
-325 21 419 2002 0
-276 -244 -324 2003 0
91 -198 -397 2004 0
-121 358 -481 2005 0
-320 59 262 2006 0
93 115 418 2007 0
-132 396 -99 2008 0
277 124 96 2009 0
200 -181 -388 2010 0
-429 -287 488 2011 0
-322 493 381 2012 0
111 298 383 2013 0
-9 181 281 2014 0
159 -162 314 2015 0
343 165 232 2016 0
-430 366 -170 2017 0
-146 308 325 2018 0
475 178 474 2019 0
175 181 -304 2020 0
-323 -327 156 2021 0
-66 -215 185 2022 0
-84 -2 -305 2023 0
380 -31 125 2024 0
-341 -232 -424 2025 0
-322 -203 -354 2026 0
413 -281 -191 2027 0
452 37 216 2028 0
423 -246 -124 2029 0
-152 368 -360 2030 0
46 186 34 2031 0
403 -142 140 2032 0
193 456 76 2033 0
247 -426 -436 2034 0
-205 360 59 2035 0
476 -378 81 2036 0
-203 -359 362 2037 0
379 -426 285 2038 0
174 81 -161 2039 0
-494 -114 -174 2040 0
-459 -276 -345 2041 0
-209 222 -240 2042 0
-141 163 -227 2043 0
494 376 304 2044 0
-362 -198 -443 2045 0
-167 453 -59 2046 0
157 -17 35 2047 0
-403 81 -175 2048 0
276 162 79 2049 0
-242 -5 343 2050 0
493 -222 14 2051 0
-183 119 23 2052 0
31 -358 17 2053 0
-390 -408 422 2054 0
460 -414 206 2055 0
397 -67 -252 2056 0
-289 -240 -189 2057 0
403 -69 -438 2058 0
190 158 -99 2059 0
99 22 -452 2060 0
-115 386 335 2061 0
-409 342 253 2062 0
-238 -297 -111 2063 0
390 -399 -364 2064 0
-15 -39 161 2065 0
-189 -245 419 2066 0
5 249 -399 2067 0
-11 171 -13 2068 0
-291 -368 -373 2069 0
212 355 39 2070 0
365 -186 -221 2071 0
-86 -489 -247 2072 0
-372 195 -183 2073 0
-87 19 -377 2074 0
-15 -220 -426 2075 0
143 218 -306 2076 0
242 295 348 2077 0
186 427 -74 2078 0
-231 -172 242 2079 0
-335 -237 390 2080 0
-173 -304 -294 2081 0
138 -35 -64 2082 0
-362 -488 -50 2083 0
373 385 -109 2084 0
-65 -226 47 2085 0
474 -106 464 2086 0
121 -52 151 2087 0
391 -311 -384 2088 0
-363 278 -266 2089 0
-445 -255 141 2090 0
-352 -152 -286 2091 0
-199 326 -219 2092 0
481 276 -324 2093 0
253 418 98 2094 0
-325 -346 292 2095 0
-202 183 332 2096 0
-5 -364 -68 2097 0
221 -253 229 2098 0
63 275 -84 2099 0
-280 486 -488 2100 0
150 278 152 2101 0
483 405 -132 2102 0
-273 474 465 2103 0
-432 -343 -332 2104 0
-440 394 279 2105 0
-107 -285 45 2106 0
-170 184 -213 2107 0
-363 -214 -113 2108 0
-221 47 269 2109 0
-322 185 -290 2110 0
-357 -381 388 2111 0
-365 442 -187 2112 0
298 403 276 2113 0
-339 -258 261 2114 0
-463 -399 -54 2115 0
411 205 -268 2116 0
-168 133 -311 2117 0
441 -163 209 2118 0
404 117 295 2119 0
213 -332 233 2120 0
369 71 266 2121 0
-108 -274 -204 2122 0
-320 -52 451 2123 0
362 -19 -294 2124 0
115 103 6 2125 0
-172 80 145 2126 0
-382 426 478 2127 0
149 118 -9 2128 0
452 -49 -163 2129 0
355 54 -243 2130 0
324 -177 495 2131 0
113 -11 364 2132 0
407 -94 -27 2133 0
-87 -303 3 2134 0
13 -401 -134 2135 0
355 -216 -468 2136 0
-250 2 -204 2137 0
-39 -20 252 2138 0
379 -362 431 2139 0
244 -10 114 2140 0
470 -112 295 2141 0
-339 230 14 2142 0
120 363 -345 2143 0
-324 458 -130 2144 0
284 -494 435 2145 0
-127 355 15 2146 0
77 306 34 2147 0
79 96 -353 2148 0
116 -35 -306 2149 0
466 -259 429 2150 0
387 -117 -227 2151 0
-356 -297 116 2152 0
82 152 141 2153 0
-96 20 -100 2154 0
-167 233 -79 2155 0
-350 456 -98 2156 0
54 -72 194 2157 0
478 451 38 2158 0
262 140 480 2159 0
-448 190 -24 2160 0
317 -52 -101 2161 0
-446 -321 342 2162 0
86 401 418 2163 0
-483 -131 355 2164 0
-494 -150 -227 2165 0
434 123 -422 2166 0
225 461 -195 2167 0
47 254 371 2168 0
485 -315 354 2169 0
257 -100 -160 2170 0
-462 379 252 2171 0
-403 245 -443 2172 0
-301 119 286 2173 0
117 127 252 2174 0
97 -205 -418 2175 0
496 -168 253 2176 0
105 -13 284 2177 0
-310 128 -379 2178 0
235 -430 347 2179 0
490 136 -174 2180 0
377 -470 -37 2181 0
489 214 113 2182 0
-7 -125 469 2183 0
81 -150 -406 2184 0
457 -90 -295 2185 0
-446 239 -163 2186 0
-465 -196 -426 2187 0
-180 115 140 2188 0
361 -443 292 2189 0
362 -13 -475 2190 0
-256 -127 -487 2191 0
-439 182 -52 2192 0
-285 443 -351 2193 0
-222 -228 -137 2194 0
257 -451 446 2195 0
12 -393 18 2196 0
371 -391 -324 2197 0
249 -255 377 2198 0
495 463 -99 2199 0
-320 -131 8 2200 0
115 130 -413 2201 0
441 364 489 2202 0
-316 -328 -173 2203 0
91 258 267 2204 0
-4 -153 3 2205 0
-260 349 492 2206 0
-159 -181 441 2207 0
-306 -425 154 2208 0
-14 -188 95 2209 0
-293 -5 -63 2210 0
-109 -289 43 2211 0
-264 82 246 2212 0
-154 -120 -304 2213 0
-205 280 133 2214 0
-416 235 313 2215 0
-77 -118 94 2216 0
39 -192 53 2217 0
410 83 -486 2218 0
-492 218 -216 2219 0
-198 374 -335 2220 0
-12 195 299 2221 0
276 169 -15 2222 0
-45 -52 -227 2223 0
196 -50 210 2224 0
26 -444 454 2225 0
164 283 -235 2226 0
-13 239 -43 2227 0
495 112 85 2228 0
-22 -168 -396 2229 0
165 -169 -241 2230 0
-191 265 274 2231 0
-136 287 -88 2232 0
-486 459 -192 2233 0
-226 112 -123 2234 0
-440 124 -312 2235 0
316 227 -29 2236 0
185 -487 97 2237 0
344 78 206 2238 0
332 -297 387 2239 0
446 -418 376 2240 0
-428 -133 64 2241 0
360 390 410 2242 0
343 -347 413 2243 0
-323 400 -76 2244 0
-365 -418 263 2245 0
-92 -30 -236 2246 0
-379 235 48 2247 0
229 -68 -47 2248 0
450 304 -60 2249 0
-338 -137 -262 2250 0
484 473 266 2251 0
-6 -471 11 2252 0
-407 -448 174 2253 0
-145 -11 386 2254 0
-335 -99 -392 2255 0
495 380 -214 2256 0
377 129 -317 2257 0
-47 54 110 2258 0
-409 203 344 2259 0
48 480 327 2260 0
-350 -366 -409 2261 0
414 109 490 2262 0
-377 -14 -186 2263 0
-125 -15 106 2264 0
-306 -453 145 2265 0
483 -394 48 2266 0
492 116 130 2267 0
214 44 15 2268 0
279 -384 267 2269 0
257 -461 -487 2270 0
431 244 495 2271 0
225 -361 -343 2272 0
-145 -79 372 2273 0
-225 302 -437 2274 0
-313 348 -293 2275 0
-428 -314 257 2276 0
359 -271 -99 2277 0
-360 -375 346 2278 0
456 -418 204 2279 0
-444 -98 178 2280 0
485 142 14 2281 0
352 -426 -114 2282 0
-173 264 422 2283 0
-239 70 -99 2284 0
-49 -445 356 2285 0
353 235 187 2286 0
453 -9 -201 2287 0
250 -215 -494 2288 0
333 110 203 2289 0
-327 232 -372 2290 0
500 100 332 2291 0
-154 -342 362 2292 0
-263 -266 -312 2293 0
-107 340 219 2294 0
-294 369 113 2295 0
174 -497 -330 2296 0
-165 -423 56 2297 0
278 328 -107 2298 0
-363 -71 -142 2299 0
-464 49 450 2300 0
4 156 252 2301 0
-173 353 -417 2302 0
-264 82 -44 2303 0
448 -347 171 2304 0
-179 67 44 2305 0
-28 -418 277 2306 0
233 220 -143 2307 0
-21 -116 -324 2308 0
-219 483 69 2309 0
-484 488 -176 2310 0
370 -58 -251 2311 0
-305 -5 178 2312 0
384 -440 364 2313 0
191 166 358 2314 0
131 243 407 2315 0
-341 385 18 2316 0
483 202 411 2317 0
-289 497 -180 2318 0
38 377 36 2319 0
10 -233 430 2320 0
210 324 227 2321 0
-46 384 108 2322 0
359 -384 208 2323 0
83 -12 54 2324 0
-367 -349 -413 2325 0
-468 354 -262 2326 0
207 260 434 2327 0
-388 -396 -35 2328 0
-43 -348 417 2329 0
-415 197 195 2330 0
17 185 -363 2331 0
-254 377 386 2332 0
-69 19 240 2333 0
334 260 -274 2334 0
162 46 -431 2335 0
-62 -431 -466 2336 0
-56 46 -417 2337 0
203 -1 -395 2338 0
248 -381 333 2339 0
-295 -364 447 2340 0
19 -21 -13 2341 0
339 14 -364 2342 0
-329 360 -303 2343 0
500 349 6 2344 0
401 383 59 2345 0
-451 242 -178 2346 0
-54 443 -56 2347 0
205 198 196 2348 0
-409 -200 210 2349 0
-69 386 -20 2350 0
165 127 66 2351 0
103 350 396 2352 0
-11 -475 355 2353 0
347 -425 73 2354 0
145 148 475 2355 0
132 -2 -116 2356 0
-347 188 -452 2357 0
301 105 261 2358 0
-54 -40 259 2359 0
-146 -400 -164 2360 0
143 -102 -389 2361 0
341 125 288 2362 0
-149 375 -242 2363 0
-242 -348 228 2364 0
199 99 -499 2365 0
341 -157 -100 2366 0
-77 -315 -249 2367 0
277 103 280 2368 0
361 429 -181 2369 0
305 406 36 2370 0
446 -332 226 2371 0
-401 426 301 2372 0
267 -358 5 2373 0
-262 -402 -124 2374 0
463 -1 -56 2375 0
61 485 -194 2376 0
35 -61 460 2377 0
295 237 91 2378 0
368 -39 234 2379 0
-419 220 297 2380 0
20 477 -43 2381 0
-202 398 272 2382 0
380 -110 -47 2383 0
171 275 -69 2384 0
-92 313 261 2385 0
-256 16 -500 2386 0
318 196 336 2387 0
480 -134 95 2388 0
-237 244 329 2389 0
-472 233 17 2390 0
-39 -234 3 2391 0
-455 41 334 2392 0
-206 62 -485 2393 0
-109 -227 444 2394 0
301 64 247 2395 0
151 -190 -33 2396 0
337 126 481 2397 0
249 -488 -355 2398 0
-419 181 132 2399 0
400 -327 209 2400 0
-410 -187 -137 2401 0
-192 -497 199 2402 0
281 -302 -443 2403 0
-339 -79 454 2404 0
-43 46 419 2405 0
429 -281 93 2406 0
-125 -117 369 2407 0
-334 247 339 2408 0
172 -437 317 2409 0
-23 224 -185 2410 0
296 -317 320 2411 0
-77 311 -34 2412 0
203 415 199 2413 0
385 -298 -173 2414 0
-133 395 469 2415 0
-3 138 156 2416 0
108 -214 411 2417 0
-42 -321 -493 2418 0
-161 268 10 2419 0
-380 -364 -144 2420 0
-180 -355 -473 2421 0
-85 96 -173 2422 0
-433 480 -57 2423 0
128 420 43 2424 0
210 382 270 2425 0
-373 -154 25 2426 0
-92 -72 75 2427 0
-167 -181 37 2428 0
103 346 471 2429 0
183 341 80 2430 0
-388 -319 -25 2431 0
434 336 -322 2432 0
481 -339 323 2433 0
-444 249 337 2434 0
-227 358 -204 2435 0
-357 40 275 2436 0
-118 483 125 2437 0
144 396 391 2438 0
-104 84 114 2439 0
291 -117 108 2440 0
410 354 -456 2441 0
351 260 206 2442 0
-441 232 376 2443 0
374 -469 -168 2444 0
-250 -126 -481 2445 0
-113 420 -476 2446 0
222 -204 316 2447 0
434 186 185 2448 0
194 -460 -409 2449 0
386 -189 -435 2450 0
-203 278 -395 2451 0
-211 144 336 2452 0
122 -334 107 2453 0
-241 370 303 2454 0
13 228 336 2455 0
-167 -237 175 2456 0
471 49 487 2457 0
281 -368 -314 2458 0
476 -182 55 2459 0
-304 92 146 2460 0
377 -120 -399 2461 0
-78 217 151 2462 0
-447 -121 49 2463 0
410 -166 350 2464 0
97 437 -118 2465 0
-369 379 -13 2466 0
-131 -243 -223 2467 0
-349 287 387 2468 0
-294 252 149 2469 0
290 -34 101 2470 0
193 7 -66 2471 0
-373 454 -426 2472 0
386 156 393 2473 0
356 111 115 2474 0
-126 7 197 2475 0
370 -106 228 2476 0
-79 266 -17 2477 0
462 431 266 2478 0
270 273 -19 2479 0
-228 377 -99 2480 0
142 252 -343 2481 0
-350 376 453 2482 0
-270 -374 -469 2483 0
-151 27 -70 2484 0
258 -163 -43 2485 0
23 -193 463 2486 0
-360 109 30 2487 0
-229 -108 -304 2488 0
-280 -188 -120 2489 0
36 399 -79 2490 0
-449 -385 -21 2491 0
479 361 -47 2492 0
242 -78 411 2493 0
173 -412 -53 2494 0
-451 -336 -398 2495 0
349 463 -254 2496 0
157 -227 -238 2497 0
230 -292 -44 2498 0
391 15 260 2499 0
-190 363 -10 2500 0
-56 -487 276 2501 0
-50 420 325 2502 0
382 -421 -318 2503 0
-434 -373 237 2504 0
484 -432 -266 2505 0
-47 -500 4 2506 0
244 -382 301 2507 0
-293 -371 110 2508 0
394 276 -270 2509 0
-301 -65 -146 2510 0
251 20 325 2511 0
206 242 -74 2512 0
-375 213 -432 2513 0
-235 -271 457 2514 0
-79 486 218 2515 0
-465 232 481 2516 0
-230 168 -236 2517 0
-62 295 -267 2518 0
367 -338 -431 2519 0
211 164 -233 2520 0
60 -24 395 2521 0
297 -124 270 2522 0
-236 386 -411 2523 0
-110 -356 64 2524 0
-300 -202 195 2525 0
-435 63 255 2526 0
-332 473 -168 2527 0
433 -58 43 2528 0
-233 445 482 2529 0
-452 112 -211 2530 0
-12 214 150 2531 0
366 -360 319 2532 0
-260 283 -496 2533 0
74 376 -192 2534 0
-210 -426 168 2535 0
301 460 -264 2536 0
4 199 -353 2537 0
-186 -446 -389 2538 0
-86 -126 -316 2539 0
182 -195 -496 2540 0
-75 188 263 2541 0
-147 87 243 2542 0
374 304 146 2543 0
455 -350 211 2544 0
-128 281 -5 2545 0
217 46 -448 2546 0
-201 -89 383 2547 0
418 47 74 2548 0
140 334 -462 2549 0
287 -52 -385 2550 0
214 -231 38 2551 0
-268 45 -236 2552 0
57 255 186 2553 0
-219 -187 38 2554 0
-164 -261 -8 2555 0
-265 252 221 2556 0
257 -483 -465 2557 0
-325 360 -499 2558 0
303 104 483 2559 0
-272 -378 233 2560 0
-283 -321 -326 2561 0
-161 -413 -305 2562 0
364 -267 -451 2563 0
-205 90 48 2564 0
-89 386 114 2565 0
80 -11 -309 2566 0
-206 116 355 2567 0
6 -47 -173 2568 0
499 221 229 2569 0
-186 -336 244 2570 0
-498 -271 435 2571 0
-191 -59 -418 2572 0
472 446 341 2573 0
438 60 -277 2574 0
205 361 356 2575 0
219 -34 382 2576 0
-357 130 -395 2577 0
17 -418 398 2578 0
70 -43 426 2579 0
402 421 -343 2580 0
-385 481 72 2581 0
325 -207 373 2582 0
475 -394 -451 2583 0
-397 -76 -270 2584 0
290 -80 -306 2585 0
-79 444 -484 2586 0
50 -124 -453 2587 0
-40 498 384 2588 0
139 -237 -495 2589 0
-373 -387 -163 2590 0
282 -475 115 2591 0
489 -356 221 2592 0
-55 395 416 2593 0
-63 -32 240 2594 0
490 -185 -397 2595 0
407 -282 359 2596 0
335 469 -90 2597 0
-245 -217 387 2598 0
483 -152 376 2599 0
28 -283 98 2600 0
-25 33 -366 2601 0
-380 13 -260 2602 0
-483 79 327 2603 0
-487 -407 -340 2604 0
438 42 -424 2605 0
41 94 441 2606 0
-405 -211 -146 2607 0
142 -423 -263 2608 0
-399 -486 444 2609 0
177 -60 407 2610 0
-343 -271 211 2611 0
-28 393 284 2612 0
-456 -350 403 2613 0
278 361 -36 2614 0
486 201 -208 2615 0
246 354 385 2616 0
-181 -342 243 2617 0
466 -2 -491 2618 0
-311 -36 -221 2619 0
394 -373 59 2620 0
350 184 289 2621 0
-114 304 356 2622 0
429 393 280 2623 0
108 128 115 2624 0
-14 391 450 2625 0
405 354 333 2626 0
-406 -358 14 2627 0
63 76 -227 2628 0
414 130 156 2629 0
11 333 426 2630 0
184 -362 97 2631 0
-232 77 -174 2632 0
-12 406 -247 2633 0
34 -239 319 2634 0
-474 -166 -142 2635 0
-262 200 -445 2636 0
-6 -98 83 2637 0
-60 -281 317 2638 0
201 340 -232 2639 0
218 95 -490 2640 0
-187 241 -217 2641 0
337 -55 -325 2642 0
-272 437 236 2643 0
349 -56 -247 2644 0
-154 -79 306 2645 0
-456 -351 -422 2646 0
360 -404 126 2647 0
323 -119 455 2648 0
218 -110 433 2649 0
-259 -403 413 2650 0
