p cnf 2650 2150
-26 -116 367 501 0
279 -156 -371 502 0
-269 -197 76 503 0
-423 438 -261 504 0
267 -80 -246 505 0
-139 -273 -191 506 0
330 -334 497 507 0
-209 -290 -238 508 0
28 366 347 509 0
-166 -267 373 510 0
155 -60 -163 511 0
82 379 456 512 0
188 398 169 513 0
51 260 66 514 0
424 -260 -121 515 0
-483 -323 -423 516 0
-306 55 -237 517 0
-496 70 -206 518 0
339 23 196 519 0
255 -150 -367 520 0
15 -3 75 521 0
10 212 11 522 0
-207 34 274 523 0
13 -192 389 524 0
97 317 -293 525 0
481 212 -456 526 0
257 -420 -259 527 0
-71 -410 -425 528 0
-74 -447 -163 529 0
100 148 119 530 0
-338 -250 -473 531 0
-345 358 -206 532 0
422 -105 469 533 0
368 178 -218 534 0
439 -86 -209 535 0
399 -163 375 536 0
-292 -5 -451 537 0
446 289 -358 538 0
326 224 -470 539 0
-22 149 330 540 0
270 -120 446 541 0
-473 -204 11 542 0
-188 -189 290 543 0
-182 61 341 544 0
450 240 116 545 0
405 483 401 546 0
-354 285 -380 547 0
224 194 81 548 0
357 485 333 549 0
-51 69 -328 550 0
-156 405 409 551 0
226 -209 -73 552 0
-166 -35 72 553 0
-371 374 -268 554 0
-136 -260 469 555 0
395 -30 265 556 0
-441 -140 -87 557 0
-475 -81 -480 558 0
380 165 333 559 0
-305 -88 376 560 0
-307 -337 -341 561 0
375 -344 -276 562 0
414 -352 -33 563 0
-137 277 404 564 0
356 -164 226 565 0
290 475 165 566 0
-299 -190 142 567 0
-40 -414 -83 568 0
169 253 -380 569 0
-339 20 -251 570 0
-438 -37 -200 571 0
312 -251 57 572 0
6 -62 342 573 0
362 -144 -122 574 0
-475 383 145 575 0
-312 417 377 576 0
-342 16 49 577 0
-130 -42 121 578 0
-249 224 -380 579 0
-120 -436 321 580 0
72 -436 -244 581 0
431 -114 -148 582 0
-211 -392 -313 583 0
-328 359 -157 584 0
429 90 -9 585 0
-92 -365 202 586 0
-115 -244 35 587 0
-42 -410 115 588 0
-443 -160 -33 589 0
452 -311 -157 590 0
236 253 415 591 0
-276 45 -241 592 0
-290 471 11 593 0
-480 -212 -8 594 0
-484 90 -369 595 0
-354 -156 319 596 0
-237 -290 463 597 0
494 348 469 598 0
-188 -42 428 599 0
-126 18 -85 600 0
31 -105 319 601 0
-103 129 465 602 0
5 -38 118 603 0
-454 190 229 604 0
89 -27 470 605 0
280 -300 -463 606 0
37 -301 -350 607 0
-32 46 -99 608 0
198 307 119 609 0
71 202 -467 610 0
-447 -422 209 611 0
93 -66 57 612 0
-162 -44 -447 613 0
-136 -208 -228 614 0
459 -424 -152 615 0
-228 -189 -109 616 0
43 -425 323 617 0
-57 -354 -23 618 0
23 294 55 619 0
81 -399 -462 620 0
321 101 -105 621 0
453 -323 -392 622 0
-322 -150 42 623 0
-258 -483 -241 624 0
-62 -37 -40 625 0
267 -324 286 626 0
481 422 -134 627 0
-96 460 -308 628 0
-453 201 36 629 0
-123 -320 319 630 0
-399 471 -255 631 0
322 -446 -469 632 0
357 -387 232 633 0
273 438 280 634 0
-220 404 330 635 0
247 -492 -176 636 0
-42 -38 -394 637 0
165 48 -191 638 0
70 -88 407 639 0
-435 290 65 640 0
484 -50 -255 641 0
452 121 128 642 0
-343 313 266 643 0
400 252 -222 644 0
-152 -472 350 645 0
-487 -450 16 646 0
-35 343 -262 647 0
-390 -206 439 648 0
221 -178 196 649 0
28 236 -85 650 0
-385 -201 215 651 0
-153 256 -446 652 0
-142 69 159 653 0
85 80 -465 654 0
444 -407 79 655 0
432 -301 285 656 0
348 249 -343 657 0
-149 -188 338 658 0
-445 423 440 659 0
240 -98 56 660 0
271 266 306 661 0
-417 -283 -453 662 0
485 165 363 663 0
-479 357 221 664 0
59 -137 435 665 0
-119 -206 -282 666 0
482 -103 179 667 0
-36 -412 -66 668 0
301 -385 -149 669 0
-285 -20 -49 670 0
86 -119 -432 671 0
-178 -331 -453 672 0
272 362 222 673 0
336 156 -273 674 0
141 -214 -241 675 0
-118 93 39 676 0
-61 -29 -335 677 0
-322 446 42 678 0
175 -192 -41 679 0
462 -27 404 680 0
284 -243 402 681 0
-388 -387 483 682 0
-360 -146 306 683 0
-290 447 -327 684 0
-18 470 95 685 0
-310 452 206 686 0
336 -310 197 687 0
224 -261 430 688 0
31 441 109 689 0
-401 -152 -189 690 0
-227 -216 -141 691 0
262 209 18 692 0
259 486 406 693 0
-383 70 -12 694 0
241 -30 -329 695 0
-395 160 445 696 0
-336 -402 269 697 0
-106 -491 -32 698 0
87 169 -172 699 0
-227 196 222 700 0
494 272 -487 701 0
-112 102 462 702 0
99 -426 202 703 0
-275 231 160 704 0
-289 242 -60 705 0
437 -188 -17 706 0
-452 -49 38 707 0
196 -79 -411 708 0
382 -298 -316 709 0
102 346 38 710 0
378 383 274 711 0
-400 -188 112 712 0
17 -242 251 713 0
-191 -251 408 714 0
-209 13 196 715 0
232 -289 402 716 0
-442 -234 292 717 0
154 -481 -445 718 0
-495 360 -50 719 0
-392 -389 -160 720 0
-70 111 319 721 0
-452 72 104 722 0
324 -164 -129 723 0
428 130 -35 724 0
-457 286 442 725 0
97 -437 -405 726 0
119 -150 305 727 0
161 -178 -63 728 0
275 -120 383 729 0
160 -364 -488 730 0
322 -243 -263 731 0
-52 -497 -202 732 0
-434 482 215 733 0
-454 224 -298 734 0
132 -83 401 735 0
-353 -303 -114 736 0
7 100 426 737 0
183 435 305 738 0
361 -317 -190 739 0
403 -92 272 740 0
-365 -386 -28 741 0
2 -403 -439 742 0
123 48 55 743 0
478 126 356 744 0
280 -396 -382 745 0
392 371 167 746 0
162 422 -345 747 0
-457 129 -422 748 0
176 175 396 749 0
-181 415 351 750 0
-120 -434 -14 751 0
51 -159 -16 752 0
76 307 -165 753 0
-445 -354 315 754 0
124 -102 -152 755 0
86 295 493 756 0
472 -290 -189 757 0
-428 158 -129 758 0
-143 217 -117 759 0
-89 257 -409 760 0
-43 -31 488 761 0
-3 -475 133 762 0
463 117 331 763 0
-208 422 182 764 0
287 -330 267 765 0
121 463 -164 766 0
369 432 279 767 0
96 112 288 768 0
132 -388 -384 769 0
483 342 8 770 0
-410 -437 -421 771 0
319 -199 -472 772 0
495 -445 -300 773 0
-305 -129 180 774 0
189 -10 -316 775 0
-158 -268 -420 776 0
-191 -236 -143 777 0
117 251 -461 778 0
432 467 -66 779 0
147 -15 -294 780 0
-417 26 -124 781 0
-36 -342 -403 782 0
420 218 186 783 0
-418 129 77 784 0
-6 -325 338 785 0
-44 -215 238 786 0
388 -387 35 787 0
33 161 -454 788 0
-350 473 -109 789 0
443 -426 498 790 0
-290 342 -88 791 0
398 -63 -194 792 0
465 -91 416 793 0
441 6 210 794 0
201 125 -305 795 0
126 37 393 796 0
252 375 338 797 0
184 83 303 798 0
-298 -449 -193 799 0
-176 -4 180 800 0
336 52 -396 801 0
236 77 202 802 0
364 109 -495 803 0
-4 42 265 804 0
-300 -24 391 805 0
-416 -65 329 806 0
277 187 -163 807 0
229 68 473 808 0
-55 -423 -150 809 0
-300 268 -323 810 0
463 -112 353 811 0
121 -450 -421 812 0
-240 351 4 813 0
314 70 147 814 0
-397 260 -164 815 0
-435 221 -280 816 0
471 208 150 817 0
497 241 -60 818 0
220 -89 -337 819 0
186 -311 -140 820 0
387 401 123 821 0
266 -284 414 822 0
-362 -214 -49 823 0
-59 418 104 824 0
-189 268 103 825 0
299 -387 -192 826 0
-202 -451 -447 827 0
225 -280 -157 828 0
350 -470 -300 829 0
442 115 349 830 0
-441 -261 166 831 0
-78 466 213 832 0
-25 339 367 833 0
-260 -471 410 834 0
-288 242 -225 835 0
-467 -228 -261 836 0
268 165 -158 837 0
452 215 21 838 0
-192 194 422 839 0
417 51 -368 840 0
337 -138 -144 841 0
-389 -186 59 842 0
245 -425 393 843 0
231 -400 71 844 0
316 -438 394 845 0
191 264 -192 846 0
135 -91 -474 847 0
393 460 -434 848 0
41 482 -233 849 0
204 231 -364 850 0
-162 241 136 851 0
250 -453 -216 852 0
-6 485 408 853 0
143 317 -119 854 0
-384 44 -290 855 0
303 -411 -232 856 0
-375 440 -104 857 0
59 -174 -306 858 0
-169 -274 313 859 0
84 -115 -142 860 0
-276 -489 230 861 0
-288 356 248 862 0
-412 122 -320 863 0
323 408 37 864 0
-458 -324 420 865 0
-186 -232 222 866 0
-390 -118 -315 867 0
222 -121 206 868 0
369 67 -158 869 0
-463 257 330 870 0
211 -7 375 871 0
-450 -256 -137 872 0
283 251 475 873 0
-102 -439 -441 874 0
-356 391 200 875 0
270 14 -441 876 0
352 -144 391 877 0
-52 -78 271 878 0
-39 -459 428 879 0
52 231 396 880 0
409 -272 -355 881 0
6 415 -303 882 0
363 168 116 883 0
-362 -404 -361 884 0
31 415 -80 885 0
265 -21 156 886 0
265 -3 77 887 0
-313 470 -267 888 0
60 218 478 889 0
292 378 -374 890 0
-146 65 360 891 0
-378 -173 -289 892 0
-2 330 492 893 0
51 390 -254 894 0
-286 -175 -424 895 0
-452 254 -151 896 0
-16 -401 -238 897 0
245 -277 -198 898 0
-117 -453 -372 899 0
-289 125 -20 900 0
-253 -457 62 901 0
-11 -198 -357 902 0
-237 -140 394 903 0
461 173 -10 904 0
-463 261 -253 905 0
90 407 -28 906 0
-126 108 243 907 0
348 48 -99 908 0
-194 -100 107 909 0
158 -382 -434 910 0
305 179 432 911 0
-54 -202 440 912 0
148 -444 28 913 0
106 -273 -130 914 0
458 -340 468 915 0
-437 264 215 916 0
-243 -244 386 917 0
-373 76 219 918 0
-228 143 -22 919 0
-293 -350 -405 920 0
105 12 39 921 0
108 67 366 922 0
-300 390 18 923 0
-273 -23 -274 924 0
-276 486 49 925 0
169 -160 -144 926 0
-86 260 -13 927 0
-345 208 15 928 0
293 58 487 929 0
-39 394 -423 930 0
-420 -222 24 931 0
495 248 324 932 0
274 224 -128 933 0
-5 147 25 934 0
70 7 -369 935 0
-353 333 310 936 0
252 223 -81 937 0
261 -454 406 938 0
211 -147 -340 939 0
66 62 482 940 0
-228 -92 -181 941 0
278 254 -193 942 0
351 284 162 943 0
411 -90 355 944 0
34 307 -267 945 0
190 -107 -383 946 0
130 -498 423 947 0
-36 -477 -186 948 0
313 187 49 949 0
310 474 12 950 0
453 134 -58 951 0
-270 -419 -360 952 0
479 -461 283 953 0
24 -121 -123 954 0
361 360 -103 955 0
259 379 -359 956 0
-343 -159 100 957 0
-447 -306 102 958 0
-199 -337 110 959 0
-60 452 404 960 0
175 -18 -499 961 0
-94 142 -178 962 0
-393 -263 417 963 0
293 -29 -289 964 0
376 352 -400 965 0
-437 374 334 966 0
-452 327 126 967 0
318 268 452 968 0
414 -66 -121 969 0
481 -335 -109 970 0
95 418 -20 971 0
-127 341 -347 972 0
-282 185 -281 973 0
-179 -219 -353 974 0
-279 221 97 975 0
45 315 -229 976 0
459 -218 153 977 0
-226 -146 -47 978 0
-222 -433 -382 979 0
364 -456 115 980 0
218 -457 -174 981 0
-449 -51 97 982 0
253 -245 -350 983 0
481 20 -170 984 0
382 -15 45 985 0
-430 265 -380 986 0
-243 -112 -93 987 0
314 179 -395 988 0
353 -163 -336 989 0
-212 322 -300 990 0
22 -235 228 991 0
-421 -164 238 992 0
-12 68 -57 993 0
151 -496 -273 994 0
121 415 375 995 0
-449 267 58 996 0
-135 58 414 997 0
-135 -215 -212 998 0
488 296 -100 999 0
-204 331 -499 1000 0
166 -167 408 1001 0
140 -74 406 1002 0
-184 15 12 1003 0
-78 -62 -54 1004 0
137 -282 -58 1005 0
-449 -331 -443 1006 0
416 164 196 1007 0
-400 104 224 1008 0
-484 281 43 1009 0
-145 -346 70 1010 0
-430 -477 -64 1011 0
-56 386 -57 1012 0
-17 -417 -426 1013 0
466 418 -69 1014 0
184 261 143 1015 0
-293 140 -109 1016 0
-413 466 -72 1017 0
-181 -269 327 1018 0
-197 -8 -354 1019 0
396 148 -413 1020 0
-163 496 -429 1021 0
-336 -474 417 1022 0
-117 -456 -227 1023 0
-445 -38 231 1024 0
-164 34 -425 1025 0
188 -479 -70 1026 0
-6 417 451 1027 0
-323 -43 444 1028 0
316 -191 484 1029 0
58 207 -273 1030 0
148 46 439 1031 0
325 326 -254 1032 0
-294 260 427 1033 0
285 -161 -344 1034 0
-352 -176 137 1035 0
-60 335 -455 1036 0
-331 -473 -411 1037 0
-45 -492 38 1038 0
266 -23 -365 1039 0
-297 66 -239 1040 0
497 294 -300 1041 0
471 -389 -327 1042 0
-411 447 -60 1043 0
423 230 -399 1044 0
-404 8 12 1045 0
-356 419 22 1046 0
-334 393 -261 1047 0
-301 -248 -374 1048 0
186 30 -50 1049 0
-315 -172 132 1050 0
-101 196 445 1051 0
81 -254 465 1052 0
385 392 -19 1053 0
-454 449 442 1054 0
25 -497 -105 1055 0
459 323 380 1056 0
338 -409 216 1057 0
217 -198 114 1058 0
47 -356 191 1059 0
-230 427 443 1060 0
-388 52 100 1061 0
311 -58 480 1062 0
370 -347 -149 1063 0
42 -92 -61 1064 0
-279 -55 207 1065 0
383 -333 172 1066 0
-185 -274 -98 1067 0
52 145 -171 1068 0
-306 -180 427 1069 0
-40 -76 127 1070 0
-190 193 185 1071 0
201 235 -77 1072 0
-88 369 475 1073 0
472 431 -187 1074 0
167 30 184 1075 0
117 296 -271 1076 0
-227 246 85 1077 0
-425 -405 -283 1078 0
18 -114 289 1079 0
-87 -132 320 1080 0
178 29 498 1081 0
-219 435 204 1082 0
-343 458 -364 1083 0
102 257 121 1084 0
111 97 223 1085 0
-436 -214 341 1086 0
460 320 52 1087 0
-35 -115 447 1088 0
-404 168 -448 1089 0
-257 435 484 1090 0
12 9 370 1091 0
-29 -427 110 1092 0
80 -255 -277 1093 0
-126 241 -401 1094 0
-260 -387 248 1095 0
354 -327 343 1096 0
70 -376 -4 1097 0
-106 401 -345 1098 0
66 364 244 1099 0
187 -407 -249 1100 0
25 295 -283 1101 0
-138 463 224 1102 0
220 71 151 1103 0
-57 206 -167 1104 0
-495 468 -368 1105 0
-188 201 107 1106 0
-246 395 291 1107 0
-1 83 -107 1108 0
-309 259 -142 1109 0
-84 -494 137 1110 0
335 281 -90 1111 0
-164 231 -13 1112 0
434 -215 485 1113 0
449 -250 -453 1114 0
470 414 -346 1115 0
-342 -406 195 1116 0
307 3 -290 1117 0
42 -365 -107 1118 0
58 455 91 1119 0
344 -283 -141 1120 0
140 -228 181 1121 0
-290 362 -54 1122 0
-97 -371 114 1123 0
-359 78 -481 1124 0
-71 45 417 1125 0
379 439 -365 1126 0
-352 129 193 1127 0
116 75 -88 1128 0
-236 -376 -5 1129 0
314 432 29 1130 0
-26 -228 246 1131 0
-166 -29 -423 1132 0
489 3 -325 1133 0
122 -70 471 1134 0
-264 -189 355 1135 0
384 -487 395 1136 0
499 443 -240 1137 0
-190 -46 170 1138 0
-472 -356 -72 1139 0
31 -201 -470 1140 0
144 322 290 1141 0
-406 380 255 1142 0
-176 79 137 1143 0
173 264 355 1144 0
-432 399 110 1145 0
-190 -228 284 1146 0
-122 205 289 1147 0
-256 -180 471 1148 0
51 -494 -408 1149 0
372 -220 -111 1150 0
150 -220 -362 1151 0
-78 -67 -23 1152 0
-350 -190 127 1153 0
-370 169 184 1154 0
-71 84 160 1155 0
-201 280 -390 1156 0
379 -498 265 1157 0
226 425 461 1158 0
-39 -49 146 1159 0
-492 -329 -372 1160 0
-346 318 267 1161 0
-329 343 -235 1162 0
68 42 459 1163 0
-184 171 -8 1164 0
14 -414 -19 1165 0
-464 181 202 1166 0
-20 -236 -334 1167 0
-133 293 -58 1168 0
-206 -147 -281 1169 0
431 247 -458 1170 0
-28 232 -470 1171 0
-253 22 -77 1172 0
45 -305 -479 1173 0
230 448 -17 1174 0
-277 337 -453 1175 0
124 -375 477 1176 0
-409 -395 477 1177 0
263 279 -352 1178 0
-415 -364 -141 1179 0
479 -62 -159 1180 0
-15 13 126 1181 0
-313 -106 17 1182 0
442 370 45 1183 0
-166 -167 1 1184 0
-250 385 464 1185 0
-209 -364 358 1186 0
272 -416 472 1187 0
151 479 -424 1188 0
470 395 -424 1189 0
420 310 -241 1190 0
-25 462 -115 1191 0
377 458 -460 1192 0
-121 406 323 1193 0
295 -224 -418 1194 0
-392 205 -212 1195 0
-120 -288 -175 1196 0
-476 96 411 1197 0
-376 123 495 1198 0
-54 -88 321 1199 0
287 -275 244 1200 0
-345 -8 317 1201 0
-360 -387 -495 1202 0
482 -208 82 1203 0
-297 -16 377 1204 0
-296 -332 -230 1205 0
371 -39 -15 1206 0
419 290 84 1207 0
211 194 232 1208 0
-266 -215 -350 1209 0
187 124 402 1210 0
-39 314 -19 1211 0
100 332 94 1212 0
309 -393 206 1213 0
-69 341 -160 1214 0
-372 432 -63 1215 0
-219 386 198 1216 0
51 -194 -118 1217 0
-486 266 -428 1218 0
-244 255 467 1219 0
10 -260 133 1220 0
-134 97 -208 1221 0
160 -198 -145 1222 0
389 -352 412 1223 0
-480 396 410 1224 0
427 410 55 1225 0
484 -9 -89 1226 0
324 -281 282 1227 0
-151 -416 182 1228 0
413 34 -303 1229 0
-217 -177 452 1230 0
183 -299 -175 1231 0
418 435 99 1232 0
346 208 -171 1233 0
-73 -435 -196 1234 0
-53 -374 124 1235 0
415 -11 416 1236 0
-343 -326 449 1237 0
-326 357 197 1238 0
-428 451 125 1239 0
359 248 428 1240 0
-119 -167 -264 1241 0
-127 439 -383 1242 0
-283 238 336 1243 0
-248 110 156 1244 0
163 19 -287 1245 0
-292 -420 136 1246 0
-487 -73 280 1247 0
-75 -284 -263 1248 0
-317 277 -465 1249 0
-441 -107 155 1250 0
-308 205 138 1251 0
231 -388 -194 1252 0
-318 -345 497 1253 0
-39 203 82 1254 0
-229 -389 -259 1255 0
434 327 410 1256 0
373 235 420 1257 0
-284 372 452 1258 0
-187 428 -95 1259 0
-197 141 -143 1260 0
166 -377 319 1261 0
-95 70 -58 1262 0
15 398 176 1263 0
469 -152 305 1264 0
-35 -27 -447 1265 0
-113 -371 70 1266 0
229 -277 61 1267 0
119 -491 -385 1268 0
-293 -462 464 1269 0
-348 -45 -233 1270 0
120 -283 -80 1271 0
300 7 203 1272 0
-202 47 -225 1273 0
161 370 304 1274 0
-423 -288 313 1275 0
376 -66 348 1276 0
-418 396 -274 1277 0
308 -115 -14 1278 0
193 67 -406 1279 0
449 -3 127 1280 0
205 254 -147 1281 0
130 -241 -154 1282 0
161 -211 -363 1283 0
388 -500 -154 1284 0
-158 -13 21 1285 0
411 -133 -201 1286 0
-116 -203 438 1287 0
-187 -166 -271 1288 0
-191 126 243 1289 0
-434 127 -395 1290 0
-381 -187 -378 1291 0
-472 488 287 1292 0
-281 468 236 1293 0
-462 -277 -98 1294 0
-336 217 37 1295 0
-341 -450 -12 1296 0
-177 148 444 1297 0
436 -189 -157 1298 0
-367 -164 345 1299 0
-234 -152 -63 1300 0
-177 -102 235 1301 0
199 70 143 1302 0
357 132 -240 1303 0
276 -175 -415 1304 0
81 -316 290 1305 0
-68 -365 -401 1306 0
-225 -258 -88 1307 0
-360 -66 -256 1308 0
-375 -181 -209 1309 0
-105 392 287 1310 0
494 -346 -79 1311 0
-400 -170 -467 1312 0
-376 146 -347 1313 0
-146 -448 392 1314 0
406 -151 -93 1315 0
-210 284 469 1316 0
-81 177 -147 1317 0
477 267 316 1318 0
-86 419 -3 1319 0
-96 -406 261 1320 0
-419 -249 137 1321 0
-254 458 390 1322 0
-474 338 -180 1323 0
432 -215 -233 1324 0
287 54 314 1325 0
85 127 -270 1326 0
-80 182 -369 1327 0
499 68 354 1328 0
-405 131 362 1329 0
-187 -194 -475 1330 0
301 236 -206 1331 0
416 474 -217 1332 0
-361 -38 499 1333 0
26 -223 157 1334 0
417 -147 449 1335 0
223 124 412 1336 0
-106 -19 363 1337 0
485 388 462 1338 0
231 -333 -89 1339 0
-100 67 -335 1340 0
-73 74 -468 1341 0
441 9 -124 1342 0
-344 83 351 1343 0
-66 -252 -323 1344 0
56 135 491 1345 0
-415 -461 -233 1346 0
298 -2 143 1347 0
-262 263 261 1348 0
-307 -429 -457 1349 0
199 -319 485 1350 0
103 14 -219 1351 0
-8 454 303 1352 0
-234 -399 -494 1353 0
-289 -271 -206 1354 0
-53 97 -148 1355 0
-486 371 -196 1356 0
125 479 -146 1357 0
479 330 -20 1358 0
410 304 -257 1359 0
-15 -471 -461 1360 0
336 -208 -230 1361 0
-400 -375 67 1362 0
183 71 -317 1363 0
174 85 414 1364 0
335 -247 -157 1365 0
373 32 349 1366 0
52 -276 257 1367 0
-6 171 448 1368 0
-348 -416 476 1369 0
-386 -184 179 1370 0
259 448 -5 1371 0
-141 71 289 1372 0
157 329 -238 1373 0
490 445 -477 1374 0
-64 -479 -171 1375 0
-356 55 493 1376 0
225 157 -56 1377 0
34 -99 24 1378 0
164 457 462 1379 0
36 -398 333 1380 0
-158 364 212 1381 0
-113 263 -229 1382 0
46 -490 12 1383 0
244 285 -369 1384 0
44 116 305 1385 0
-40 -146 380 1386 0
405 106 -364 1387 0
-168 -126 -117 1388 0
176 442 6 1389 0
-138 -296 293 1390 0
495 -269 102 1391 0
278 -11 165 1392 0
-294 390 -14 1393 0
-34 470 -11 1394 0
-107 22 86 1395 0
381 -148 -112 1396 0
438 135 461 1397 0
282 -491 118 1398 0
-169 -36 -371 1399 0
-370 -211 -161 1400 0
-16 169 -301 1401 0
-192 329 161 1402 0
-40 -200 216 1403 0
227 40 -402 1404 0
138 -96 -246 1405 0
-317 500 -438 1406 0
-204 -74 -302 1407 0
-6 -272 -184 1408 0
133 392 4 1409 0
-125 427 -126 1410 0
-272 449 -269 1411 0
-115 460 89 1412 0
-450 498 -193 1413 0
470 423 -477 1414 0
142 -147 128 1415 0
-389 413 -11 1416 0
-160 -335 -237 1417 0
-323 421 -344 1418 0
-157 -1 -213 1419 0
26 -328 -175 1420 0
-299 -81 217 1421 0
176 -13 374 1422 0
-449 375 209 1423 0
443 -199 203 1424 0
451 108 -142 1425 0
-186 -63 408 1426 0
455 218 100 1427 0
345 132 -296 1428 0
-22 25 -38 1429 0
259 -312 19 1430 0
399 275 87 1431 0
257 -201 324 1432 0
-328 -192 -349 1433 0
38 61 -284 1434 0
247 452 -212 1435 0
449 21 305 1436 0
288 240 -292 1437 0
-312 -211 131 1438 0
152 178 -396 1439 0
115 -33 -24 1440 0
-299 -279 170 1441 0
-477 -384 -254 1442 0
-60 -243 -4 1443 0
40 289 -212 1444 0
-397 57 -461 1445 0
-328 348 441 1446 0
-265 -398 478 1447 0
-345 -449 -281 1448 0
-255 -315 -485 1449 0
-88 -383 271 1450 0
-149 -191 -25 1451 0
-53 58 6 1452 0
116 -319 460 1453 0
387 -381 -432 1454 0
-403 -188 88 1455 0
-344 -22 -317 1456 0
-334 -72 15 1457 0
275 249 -159 1458 0
203 443 -416 1459 0
-3 4 -132 1460 0
-316 -297 -267 1461 0
215 -50 184 1462 0
-448 437 -197 1463 0
246 53 379 1464 0
332 -77 -237 1465 0
-298 380 472 1466 0
-464 -144 106 1467 0
170 -363 -260 1468 0
-59 -226 362 1469 0
11 164 14 1470 0
-210 -496 499 1471 0
147 -275 -90 1472 0
329 -41 -177 1473 0
-463 -303 -53 1474 0
404 -498 -179 1475 0
-491 -435 23 1476 0
-61 465 245 1477 0
240 361 209 1478 0
-440 -308 -188 1479 0
436 -449 -107 1480 0
-437 -238 101 1481 0
9 141 412 1482 0
22 425 -468 1483 0
-163 269 -453 1484 0
-168 -236 450 1485 0
-172 -423 424 1486 0
-137 -195 162 1487 0
459 -464 -335 1488 0
247 -458 -113 1489 0
-471 154 491 1490 0
-456 -10 -373 1491 0
-312 378 -400 1492 0
-274 370 439 1493 0
-161 -291 -349 1494 0
152 318 -198 1495 0
251 -418 500 1496 0
-204 -19 -237 1497 0
-156 -352 -366 1498 0
-473 -288 -120 1499 0
332 -168 29 1500 0
39 260 163 1501 0
231 245 -31 1502 0
92 -421 -19 1503 0
476 -24 111 1504 0
-274 397 -51 1505 0
-247 372 -151 1506 0
486 -481 -292 1507 0
-222 -50 -166 1508 0
-138 -102 322 1509 0
-313 -266 320 1510 0
361 -324 344 1511 0
-497 151 379 1512 0
8 312 -270 1513 0
316 55 157 1514 0
371 156 -334 1515 0
383 79 -10 1516 0
-160 -63 -357 1517 0
97 89 181 1518 0
-245 147 348 1519 0
-408 -239 66 1520 0
-154 451 397 1521 0
194 -204 -171 1522 0
83 203 -98 1523 0
36 132 158 1524 0
435 466 424 1525 0
-149 -365 -336 1526 0
319 -247 288 1527 0
371 499 143 1528 0
-379 -237 -238 1529 0
423 -438 59 1530 0
472 49 -282 1531 0
-235 65 -135 1532 0
172 487 -24 1533 0
151 -428 455 1534 0
477 -250 349 1535 0
-381 89 117 1536 0
-234 -218 -384 1537 0
-163 428 -255 1538 0
301 -15 287 1539 0
-20 -347 -74 1540 0
281 149 116 1541 0
-293 342 421 1542 0
21 83 -219 1543 0
103 55 -54 1544 0
-101 -13 5 1545 0
423 -466 -482 1546 0
-77 185 139 1547 0
423 -242 475 1548 0
215 102 395 1549 0
144 160 418 1550 0
459 449 249 1551 0
-412 411 -153 1552 0
194 -240 -208 1553 0
-370 -408 417 1554 0
211 299 -229 1555 0
407 91 131 1556 0
458 54 95 1557 0
-157 222 401 1558 0
226 -322 290 1559 0
49 40 -461 1560 0
97 365 124 1561 0
-478 460 -76 1562 0
389 314 474 1563 0
-225 496 -236 1564 0
164 -34 -292 1565 0
-32 178 -314 1566 0
226 414 312 1567 0
-183 -52 290 1568 0
281 -334 152 1569 0
95 -159 120 1570 0
179 -280 267 1571 0
-197 308 -259 1572 0
-256 -250 82 1573 0
138 18 326 1574 0
-160 -136 277 1575 0
-6 -250 253 1576 0
432 -231 -229 1577 0
-378 389 359 1578 0
151 -437 84 1579 0
105 4 -69 1580 0
-350 311 305 1581 0
-214 203 -474 1582 0
294 228 269 1583 0
366 -360 155 1584 0
226 397 -443 1585 0
442 -466 -126 1586 0
11 248 -198 1587 0
433 347 454 1588 0
427 -319 -70 1589 0
-99 432 399 1590 0
-458 -433 406 1591 0
-57 386 -237 1592 0
146 177 -404 1593 0
466 138 374 1594 0
219 -283 258 1595 0
250 45 9 1596 0
82 -420 -9 1597 0
-422 121 43 1598 0
54 -52 -308 1599 0
-293 454 354 1600 0
-310 487 341 1601 0
190 237 -341 1602 0
233 32 189 1603 0
289 -433 -109 1604 0
-247 35 419 1605 0
-358 359 -371 1606 0
254 185 340 1607 0
32 139 -468 1608 0
190 53 465 1609 0
87 -202 -240 1610 0
334 266 -176 1611 0
27 -157 37 1612 0
384 -166 394 1613 0
-475 21 156 1614 0
412 14 370 1615 0
364 183 -115 1616 0
-143 -253 -18 1617 0
381 245 -489 1618 0
181 -98 -287 1619 0
281 -269 -127 1620 0
282 338 13 1621 0
-68 80 -377 1622 0
-354 -452 477 1623 0
166 -53 278 1624 0
-458 108 1 1625 0
-368 -166 367 1626 0
431 469 -205 1627 0
-95 -328 206 1628 0
-16 247 -7 1629 0
-321 -65 476 1630 0
-128 -430 -168 1631 0
12 -192 -396 1632 0
261 -303 279 1633 0
430 -373 263 1634 0
308 -456 41 1635 0
99 489 383 1636 0
320 219 169 1637 0
-114 -29 351 1638 0
-283 41 236 1639 0
402 352 8 1640 0
-291 398 -225 1641 0
287 439 -208 1642 0
-199 -140 -162 1643 0
-1 -460 347 1644 0
165 -407 -161 1645 0
65 108 -496 1646 0
280 161 -442 1647 0
404 1 -434 1648 0
298 -414 -9 1649 0
329 -416 -372 1650 0
-148 -77 -297 1651 0
-173 -55 345 1652 0
-105 -98 398 1653 0
-86 -136 116 1654 0
-323 95 -221 1655 0
54 -131 149 1656 0
246 425 -380 1657 0
23 243 170 1658 0
-330 366 161 1659 0
-62 297 185 1660 0
328 -260 94 1661 0
-72 -387 -364 1662 0
-274 167 -63 1663 0
-478 -470 -253 1664 0
409 29 224 1665 0
487 387 -423 1666 0
425 -440 436 1667 0
152 -357 -448 1668 0
-369 42 44 1669 0
103 264 352 1670 0
-279 -444 373 1671 0
373 40 -101 1672 0
70 441 -428 1673 0
394 -484 455 1674 0
-417 169 194 1675 0
-312 -111 2 1676 0
-101 -464 -342 1677 0
-396 340 117 1678 0
375 -136 -368 1679 0
-421 -137 -324 1680 0
-219 136 201 1681 0
-173 -315 94 1682 0
260 -182 -248 1683 0
-175 101 210 1684 0
160 -115 99 1685 0
-96 14 279 1686 0
94 -150 -227 1687 0
371 -243 149 1688 0
-41 192 -342 1689 0
-143 -468 470 1690 0
52 26 -247 1691 0
99 -316 -425 1692 0
232 -151 -474 1693 0
255 240 405 1694 0
-253 -481 254 1695 0
212 -93 -394 1696 0
-413 65 -31 1697 0
51 -267 -424 1698 0
-432 296 -486 1699 0
-74 478 363 1700 0
-457 210 299 1701 0
60 316 161 1702 0
-312 318 -130 1703 0
-257 479 -114 1704 0
-204 -45 -499 1705 0
-189 -119 -62 1706 0
-311 -306 -144 1707 0
333 -303 -430 1708 0
79 -477 -349 1709 0
425 361 -205 1710 0
48 97 201 1711 0
30 327 193 1712 0
-381 -236 -500 1713 0
2 194 7 1714 0
-420 -366 -351 1715 0
23 -489 355 1716 0
321 -46 380 1717 0
-199 470 162 1718 0
-254 -113 -79 1719 0
18 -292 345 1720 0
140 239 281 1721 0
381 -450 150 1722 0
-458 416 -127 1723 0
-109 91 71 1724 0
-24 247 -286 1725 0
-415 -251 492 1726 0
-169 -137 -213 1727 0
-190 -403 -456 1728 0
-316 293 -355 1729 0
-412 -10 200 1730 0
-297 30 -4 1731 0
108 6 473 1732 0
481 232 66 1733 0
-25 102 359 1734 0
160 -134 460 1735 0
54 -259 58 1736 0
-180 -371 -174 1737 0
-426 314 165 1738 0
-339 472 -45 1739 0
-356 -46 18 1740 0
46 278 -234 1741 0
396 -185 -264 1742 0
53 315 -138 1743 0
-298 -86 -397 1744 0
196 -308 -11 1745 0
-167 -449 254 1746 0
-256 -385 288 1747 0
226 -49 264 1748 0
463 428 116 1749 0
379 371 110 1750 0
245 312 206 1751 0
-425 -112 199 1752 0
-305 -483 -469 1753 0
-62 -191 -461 1754 0
-466 454 -26 1755 0
-457 -351 -70 1756 0
194 -234 313 1757 0
137 -242 388 1758 0
57 447 392 1759 0
118 -55 -3 1760 0
348 -239 490 1761 0
52 4 62 1762 0
395 -339 -330 1763 0
59 -384 313 1764 0
99 -296 -465 1765 0
-329 129 297 1766 0
-344 131 353 1767 0
305 -467 218 1768 0
319 394 -358 1769 0
47 -109 244 1770 0
-441 161 -264 1771 0
264 310 482 1772 0
-299 268 -75 1773 0
262 394 21 1774 0
368 311 401 1775 0
161 101 -116 1776 0
274 221 -371 1777 0
-294 -89 -285 1778 0
118 133 332 1779 0
313 -122 140 1780 0
390 -463 138 1781 0
-422 363 152 1782 0
-71 308 82 1783 0
301 -118 313 1784 0
204 60 -232 1785 0
356 -380 -425 1786 0
439 -498 -447 1787 0
-319 -125 31 1788 0
-232 -176 -65 1789 0
440 -137 -23 1790 0
405 -93 -91 1791 0
-87 421 467 1792 0
-93 -49 19 1793 0
-47 1 245 1794 0
150 -441 -69 1795 0
408 -393 280 1796 0
-288 -134 -399 1797 0
-55 -115 374 1798 0
-252 453 -345 1799 0
-36 -231 -75 1800 0
466 -445 271 1801 0
-327 -333 133 1802 0
111 -140 -34 1803 0
-301 -356 -23 1804 0
304 20 348 1805 0
-49 136 -139 1806 0
-452 440 -115 1807 0
103 88 -30 1808 0
425 154 -302 1809 0
411 -57 187 1810 0
439 449 372 1811 0
227 -187 464 1812 0
-57 380 -154 1813 0
-306 -421 299 1814 0
-227 290 95 1815 0
-428 101 57 1816 0
256 -451 -445 1817 0
32 21 -207 1818 0
-57 143 268 1819 0
394 -143 -270 1820 0
-296 -46 33 1821 0
-32 340 -130 1822 0
-7 -483 450 1823 0
-325 400 -55 1824 0
-188 -480 31 1825 0
-404 -242 446 1826 0
415 -128 281 1827 0
226 146 54 1828 0
332 220 -270 1829 0
99 -374 -284 1830 0
333 452 -442 1831 0
153 -253 66 1832 0
77 -310 328 1833 0
162 38 200 1834 0
338 100 -172 1835 0
-107 45 -141 1836 0
397 -135 352 1837 0
381 235 -261 1838 0
-427 453 77 1839 0
184 373 -279 1840 0
23 -33 -346 1841 0
-17 -275 -276 1842 0
280 -267 246 1843 0
-337 108 283 1844 0
130 102 64 1845 0
-453 499 -273 1846 0
185 -62 -245 1847 0
75 390 -401 1848 0
235 -173 -41 1849 0
299 475 -410 1850 0
281 -229 289 1851 0
-257 33 -429 1852 0
18 53 -149 1853 0
-133 426 211 1854 0
-424 -413 -240 1855 0
-220 -421 -226 1856 0
214 212 -14 1857 0
-425 382 -132 1858 0
-350 -248 465 1859 0
116 -415 -244 1860 0
436 -112 -261 1861 0
-127 223 -101 1862 0
332 -78 238 1863 0
-197 -358 -65 1864 0
416 53 30 1865 0
-148 -60 90 1866 0
195 360 140 1867 0
335 339 313 1868 0
494 110 375 1869 0
-215 243 -241 1870 0
286 -386 -500 1871 0
-500 -418 -422 1872 0
-358 -105 -124 1873 0
103 478 -450 1874 0
-397 247 343 1875 0
342 121 -344 1876 0
-200 390 261 1877 0
-96 25 -156 1878 0
403 494 315 1879 0
-490 -309 83 1880 0
-306 -14 343 1881 0
-464 2 201 1882 0
374 269 148 1883 0
80 -283 231 1884 0
-360 -438 267 1885 0
-70 396 486 1886 0
267 -330 -419 1887 0
1 -240 182 1888 0
-268 450 -309 1889 0
250 439 75 1890 0
-38 -308 332 1891 0
69 -97 -132 1892 0
350 435 3 1893 0
66 -19 49 1894 0
-194 157 -318 1895 0
42 423 104 1896 0
-457 374 186 1897 0
-420 -480 -433 1898 0
-9 -81 150 1899 0
94 -74 2 1900 0
311 -36 -237 1901 0
63 -36 -367 1902 0
144 411 164 1903 0
468 414 -276 1904 0
-168 30 -472 1905 0
230 46 293 1906 0
306 406 471 1907 0
250 -103 335 1908 0
287 -312 235 1909 0
-301 -268 -337 1910 0
292 -196 38 1911 0
107 -491 -250 1912 0
-373 212 -430 1913 0
442 -438 415 1914 0
405 -318 -260 1915 0
459 -389 34 1916 0
268 436 -357 1917 0
409 -276 474 1918 0
277 -144 -173 1919 0
459 -433 -42 1920 0
-213 344 -455 1921 0
-486 -3 27 1922 0
-444 -147 -89 1923 0
-3 -337 449 1924 0
308 -407 226 1925 0
-211 186 379 1926 0
-310 173 233 1927 0
82 -378 293 1928 0
474 -119 194 1929 0
106 235 -412 1930 0
-351 -170 307 1931 0
-252 -426 -24 1932 0
-447 -159 -379 1933 0
-480 -200 237 1934 0
-110 -209 -166 1935 0
429 -357 485 1936 0
-358 488 -269 1937 0
15 -234 -72 1938 0
-184 270 141 1939 0
-179 -72 169 1940 0
412 -70 390 1941 0
-416 420 108 1942 0
-2 100 221 1943 0
-6 210 229 1944 0
118 342 319 1945 0
131 -416 -425 1946 0
-192 223 339 1947 0
41 -130 153 1948 0
-202 454 333 1949 0
449 -232 -195 1950 0
261 355 348 1951 0
328 -413 208 1952 0
136 -468 -360 1953 0
469 392 25 1954 0
190 -174 388 1955 0
-330 480 -410 1956 0
-279 -382 14 1957 0
-263 156 -302 1958 0
21 173 -6 1959 0
380 -255 -221 1960 0
269 -162 48 1961 0
-268 -75 -162 1962 0
133 132 -201 1963 0
358 479 -184 1964 0
251 -322 -212 1965 0
260 -318 182 1966 0
-142 325 254 1967 0
-32 219 73 1968 0
-378 -394 -256 1969 0
-107 -273 -355 1970 0
133 472 203 1971 0
-165 332 490 1972 0
52 319 265 1973 0
-246 402 -214 1974 0
-116 420 -307 1975 0
-350 -375 95 1976 0
-374 240 425 1977 0
-5 466 -447 1978 0
429 14 61 1979 0
-34 365 -93 1980 0
310 -431 327 1981 0
-88 412 258 1982 0
-359 -280 -372 1983 0
387 96 -27 1984 0
-114 -440 -140 1985 0
-189 -217 -402 1986 0
-24 57 -91 1987 0
38 232 -229 1988 0
288 154 217 1989 0
292 -312 70 1990 0
465 339 169 1991 0
31 -411 -118 1992 0
158 198 141 1993 0
-137 402 234 1994 0
126 268 338 1995 0
-405 115 -100 1996 0
257 331 -142 1997 0
-334 485 80 1998 0
6 358 102 1999 0
378 -49 -384 2000 0
-239 15 458 2001 0
-14 -460 9 2002 0
164 437 407 2003 0
93 -67 142 2004 0
-348 -19 96 2005 0
-145 367 -134 2006 0
-461 -419 67 2007 0
37 53 152 2008 0
38 376 -261 2009 0
38 301 -173 2010 0
-179 -466 -215 2011 0
-376 -418 -168 2012 0
-386 -219 221 2013 0
209 -202 498 2014 0
-438 -346 108 2015 0
290 -12 -373 2016 0
-15 14 268 2017 0
-497 -361 -117 2018 0
-413 -143 -146 2019 0
171 89 334 2020 0
372 -243 -392 2021 0
-52 361 69 2022 0
277 451 413 2023 0
359 148 -175 2024 0
-293 -73 -320 2025 0
-55 141 202 2026 0
68 -483 8 2027 0
356 412 -238 2028 0
437 377 -405 2029 0
-77 -23 -138 2030 0
116 -35 351 2031 0
416 309 -21 2032 0
361 -251 272 2033 0
166 -453 -473 2034 0
-230 309 146 2035 0
-268 162 -424 2036 0
-28 450 -255 2037 0
492 58 -372 2038 0
225 259 480 2039 0
131 296 -333 2040 0
-281 268 -278 2041 0
-296 -57 95 2042 0
-220 254 156 2043 0
465 -464 396 2044 0
-62 -74 -332 2045 0
114 -101 226 2046 0
43 401 -178 2047 0
-389 344 -268 2048 0
-315 475 234 2049 0
-346 434 -326 2050 0
-64 287 -346 2051 0
245 353 -259 2052 0
-363 198 140 2053 0
-367 136 -497 2054 0
-286 -222 186 2055 0
237 -178 385 2056 0
-415 -289 -307 2057 0
139 -308 351 2058 0
172 64 357 2059 0
348 304 -227 2060 0
-391 -433 200 2061 0
153 -120 86 2062 0
-378 362 448 2063 0
-243 -55 -167 2064 0
-99 -424 21 2065 0
-475 -33 477 2066 0
-142 316 -48 2067 0
127 -252 427 2068 0
-300 203 -443 2069 0
467 415 -84 2070 0
-16 -161 -186 2071 0
-327 -106 413 2072 0
-270 -145 -417 2073 0
-379 382 -330 2074 0
386 22 217 2075 0
279 -414 -364 2076 0
-117 -208 291 2077 0
312 395 -348 2078 0
412 -364 -382 2079 0
298 -48 -359 2080 0
-273 -176 127 2081 0
-129 347 419 2082 0
322 264 25 2083 0
39 304 -387 2084 0
-59 191 -463 2085 0
-54 -189 -249 2086 0
256 198 454 2087 0
452 216 69 2088 0
-56 -101 -179 2089 0
484 443 226 2090 0
369 306 -231 2091 0
186 228 146 2092 0
347 221 255 2093 0
82 -96 273 2094 0
298 -26 190 2095 0
249 4 -364 2096 0
-500 -469 312 2097 0
-53 -133 -70 2098 0
144 -464 369 2099 0
101 408 -180 2100 0
275 235 136 2101 0
-193 -210 392 2102 0
-444 218 -309 2103 0
-204 266 455 2104 0
-314 288 -117 2105 0
332 -230 238 2106 0
-75 211 -368 2107 0
57 -493 -452 2108 0
-224 -271 -382 2109 0
279 -496 124 2110 0
-471 -373 -295 2111 0
-82 449 -396 2112 0
290 428 363 2113 0
120 427 -94 2114 0
473 -331 -321 2115 0
151 235 -92 2116 0
-89 -18 -194 2117 0
-98 -409 281 2118 0
17 209 -456 2119 0
-449 -209 -29 2120 0
308 251 441 2121 0
-269 -114 -449 2122 0
-83 296 90 2123 0
214 -284 -200 2124 0
289 49 -312 2125 0
-12 477 105 2126 0
242 -137 397 2127 0
-302 -238 -197 2128 0
-28 -311 -422 2129 0
-208 369 -242 2130 0
-471 391 357 2131 0
-488 -45 139 2132 0
130 193 386 2133 0
496 -409 -372 2134 0
270 446 27 2135 0
-219 407 293 2136 0
470 344 -332 2137 0
235 166 -422 2138 0
-131 -191 382 2139 0
203 -389 -259 2140 0
73 124 121 2141 0
-245 -270 85 2142 0
-77 -330 -354 2143 0
-204 -290 373 2144 0
-113 -394 122 2145 0
471 -54 15 2146 0
-476 -230 431 2147 0
-414 -409 344 2148 0
162 249 -186 2149 0
-449 304 233 2150 0
385 116 -426 2151 0
435 428 211 2152 0
-173 271 216 2153 0
366 -361 359 2154 0
-139 10 -184 2155 0
50 -490 -46 2156 0
-448 466 -18 2157 0
-343 -52 -182 2158 0
-258 382 -337 2159 0
144 -152 -3 2160 0
425 197 415 2161 0
-376 -476 -406 2162 0
322 -151 -337 2163 0
148 413 -133 2164 0
-6 389 17 2165 0
35 -284 145 2166 0
414 233 294 2167 0
-249 -131 -257 2168 0
-194 170 -386 2169 0
158 124 -213 2170 0
60 234 -180 2171 0
285 -169 101 2172 0
-14 -447 -310 2173 0
117 377 -153 2174 0
-319 157 440 2175 0
401 -140 118 2176 0
-470 24 165 2177 0
331 -363 309 2178 0
191 -207 -474 2179 0
424 398 444 2180 0
434 -453 251 2181 0
132 -368 -99 2182 0
-211 363 -385 2183 0
42 -80 -395 2184 0
458 -438 408 2185 0
-96 339 303 2186 0
-209 343 -398 2187 0
-32 467 471 2188 0
397 62 -303 2189 0
-233 -147 445 2190 0
189 -52 127 2191 0
-335 24 302 2192 0
-141 -376 -337 2193 0
-478 -454 -8 2194 0
-280 189 -119 2195 0
-429 -319 205 2196 0
-382 105 -497 2197 0
27 -16 -461 2198 0
-6 85 48 2199 0
-172 228 -59 2200 0
324 304 -152 2201 0
486 265 111 2202 0
182 -179 -17 2203 0
476 -324 199 2204 0
-184 351 -276 2205 0
-309 -11 -400 2206 0
18 -280 -338 2207 0
364 20 -267 2208 0
-482 235 447 2209 0
220 -145 432 2210 0
429 419 -428 2211 0
2 -398 -119 2212 0
198 421 -184 2213 0
-290 221 -414 2214 0
397 450 398 2215 0
-143 13 -438 2216 0
-197 352 -331 2217 0
-8 489 210 2218 0
192 -53 416 2219 0
-96 271 489 2220 0
-365 247 431 2221 0
316 -487 254 2222 0
-323 99 425 2223 0
147 -203 484 2224 0
159 -106 27 2225 0
-324 -293 -437 2226 0
-20 -472 -286 2227 0
-100 -230 -229 2228 0
13 412 -284 2229 0
208 -309 233 2230 0
-299 -398 364 2231 0
-302 164 -82 2232 0
-256 423 -67 2233 0
414 20 419 2234 0
424 -282 -36 2235 0
453 -167 -394 2236 0
-391 398 234 2237 0
-27 -227 -23 2238 0
-279 -242 -238 2239 0
-71 461 -199 2240 0
408 22 -352 2241 0
-297 -196 432 2242 0
-330 -290 -17 2243 0
-349 175 -303 2244 0
396 -350 -458 2245 0
330 82 124 2246 0
-264 -182 409 2247 0
-487 -54 -358 2248 0
319 401 -378 2249 0
-42 -75 -188 2250 0
491 -2 -245 2251 0
-499 398 -400 2252 0
197 -304 161 2253 0
489 -287 -382 2254 0
183 -27 -46 2255 0
-442 -148 345 2256 0
280 -390 -472 2257 0
-158 -436 -476 2258 0
-224 -149 -337 2259 0
312 -344 389 2260 0
-98 272 198 2261 0
435 -80 175 2262 0
-132 -355 -79 2263 0
-404 -382 133 2264 0
412 1 -374 2265 0
487 -52 -196 2266 0
3 -175 438 2267 0
41 372 161 2268 0
466 25 476 2269 0
-45 4 -470 2270 0
-482 -377 -382 2271 0
-345 431 -488 2272 0
-236 298 -145 2273 0
137 194 496 2274 0
147 348 -372 2275 0
-226 -295 482 2276 0
350 310 282 2277 0
-243 -425 -365 2278 0
94 -378 -475 2279 0
74 -282 -341 2280 0
420 489 278 2281 0
-334 29 204 2282 0
-23 101 -348 2283 0
321 100 -176 2284 0
193 -381 -98 2285 0
-132 -210 302 2286 0
-195 -204 351 2287 0
-283 414 -29 2288 0
-390 2 -226 2289 0
-70 -278 243 2290 0
-437 -112 165 2291 0
310 471 -265 2292 0
-252 204 74 2293 0
-63 -277 -40 2294 0
-384 -369 78 2295 0
115 -120 -369 2296 0
301 85 400 2297 0
98 -485 -42 2298 0
107 401 -194 2299 0
367 -380 -267 2300 0
265 192 243 2301 0
423 -239 -305 2302 0
-253 -360 -382 2303 0
417 446 -295 2304 0
-152 -385 324 2305 0
-414 144 -54 2306 0
-134 260 292 2307 0
264 -51 -129 2308 0
-309 418 55 2309 0
64 -454 448 2310 0
5 472 -39 2311 0
42 175 14 2312 0
394 -285 4 2313 0
169 -336 -298 2314 0
-60 16 317 2315 0
469 -497 320 2316 0
-330 10 -53 2317 0
-367 -309 233 2318 0
-359 -138 -467 2319 0
292 140 413 2320 0
400 321 181 2321 0
-186 446 -67 2322 0
267 417 84 2323 0
53 -388 -353 2324 0
251 97 -139 2325 0
-15 233 283 2326 0
304 -450 -19 2327 0
-426 -8 -331 2328 0
-82 -464 -16 2329 0
-72 -276 374 2330 0
148 -326 284 2331 0
-452 426 -84 2332 0
428 218 194 2333 0
-283 331 152 2334 0
352 251 262 2335 0
-318 -148 -53 2336 0
195 -144 116 2337 0
-331 -124 80 2338 0
-354 293 276 2339 0
199 170 -195 2340 0
-455 191 -436 2341 0
-395 61 -408 2342 0
19 2 306 2343 0
187 -72 44 2344 0
-251 36 112 2345 0
17 -35 247 2346 0
150 -273 -242 2347 0
45 394 -487 2348 0
281 -16 -397 2349 0
129 -459 126 2350 0
209 477 -356 2351 0
-176 -331 433 2352 0
32 390 319 2353 0
-198 -22 399 2354 0
-57 -248 203 2355 0
-331 -473 -232 2356 0
269 -79 -382 2357 0
-474 244 88 2358 0
-478 -291 -281 2359 0
-144 329 293 2360 0
238 -398 -231 2361 0
-230 189 170 2362 0
-140 252 101 2363 0
300 207 362 2364 0
43 82 -310 2365 0
411 341 296 2366 0
-490 410 -53 2367 0
162 93 -4 2368 0
56 368 371 2369 0
63 175 -70 2370 0
21 -297 -284 2371 0
291 -380 -6 2372 0
485 121 417 2373 0
447 283 448 2374 0
-417 242 150 2375 0
230 -54 201 2376 0
-39 -191 -396 2377 0
460 -156 -193 2378 0
487 324 -472 2379 0
-402 -141 185 2380 0
-372 271 -223 2381 0
-134 267 -214 2382 0
424 -346 -366 2383 0
264 142 -347 2384 0
-406 -66 -155 2385 0
53 -241 -148 2386 0
-498 124 -68 2387 0
-377 110 83 2388 0
-80 -90 493 2389 0
409 73 -130 2390 0
169 486 277 2391 0
-201 -378 -216 2392 0
338 113 -143 2393 0
307 166 -39 2394 0
308 -446 -94 2395 0
186 386 288 2396 0
-367 89 169 2397 0
108 487 -137 2398 0
-12 -123 374 2399 0
-165 -11 -152 2400 0
-277 -217 -331 2401 0
50 5 -151 2402 0
-404 435 99 2403 0
-30 -209 364 2404 0
488 425 -275 2405 0
-439 -172 -291 2406 0
290 341 154 2407 0
323 -330 -428 2408 0
-396 498 76 2409 0
184 -378 129 2410 0
152 9 361 2411 0
-339 168 218 2412 0
-239 265 461 2413 0
122 300 459 2414 0
-335 157 418 2415 0
-55 25 -137 2416 0
-277 176 -262 2417 0
235 310 375 2418 0
26 282 -296 2419 0
459 303 -181 2420 0
140 190 398 2421 0
69 -424 296 2422 0
-152 343 -445 2423 0
374 21 150 2424 0
-437 188 -285 2425 0
123 -319 29 2426 0
411 -435 44 2427 0
-195 -381 123 2428 0
-450 -157 466 2429 0
2 -382 278 2430 0
-176 -483 118 2431 0
342 485 245 2432 0
-351 -233 -151 2433 0
365 106 68 2434 0
420 185 121 2435 0
21 -285 56 2436 0
457 -219 60 2437 0
176 -51 345 2438 0
224 340 -191 2439 0
29 338 251 2440 0
73 -447 -494 2441 0
-199 9 -392 2442 0
-179 -404 409 2443 0
-144 -211 208 2444 0
-204 -177 -407 2445 0
-86 -107 -210 2446 0
246 78 -34 2447 0
364 -353 -24 2448 0
-117 130 338 2449 0
-456 186 -124 2450 0
82 113 -315 2451 0
-373 -449 -443 2452 0
365 401 -150 2453 0
-58 320 -144 2454 0
56 189 -137 2455 0
-287 33 196 2456 0
-249 328 -448 2457 0
-380 -318 -218 2458 0
-297 189 13 2459 0
57 -485 -16 2460 0
10 189 98 2461 0
-486 -332 98 2462 0
-17 4 -330 2463 0
102 -179 -222 2464 0
41 -302 250 2465 0
43 -182 -14 2466 0
203 -345 -81 2467 0
-62 -409 -431 2468 0
335 -72 490 2469 0
-82 16 -23 2470 0
-253 -2 -368 2471 0
-33 345 -421 2472 0
-465 79 -187 2473 0
-428 92 -174 2474 0
-309 81 421 2475 0
427 -315 -287 2476 0
26 -452 -327 2477 0
-334 -55 357 2478 0
-188 202 -39 2479 0
-171 -245 -156 2480 0
43 345 -326 2481 0
156 495 158 2482 0
-135 -360 -50 2483 0
-221 333 297 2484 0
409 -88 -251 2485 0
-69 -48 -121 2486 0
496 -324 95 2487 0
52 -88 150 2488 0
-121 160 86 2489 0
237 -427 446 2490 0
-63 -98 230 2491 0
24 -422 239 2492 0
-144 -411 -302 2493 0
-499 7 206 2494 0
-243 -223 -183 2495 0
133 380 -214 2496 0
362 42 208 2497 0
14 121 -180 2498 0
-122 -191 -394 2499 0
-264 -145 -124 2500 0
-368 49 492 2501 0
-481 87 89 2502 0
408 196 -58 2503 0
396 -165 -416 2504 0
-93 -321 -98 2505 0
-235 -374 299 2506 0
390 -418 86 2507 0
-92 -346 -17 2508 0
200 -170 -85 2509 0
-206 133 -76 2510 0
-81 292 -297 2511 0
-38 260 -130 2512 0
-245 -300 107 2513 0
310 487 85 2514 0
-87 -413 -186 2515 0
156 482 236 2516 0
211 -16 -48 2517 0
-401 255 492 2518 0
-135 -7 351 2519 0
-332 175 328 2520 0
356 335 422 2521 0
-176 -151 257 2522 0
-456 493 -346 2523 0
-452 -99 -20 2524 0
338 497 -227 2525 0
-430 481 400 2526 0
-442 -330 -100 2527 0
289 -23 314 2528 0
461 248 -139 2529 0
-333 500 475 2530 0
473 -477 276 2531 0
347 140 300 2532 0
-14 473 -282 2533 0
153 -133 -40 2534 0
237 -399 -58 2535 0
-63 -399 406 2536 0
-473 -126 -101 2537 0
5 211 381 2538 0
388 319 -434 2539 0
-214 -273 460 2540 0
-400 385 48 2541 0
-120 240 -239 2542 0
-174 -450 -112 2543 0
-194 -227 -128 2544 0
4 344 -181 2545 0
283 36 -400 2546 0
117 -79 -403 2547 0
345 271 438 2548 0
142 -192 -169 2549 0
-461 -55 -168 2550 0
-387 128 -104 2551 0
-118 -234 418 2552 0
-211 -367 -324 2553 0
-318 -320 247 2554 0
163 139 307 2555 0
335 -138 321 2556 0
-401 -238 288 2557 0
-465 -155 -230 2558 0
403 367 -321 2559 0
-351 -145 235 2560 0
-20 234 290 2561 0
-356 -437 110 2562 0
-239 298 471 2563 0
-478 -332 384 2564 0
74 -11 163 2565 0
-4 -350 -12 2566 0
-128 -139 -386 2567 0
-197 -362 -411 2568 0
-282 -495 -382 2569 0
391 -97 141 2570 0
377 -92 -129 2571 0
-19 408 -486 2572 0
430 -321 370 2573 0
451 -23 406 2574 0
3 -254 -101 2575 0
-204 -380 337 2576 0
52 -173 -251 2577 0
-52 -191 -442 2578 0
-31 -73 -59 2579 0
-157 83 205 2580 0
229 -13 246 2581 0
84 -52 -326 2582 0
396 -154 -144 2583 0
468 283 162 2584 0
443 -135 -160 2585 0
369 -207 -427 2586 0
-418 82 -33 2587 0
72 -82 -28 2588 0
-409 47 -104 2589 0
464 117 475 2590 0
-41 26 63 2591 0
456 29 83 2592 0
83 -210 55 2593 0
1 -378 393 2594 0
-339 -464 -238 2595 0
-148 158 478 2596 0
409 158 24 2597 0
398 -7 -74 2598 0
449 -368 -21 2599 0
209 -396 -330 2600 0
122 -223 346 2601 0
381 -67 -166 2602 0
18 -404 -350 2603 0
37 493 138 2604 0
-480 -283 -58 2605 0
-104 -184 232 2606 0
-238 -69 -145 2607 0
-453 -478 -405 2608 0
-421 412 79 2609 0
315 347 -368 2610 0
-224 -498 324 2611 0
-348 372 362 2612 0
270 134 55 2613 0
-50 -479 146 2614 0
266 -206 436 2615 0
221 486 167 2616 0
-172 -277 -389 2617 0
97 45 375 2618 0
161 91 -178 2619 0
-38 -328 -280 2620 0
-95 -119 451 2621 0
-6 -462 398 2622 0
289 140 417 2623 0
-5 76 373 2624 0
114 -99 22 2625 0
-2 -128 115 2626 0
28 -477 410 2627 0
243 389 -428 2628 0
-449 444 240 2629 0
249 -228 161 2630 0
260 -478 392 2631 0
2 -52 478 2632 0
-23 -389 476 2633 0
288 297 -184 2634 0
-169 -103 152 2635 0
386 -288 423 2636 0
-361 67 -84 2637 0
-1 42 -18 2638 0
-234 280 240 2639 0
-374 333 352 2640 0
251 203 285 2641 0
-471 -289 -170 2642 0
-471 -251 -169 2643 0
349 159 39 2644 0
341 -293 329 2645 0
-286 166 106 2646 0
52 47 -253 2647 0
-464 137 -172 2648 0
493 -168 191 2649 0
-351 -59 160 2650 0
