p cnf 2650 2150
-300 -236 -138 501 0
-107 -254 -10 502 0
-205 402 273 503 0
-323 6 465 504 0
-347 -157 -486 505 0
-213 228 472 506 0
76 84 -470 507 0
-244 377 -323 508 0
101 -238 -437 509 0
368 -127 9 510 0
-109 -399 -190 511 0
-234 263 183 512 0
-195 -157 450 513 0
-341 -421 -363 514 0
237 270 175 515 0
-321 36 327 516 0
373 230 -316 517 0
327 82 94 518 0
296 -460 99 519 0
-252 360 236 520 0
-225 137 -179 521 0
-436 -8 467 522 0
176 -249 -110 523 0
-496 475 -50 524 0
-401 362 -109 525 0
-367 241 459 526 0
-197 -448 -387 527 0
-30 -370 -345 528 0
418 -194 284 529 0
-281 -475 240 530 0
124 190 -402 531 0
80 -344 331 532 0
-249 -138 67 533 0
199 -30 -72 534 0
175 -237 39 535 0
322 -139 -158 536 0
-157 48 228 537 0
65 327 146 538 0
-88 -451 260 539 0
-2 354 -147 540 0
-436 358 -462 541 0
225 434 -184 542 0
-462 -333 -191 543 0
-431 -254 -471 544 0
443 -357 -191 545 0
141 287 -6 546 0
-232 -231 -200 547 0
-134 418 434 548 0
-458 -494 -286 549 0
228 67 -139 550 0
374 -256 -224 551 0
93 349 470 552 0
432 172 313 553 0
118 -422 -104 554 0
-348 -275 4 555 0
466 -408 -420 556 0
487 -350 -220 557 0
-112 196 -80 558 0
-124 265 456 559 0
319 -238 -497 560 0
54 -369 -170 561 0
-28 -353 412 562 0
89 156 319 563 0
98 -321 63 564 0
-432 -23 -75 565 0
-463 74 -77 566 0
224 -461 366 567 0
-154 295 182 568 0
-401 412 -308 569 0
374 500 -55 570 0
-448 326 -158 571 0
461 281 205 572 0
-46 -226 -398 573 0
-378 -98 -199 574 0
-472 -162 -471 575 0
148 -379 334 576 0
221 -286 -388 577 0
278 -351 -154 578 0
-80 120 318 579 0
-362 -377 50 580 0
-109 -35 110 581 0
183 418 -117 582 0
-106 -370 116 583 0
497 375 55 584 0
483 -416 -202 585 0
468 -93 394 586 0
93 -204 407 587 0
-83 -6 190 588 0
-6 40 389 589 0
-436 408 -214 590 0
-209 187 184 591 0
-137 -342 244 592 0
-356 297 252 593 0
-291 -481 -262 594 0
392 291 -347 595 0
-42 67 -156 596 0
184 51 -375 597 0
-304 -390 -334 598 0
-21 419 333 599 0
146 -353 -269 600 0
-301 -9 38 601 0
394 -30 138 602 0
-286 -107 249 603 0
-45 446 206 604 0
324 154 -462 605 0
-81 327 -451 606 0
-279 102 -79 607 0
-271 -296 -461 608 0
26 -200 500 609 0
318 -35 151 610 0
-26 -313 -129 611 0
438 -139 154 612 0
226 64 86 613 0
-227 326 126 614 0
288 -81 139 615 0
66 -14 322 616 0
94 -253 479 617 0
-89 56 -250 618 0
149 -146 435 619 0
-383 -342 -187 620 0
-296 -361 459 621 0
-156 -237 -449 622 0
-66 -452 145 623 0
-491 -5 154 624 0
-254 129 373 625 0
-102 299 -248 626 0
-92 -363 -186 627 0
-205 160 19 628 0
43 132 74 629 0
145 -58 170 630 0
-397 -123 317 631 0
-293 -332 -228 632 0
274 -320 -122 633 0
380 -313 -90 634 0
-267 -173 -77 635 0
-435 143 -379 636 0
221 -137 329 637 0
137 386 -469 638 0
-409 -106 -404 639 0
270 -264 83 640 0
134 -60 331 641 0
-160 76 393 642 0
428 -357 64 643 0
222 448 104 644 0
447 -236 449 645 0
409 313 -247 646 0
-367 353 203 647 0
-336 -199 -430 648 0
177 256 415 649 0
459 452 106 650 0
-339 -433 387 651 0
-234 463 500 652 0
-73 413 -257 653 0
-64 193 189 654 0
-163 -373 372 655 0
-8 14 355 656 0
105 465 174 657 0
268 -259 -92 658 0
-20 438 -140 659 0
419 228 129 660 0
310 392 435 661 0
227 -411 405 662 0
312 -88 -446 663 0
-440 -224 -91 664 0
347 158 244 665 0
389 -458 425 666 0
-40 -286 -372 667 0
311 -224 48 668 0
55 356 -291 669 0
10 243 -470 670 0
403 187 -426 671 0
448 -497 -233 672 0
431 -206 -94 673 0
-243 -486 54 674 0
-367 -322 41 675 0
-197 -494 -419 676 0
216 -256 134 677 0
-64 -170 472 678 0
41 87 -388 679 0
497 -345 -482 680 0
-343 277 195 681 0
237 -144 -10 682 0
-404 405 -63 683 0
466 -76 -209 684 0
104 -358 159 685 0
225 78 399 686 0
-222 475 357 687 0
51 463 -27 688 0
187 -53 222 689 0
109 -70 388 690 0
-480 434 442 691 0
-258 -420 -472 692 0
-420 444 -412 693 0
89 -181 -33 694 0
29 158 -159 695 0
161 -121 -459 696 0
-184 -237 -495 697 0
-373 -9 421 698 0
-362 -65 421 699 0
-310 -428 179 700 0
310 -284 20 701 0
-43 -417 129 702 0
-152 468 457 703 0
143 -204 -264 704 0
467 498 274 705 0
-148 458 -353 706 0
255 452 -59 707 0
-331 -318 -259 708 0
136 -45 10 709 0
-71 -187 -390 710 0
-352 -453 -85 711 0
410 418 -153 712 0
-204 -92 28 713 0
209 -482 -230 714 0
302 223 500 715 0
-184 -379 -137 716 0
404 27 286 717 0
370 -77 -441 718 0
406 180 -149 719 0
-107 -395 296 720 0
-33 -171 190 721 0
97 327 385 722 0
11 -258 361 723 0
174 177 -239 724 0
-3 137 500 725 0
-3 69 150 726 0
-306 425 -480 727 0
-434 -256 495 728 0
433 -1 -395 729 0
-116 -187 -348 730 0
35 -350 -33 731 0
99 272 393 732 0
-319 483 169 733 0
482 -100 -26 734 0
498 210 143 735 0
-189 -116 356 736 0
151 -329 67 737 0
-398 194 132 738 0
351 -255 272 739 0
-234 271 -86 740 0
-432 323 232 741 0
-468 3 -376 742 0
144 477 -36 743 0
-227 -441 148 744 0
-178 -106 294 745 0
-66 220 -373 746 0
-30 -386 -85 747 0
-188 459 180 748 0
253 379 -410 749 0
233 472 -17 750 0
119 -127 194 751 0
382 -268 -49 752 0
-207 147 -270 753 0
-30 345 480 754 0
-165 116 -333 755 0
50 316 -46 756 0
312 -25 353 757 0
181 146 -73 758 0
-137 -282 -177 759 0
-448 446 387 760 0
-118 -404 -141 761 0
-36 -200 187 762 0
448 -381 -390 763 0
-246 83 176 764 0
162 -222 313 765 0
390 66 -242 766 0
-411 409 439 767 0
-491 -395 241 768 0
81 193 447 769 0
-151 254 -480 770 0
358 132 465 771 0
265 416 191 772 0
390 -79 65 773 0
-246 -449 -496 774 0
220 -299 -451 775 0
-336 -287 -485 776 0
417 -79 -94 777 0
396 -11 -422 778 0
184 256 270 779 0
185 -40 -276 780 0
217 -150 422 781 0
289 270 -283 782 0
-387 -38 -19 783 0
391 283 231 784 0
376 175 -167 785 0
-456 457 -3 786 0
389 283 374 787 0
-116 -335 40 788 0
100 2 -205 789 0
370 -83 -14 790 0
212 -208 121 791 0
-206 122 13 792 0
-13 -492 366 793 0
306 -407 19 794 0
-122 68 -78 795 0
-164 -288 257 796 0
159 165 125 797 0
-498 -281 22 798 0
-370 107 289 799 0
-73 89 153 800 0
324 351 288 801 0
389 -173 -489 802 0
347 164 -322 803 0
-25 -289 55 804 0
-167 107 -341 805 0
341 173 -500 806 0
317 -394 393 807 0
306 44 -272 808 0
-455 -122 289 809 0
426 -483 415 810 0
-292 174 -263 811 0
-292 392 -404 812 0
-469 375 -190 813 0
492 -260 -466 814 0
409 16 -401 815 0
-266 -221 463 816 0
-462 17 5 817 0
124 -329 410 818 0
70 483 -169 819 0
-128 -12 139 820 0
155 362 230 821 0
304 302 -147 822 0
440 -420 -408 823 0
-327 -146 -318 824 0
-280 -343 325 825 0
-187 -214 1 826 0
132 -266 365 827 0
212 -58 -25 828 0
451 -123 -481 829 0
-157 74 393 830 0
-63 225 -227 831 0
-287 277 -143 832 0
144 237 -71 833 0
-213 173 456 834 0
394 422 293 835 0
331 447 -112 836 0
-496 499 -7 837 0
250 353 171 838 0
319 340 -235 839 0
-138 -378 465 840 0
474 346 -137 841 0
-11 367 44 842 0
-262 -141 469 843 0
-291 163 292 844 0
214 190 273 845 0
-316 52 18 846 0
375 158 221 847 0
-298 241 -342 848 0
-305 332 -215 849 0
-282 264 -417 850 0
-135 398 -387 851 0
79 -109 -17 852 0
-338 433 -272 853 0
-96 -500 -212 854 0
348 -61 225 855 0
249 -301 257 856 0
-371 -131 98 857 0
-469 490 -131 858 0
495 345 -224 859 0
184 -472 123 860 0
226 261 25 861 0
-226 -399 -461 862 0
-317 457 -64 863 0
413 100 114 864 0
383 -247 -193 865 0
-322 -131 -414 866 0
-100 -48 465 867 0
50 -30 445 868 0
-489 441 -10 869 0
408 -56 259 870 0
-231 343 -243 871 0
254 379 302 872 0
-451 373 -334 873 0
-144 396 -74 874 0
381 -450 -452 875 0
-131 99 -305 876 0
189 273 -83 877 0
42 -318 131 878 0
-143 447 -190 879 0
-295 65 -462 880 0
283 -94 123 881 0
-19 495 -326 882 0
46 382 -59 883 0
-261 263 -342 884 0
-312 -406 314 885 0
-261 33 -102 886 0
205 -377 -265 887 0
-495 -427 -215 888 0
385 448 -248 889 0
89 299 280 890 0
-180 50 182 891 0
-98 185 -197 892 0
291 -456 -252 893 0
-97 -147 -387 894 0
-205 -300 -234 895 0
11 345 158 896 0
-326 263 61 897 0
-261 346 -136 898 0
-424 -418 -271 899 0
-294 -325 -64 900 0
25 415 -301 901 0
-248 179 230 902 0
-109 101 -69 903 0
461 -127 439 904 0
-361 -261 -148 905 0
-161 290 454 906 0
320 -458 -310 907 0
-439 324 -492 908 0
445 -82 -47 909 0
-393 420 195 910 0
424 -182 364 911 0
-412 -267 -301 912 0
-385 11 25 913 0
186 -204 -403 914 0
-324 173 117 915 0
-449 306 -47 916 0
-114 -21 28 917 0
-157 -371 391 918 0
-76 302 45 919 0
-309 56 -345 920 0
108 351 173 921 0
499 -231 466 922 0
-12 -212 -190 923 0
391 -268 438 924 0
-450 -23 -431 925 0
-455 -151 -2 926 0
301 -493 -294 927 0
-344 386 61 928 0
340 -243 16 929 0
34 156 -36 930 0
-372 454 -491 931 0
-29 234 477 932 0
-314 -52 417 933 0
-390 201 25 934 0
460 -110 176 935 0
353 -58 358 936 0
454 411 -242 937 0
180 -344 -190 938 0
-22 468 -132 939 0
243 398 -115 940 0
-292 348 -276 941 0
-414 -380 59 942 0
329 -155 402 943 0
-330 490 -494 944 0
205 -331 319 945 0
-127 431 259 946 0
-213 132 52 947 0
-198 134 353 948 0
-447 485 -389 949 0
246 -253 234 950 0
346 -132 -135 951 0
340 386 -80 952 0
-1 -315 124 953 0
308 284 119 954 0
-12 495 -216 955 0
-9 -218 -32 956 0
265 -20 255 957 0
-72 -220 -190 958 0
408 -208 -26 959 0
-130 -53 214 960 0
-475 490 -60 961 0
-419 136 428 962 0
-456 34 -102 963 0
70 135 208 964 0
376 -106 446 965 0
246 -125 -46 966 0
498 -325 -124 967 0
-127 260 -109 968 0
370 -108 -136 969 0
-449 -268 300 970 0
8 -5 382 971 0
164 -360 -442 972 0
486 -462 -314 973 0
364 342 -491 974 0
-383 159 300 975 0
472 422 1 976 0
-461 308 118 977 0
129 -301 427 978 0
6 330 466 979 0
241 126 -183 980 0
-316 234 386 981 0
426 -85 -347 982 0
485 338 -371 983 0
-24 -302 210 984 0
-75 -226 81 985 0
-300 -107 -337 986 0
104 113 478 987 0
465 -371 489 988 0
417 -12 -420 989 0
-171 183 441 990 0
-122 -39 -287 991 0
-33 -137 -224 992 0
481 -84 -472 993 0
473 195 362 994 0
107 -61 -259 995 0
-368 473 165 996 0
-463 -372 -211 997 0
-240 232 -334 998 0
322 351 -129 999 0
-200 -108 -15 1000 0
192 -479 79 1001 0
-279 -402 300 1002 0
-417 175 353 1003 0
-79 -54 329 1004 0
-48 -21 -495 1005 0
232 426 132 1006 0
433 -54 -63 1007 0
119 -122 252 1008 0
249 -254 -157 1009 0
221 430 -452 1010 0
48 -110 74 1011 0
-132 366 -94 1012 0
292 363 421 1013 0
316 -432 297 1014 0
288 -158 465 1015 0
396 -102 -194 1016 0
83 -486 293 1017 0
188 302 -179 1018 0
-436 -421 2 1019 0
465 139 202 1020 0
497 2 131 1021 0
242 -373 182 1022 0
-58 -382 -3 1023 0
107 360 -232 1024 0
-414 -301 -400 1025 0
-380 -445 444 1026 0
211 -154 37 1027 0
-204 297 -256 1028 0
367 -439 7 1029 0
-21 -250 -369 1030 0
-250 358 -327 1031 0
-61 11 -437 1032 0
-254 -54 64 1033 0
-106 492 -180 1034 0
-416 82 -234 1035 0
-466 -382 9 1036 0
-341 175 49 1037 0
-90 424 -491 1038 0
449 -371 -475 1039 0
474 -59 256 1040 0
-473 41 -276 1041 0
-215 5 -464 1042 0
232 -215 307 1043 0
458 -242 464 1044 0
217 -305 390 1045 0
6 463 273 1046 0
167 448 35 1047 0
451 68 -464 1048 0
150 -475 301 1049 0
471 -301 -245 1050 0
187 -363 316 1051 0
-309 373 -320 1052 0
68 -85 360 1053 0
440 347 -274 1054 0
-370 -169 399 1055 0
476 195 -316 1056 0
20 167 -374 1057 0
-340 -155 27 1058 0
87 -399 -201 1059 0
88 -3 -328 1060 0
317 273 -293 1061 0
-490 465 -353 1062 0
299 435 -145 1063 0
-54 -95 124 1064 0
17 -64 -322 1065 0
-259 141 -168 1066 0
457 231 -450 1067 0
376 -73 -56 1068 0
-25 44 -130 1069 0
-97 -235 32 1070 0
114 -494 -405 1071 0
419 217 -440 1072 0
-301 -190 -465 1073 0
-334 391 -369 1074 0
-30 9 384 1075 0
-86 463 402 1076 0
-277 361 -60 1077 0
-402 180 -213 1078 0
-444 323 284 1079 0
171 -316 420 1080 0
-456 12 114 1081 0
-43 -9 65 1082 0
14 330 207 1083 0
321 -65 322 1084 0
31 -11 -161 1085 0
361 389 -74 1086 0
500 112 -207 1087 0
8 253 -25 1088 0
-168 -9 -79 1089 0
-374 320 -328 1090 0
-127 -61 134 1091 0
-32 462 116 1092 0
-309 85 -426 1093 0
-15 -366 -22 1094 0
-105 154 268 1095 0
-394 326 499 1096 0
65 -389 112 1097 0
-109 489 486 1098 0
112 -90 434 1099 0
-408 486 410 1100 0
80 -422 369 1101 0
391 -65 -113 1102 0
-137 -145 -12 1103 0
298 -138 334 1104 0
-435 -381 -12 1105 0
131 378 -227 1106 0
-272 137 368 1107 0
-259 -375 -87 1108 0
-107 -375 -237 1109 0
444 -347 362 1110 0
-207 184 -74 1111 0
-347 302 -39 1112 0
269 478 216 1113 0
491 -101 -206 1114 0
-375 -68 100 1115 0
-324 496 -372 1116 0
-430 411 469 1117 0
-354 -131 31 1118 0
163 154 -364 1119 0
375 -63 255 1120 0
-29 428 -199 1121 0
22 299 332 1122 0
490 -494 293 1123 0
304 428 -25 1124 0
82 -323 -115 1125 0
-414 90 -117 1126 0
-371 337 116 1127 0
-479 50 272 1128 0
-354 225 -345 1129 0
-94 -2 -452 1130 0
434 299 34 1131 0
-123 -402 170 1132 0
-495 -1 -238 1133 0
190 -257 499 1134 0
462 -107 -196 1135 0
116 9 -343 1136 0
-351 -336 -250 1137 0
-185 -464 -357 1138 0
-304 208 -271 1139 0
-291 366 70 1140 0
-58 -207 438 1141 0
57 1 -56 1142 0
215 -101 -439 1143 0
-439 210 192 1144 0
-160 -151 -425 1145 0
-230 -162 -272 1146 0
446 -166 341 1147 0
306 -375 -190 1148 0
-84 338 -44 1149 0
-310 403 -144 1150 0
-454 250 -216 1151 0
224 -269 -217 1152 0
378 186 223 1153 0
485 44 -190 1154 0
149 -69 -68 1155 0
389 -147 354 1156 0
59 52 476 1157 0
155 -358 418 1158 0
71 -349 255 1159 0
293 -218 -369 1160 0
246 56 169 1161 0
453 38 252 1162 0
-387 -334 33 1163 0
299 387 217 1164 0
-306 -73 111 1165 0
-396 366 205 1166 0
394 -251 299 1167 0
90 149 251 1168 0
-398 -382 53 1169 0
-260 -204 462 1170 0
-470 28 -222 1171 0
-409 361 -387 1172 0
-292 127 109 1173 0
84 -108 -338 1174 0
-64 -495 -8 1175 0
-123 -475 -328 1176 0
112 253 -356 1177 0
344 -124 -432 1178 0
-19 -495 180 1179 0
-262 -46 477 1180 0
188 366 316 1181 0
153 213 -129 1182 0
93 477 457 1183 0
-190 208 490 1184 0
-117 -421 -91 1185 0
149 -310 -326 1186 0
302 231 -403 1187 0
-266 102 200 1188 0
-109 322 126 1189 0
132 120 -444 1190 0
178 -263 -35 1191 0
3 382 -12 1192 0
271 -294 109 1193 0
-271 52 305 1194 0
-155 226 61 1195 0
164 338 280 1196 0
329 -326 233 1197 0
400 433 44 1198 0
297 274 32 1199 0
422 -249 243 1200 0
339 -270 264 1201 0
-290 -186 322 1202 0
87 292 -150 1203 0
182 -29 -115 1204 0
426 -40 -447 1205 0
125 -272 155 1206 0
-167 -86 212 1207 0
192 496 129 1208 0
-89 283 -26 1209 0
-108 163 -20 1210 0
202 -23 216 1211 0
-234 56 -365 1212 0
-494 237 31 1213 0
-7 143 337 1214 0
340 -470 231 1215 0
-368 492 386 1216 0
18 -13 185 1217 0
-444 63 -371 1218 0
-104 -167 -472 1219 0
131 439 405 1220 0
143 -198 397 1221 0
192 -436 -267 1222 0
185 -424 247 1223 0
-316 15 337 1224 0
473 -397 -365 1225 0
-185 -93 109 1226 0
338 317 -210 1227 0
321 -213 268 1228 0
-97 -135 -454 1229 0
-277 -387 -435 1230 0
369 67 -310 1231 0
410 284 -150 1232 0
254 333 -362 1233 0
59 223 452 1234 0
-168 307 80 1235 0
226 -114 11 1236 0
428 -168 -107 1237 0
254 -418 269 1238 0
-329 62 -384 1239 0
-230 -264 73 1240 0
-153 -492 -408 1241 0
-481 -271 -297 1242 0
-327 215 -64 1243 0
27 142 183 1244 0
453 -187 -382 1245 0
-153 217 362 1246 0
123 -162 -288 1247 0
197 107 -67 1248 0
73 42 59 1249 0
272 -424 485 1250 0
272 -113 471 1251 0
56 364 16 1252 0
74 484 378 1253 0
-273 228 332 1254 0
52 -153 447 1255 0
412 -398 -277 1256 0
-484 342 497 1257 0
-483 175 340 1258 0
262 -124 308 1259 0
-197 319 -415 1260 0
41 196 30 1261 0
-414 -476 113 1262 0
187 209 168 1263 0
455 -490 99 1264 0
-470 -324 -382 1265 0
-341 -79 299 1266 0
-2 -460 158 1267 0
390 110 385 1268 0
-475 40 343 1269 0
70 69 23 1270 0
-264 -406 400 1271 0
-375 418 -309 1272 0
-287 419 448 1273 0
65 -43 -100 1274 0
-437 262 97 1275 0
236 -323 327 1276 0
-378 -301 -202 1277 0
-210 337 397 1278 0
466 -146 224 1279 0
-224 -23 -299 1280 0
128 -93 212 1281 0
-350 -475 113 1282 0
-249 -421 -359 1283 0
-68 -75 -53 1284 0
275 -274 276 1285 0
-169 -128 197 1286 0
-29 -308 266 1287 0
-442 -398 469 1288 0
-319 76 48 1289 0
-380 -336 385 1290 0
361 -400 29 1291 0
213 -91 -343 1292 0
-271 -87 -64 1293 0
85 -392 343 1294 0
-144 455 236 1295 0
-350 423 -31 1296 0
54 405 159 1297 0
-229 43 59 1298 0
261 49 127 1299 0
-51 24 -34 1300 0
158 -243 -315 1301 0
-98 -348 333 1302 0
205 -303 -275 1303 0
-494 101 -327 1304 0
191 -225 -492 1305 0
-183 -173 195 1306 0
255 -383 -446 1307 0
-277 -16 -466 1308 0
-300 352 423 1309 0
-175 -232 -59 1310 0
477 -98 -163 1311 0
-225 -73 -405 1312 0
-80 194 366 1313 0
210 -94 22 1314 0
-86 61 34 1315 0
-227 -210 325 1316 0
-355 -290 12 1317 0
-79 -374 290 1318 0
-33 -295 -68 1319 0
-298 -72 405 1320 0
85 -489 -254 1321 0
481 -373 35 1322 0
-450 -231 281 1323 0
-465 38 -97 1324 0
-352 360 -168 1325 0
-395 204 326 1326 0
-308 404 -38 1327 0
319 281 493 1328 0
309 -319 -11 1329 0
263 -399 208 1330 0
355 -268 482 1331 0
-376 -26 74 1332 0
-482 253 285 1333 0
-193 202 -397 1334 0
444 -233 -159 1335 0
153 206 498 1336 0
-52 -89 205 1337 0
-399 402 -249 1338 0
-27 -283 -28 1339 0
307 -419 -126 1340 0
230 -40 242 1341 0
200 -462 432 1342 0
-49 -177 391 1343 0
105 104 -330 1344 0
490 277 -372 1345 0
-195 -249 -121 1346 0
-279 -197 -177 1347 0
-115 475 352 1348 0
459 477 136 1349 0
87 372 63 1350 0
491 301 -299 1351 0
343 223 418 1352 0
-14 149 -455 1353 0
-100 -254 99 1354 0
-202 -59 -155 1355 0
-478 -431 332 1356 0
431 -295 367 1357 0
-83 -99 352 1358 0
443 -41 -272 1359 0
-434 -378 210 1360 0
-109 -187 -64 1361 0
298 -358 -449 1362 0
-131 319 -317 1363 0
361 -428 495 1364 0
-178 451 -277 1365 0
247 -469 -345 1366 0
187 410 199 1367 0
-209 -281 -396 1368 0
360 -53 449 1369 0
350 -61 109 1370 0
37 297 -235 1371 0
468 92 12 1372 0
-413 -110 -112 1373 0
355 276 -310 1374 0
-285 -139 -31 1375 0
364 -361 -326 1376 0
3 -396 402 1377 0
411 222 406 1378 0
53 -248 -444 1379 0
-493 413 225 1380 0
-326 -303 63 1381 0
-32 -191 279 1382 0
74 199 92 1383 0
-268 -282 185 1384 0
3 67 -336 1385 0
278 12 -356 1386 0
-282 123 -402 1387 0
244 343 -497 1388 0
314 274 -207 1389 0
166 143 -464 1390 0
-189 -319 -206 1391 0
-225 -418 79 1392 0
-458 -374 -37 1393 0
-6 212 334 1394 0
326 454 -151 1395 0
-259 252 478 1396 0
-473 -274 -496 1397 0
-386 -229 193 1398 0
-173 470 -460 1399 0
37 284 475 1400 0
-380 239 381 1401 0
328 -334 231 1402 0
461 93 173 1403 0
-456 -486 429 1404 0
335 223 -499 1405 0
-257 -209 -417 1406 0
309 287 -188 1407 0
103 -160 271 1408 0
336 -96 454 1409 0
-422 366 200 1410 0
-51 488 365 1411 0
500 -363 15 1412 0
495 440 -138 1413 0
-466 476 -363 1414 0
200 -168 -378 1415 0
-173 132 -97 1416 0
323 -19 456 1417 0
117 491 392 1418 0
106 207 272 1419 0
438 -29 -51 1420 0
-229 -388 189 1421 0
-458 220 -4 1422 0
-297 -312 114 1423 0
231 -157 367 1424 0
-429 392 134 1425 0
-457 -136 -248 1426 0
433 114 -220 1427 0
-306 -308 -37 1428 0
-207 -140 89 1429 0
-10 -467 187 1430 0
-441 -63 -15 1431 0
-443 -379 -60 1432 0
-498 -360 313 1433 0
-284 192 -467 1434 0
325 -432 -464 1435 0
-187 492 198 1436 0
-308 -414 -126 1437 0
-340 -150 391 1438 0
187 381 75 1439 0
-277 311 5 1440 0
75 -434 -384 1441 0
169 -210 -214 1442 0
267 354 368 1443 0
25 59 -275 1444 0
-368 290 -315 1445 0
-111 265 -210 1446 0
37 463 -337 1447 0
-181 -361 -146 1448 0
311 -308 -107 1449 0
475 -23 364 1450 0
270 -341 236 1451 0
-432 -257 -452 1452 0
-80 453 121 1453 0
173 -263 55 1454 0
-93 5 343 1455 0
230 -192 426 1456 0
292 295 -396 1457 0
-314 399 5 1458 0
398 -92 434 1459 0
161 222 -318 1460 0
69 446 77 1461 0
-178 278 118 1462 0
-183 480 436 1463 0
147 312 31 1464 0
183 -90 -315 1465 0
-105 -42 142 1466 0
-257 90 -48 1467 0
280 -239 -57 1468 0
358 -412 -340 1469 0
312 127 80 1470 0
263 115 -111 1471 0
348 -101 112 1472 0
374 405 -9 1473 0
-49 291 385 1474 0
445 -421 262 1475 0
379 161 -430 1476 0
-252 339 -11 1477 0
449 -496 130 1478 0
68 475 -137 1479 0
60 443 -332 1480 0
-303 -320 -361 1481 0
-82 -47 -364 1482 0
-244 208 55 1483 0
-177 47 126 1484 0
400 116 -370 1485 0
137 -298 447 1486 0
-141 73 184 1487 0
497 434 384 1488 0
355 347 -276 1489 0
-337 -134 -13 1490 0
-232 354 -197 1491 0
-361 -208 491 1492 0
-75 -457 -468 1493 0
292 -455 -1 1494 0
316 261 288 1495 0
217 104 452 1496 0
333 -171 339 1497 0
266 181 -248 1498 0
-144 -341 -343 1499 0
-36 -427 -370 1500 0
-102 -495 -489 1501 0
495 500 -234 1502 0
-216 -214 -125 1503 0
35 -396 38 1504 0
417 -447 20 1505 0
-353 329 -107 1506 0
193 -241 -492 1507 0
-232 124 -159 1508 0
-325 -94 244 1509 0
284 -487 251 1510 0
92 307 186 1511 0
-104 -415 -340 1512 0
-200 361 192 1513 0
175 -7 492 1514 0
-398 -450 -260 1515 0
360 367 238 1516 0
-184 -182 256 1517 0
-393 -233 369 1518 0
-489 9 415 1519 0
305 370 -153 1520 0
-130 -433 483 1521 0
377 -432 164 1522 0
53 14 465 1523 0
378 210 389 1524 0
-397 211 303 1525 0
258 -328 -470 1526 0
439 -299 355 1527 0
-171 -236 -372 1528 0
-453 256 -34 1529 0
-172 401 -74 1530 0
6 -32 -29 1531 0
364 -71 135 1532 0
408 -175 276 1533 0
-275 21 -373 1534 0
279 66 -67 1535 0
94 108 408 1536 0
490 -25 165 1537 0
-116 -473 423 1538 0
112 445 136 1539 0
368 -383 387 1540 0
-398 344 -465 1541 0
150 -395 -299 1542 0
485 10 348 1543 0
-255 494 360 1544 0
361 414 417 1545 0
339 467 47 1546 0
4 -439 410 1547 0
-233 293 44 1548 0
-441 -270 -261 1549 0
375 116 298 1550 0
280 -147 -64 1551 0
-453 196 -269 1552 0
-204 -490 128 1553 0
-244 114 437 1554 0
417 -464 402 1555 0
-342 -421 200 1556 0
48 414 -82 1557 0
-430 -165 61 1558 0
476 -406 -440 1559 0
-267 -460 357 1560 0
-277 -467 237 1561 0
-28 -444 -439 1562 0
455 438 372 1563 0
-269 89 -59 1564 0
-387 285 -107 1565 0
-70 374 209 1566 0
-162 87 494 1567 0
276 66 285 1568 0
382 249 188 1569 0
394 -445 -225 1570 0
-439 280 -43 1571 0
447 -226 -109 1572 0
-255 85 -72 1573 0
-371 418 -292 1574 0
-318 -150 -223 1575 0
-241 330 60 1576 0
-499 75 192 1577 0
-418 405 446 1578 0
-340 478 157 1579 0
89 497 96 1580 0
-61 -130 -407 1581 0
133 -256 337 1582 0
230 274 -52 1583 0
-478 -133 -350 1584 0
174 479 353 1585 0
310 -499 63 1586 0
-133 444 -451 1587 0
427 -136 -301 1588 0
245 348 -412 1589 0
144 -344 -363 1590 0
-285 279 -89 1591 0
-40 -169 -76 1592 0
-55 119 267 1593 0
140 -239 427 1594 0
216 74 -361 1595 0
219 -32 268 1596 0
40 -332 74 1597 0
150 193 455 1598 0
-27 -156 -475 1599 0
430 -300 -207 1600 0
270 -423 221 1601 0
386 153 -147 1602 0
-24 498 -124 1603 0
-8 -441 17 1604 0
-433 177 -253 1605 0
353 -250 -61 1606 0
-335 43 -7 1607 0
18 -344 467 1608 0
-498 -171 365 1609 0
433 496 301 1610 0
-174 349 -72 1611 0
242 -313 -45 1612 0
-228 -136 -29 1613 0
162 228 -354 1614 0
-174 206 145 1615 0
-257 344 411 1616 0
250 163 492 1617 0
-437 470 -305 1618 0
-415 -354 288 1619 0
-439 67 -284 1620 0
-42 10 -406 1621 0
-339 94 235 1622 0
363 -7 -34 1623 0
184 -329 -169 1624 0
497 -456 300 1625 0
-386 -471 485 1626 0
369 -366 248 1627 0
-408 363 -284 1628 0
-340 -332 350 1629 0
-336 132 365 1630 0
-96 -76 -75 1631 0
348 -366 -293 1632 0
-265 -335 -290 1633 0
331 -485 -353 1634 0
196 170 -381 1635 0
460 -350 -105 1636 0
-444 300 -367 1637 0
-147 -422 -89 1638 0
443 406 221 1639 0
438 -17 -121 1640 0
-401 101 -48 1641 0
462 -375 -415 1642 0
411 -140 -218 1643 0
166 -117 -465 1644 0
429 50 -89 1645 0
-145 -199 173 1646 0
-417 -361 -294 1647 0
321 -259 -368 1648 0
229 -192 350 1649 0
-99 328 127 1650 0
130 -376 201 1651 0
-393 -222 -133 1652 0
-39 -137 -404 1653 0
-79 217 305 1654 0
430 -278 -213 1655 0
269 39 -295 1656 0
500 -429 447 1657 0
-454 -122 227 1658 0
-427 -52 407 1659 0
-204 479 304 1660 0
-187 233 -2 1661 0
151 -101 -339 1662 0
244 27 141 1663 0
299 -131 391 1664 0
231 17 -99 1665 0
404 -188 -456 1666 0
364 105 -27 1667 0
124 -53 -244 1668 0
-68 -242 440 1669 0
187 264 171 1670 0
351 -397 -176 1671 0
89 -192 -445 1672 0
-396 -35 -119 1673 0
481 407 447 1674 0
65 291 322 1675 0
-351 23 -367 1676 0
-245 -411 -241 1677 0
90 244 -227 1678 0
155 111 -323 1679 0
-308 381 -439 1680 0
-151 334 44 1681 0
351 447 -388 1682 0
342 184 -223 1683 0
-357 -263 -403 1684 0
-250 -355 226 1685 0
322 485 308 1686 0
-305 131 116 1687 0
-447 -69 77 1688 0
357 500 32 1689 0
248 234 251 1690 0
-337 110 -451 1691 0
383 190 -392 1692 0
-312 251 108 1693 0
200 225 9 1694 0
-418 164 355 1695 0
-288 -208 -482 1696 0
-292 -108 365 1697 0
320 -493 26 1698 0
140 70 -302 1699 0
-213 42 -367 1700 0
158 -219 181 1701 0
-277 131 210 1702 0
339 -248 368 1703 0
-108 463 -204 1704 0
-186 395 421 1705 0
132 62 50 1706 0
-176 398 -236 1707 0
-69 -287 -423 1708 0
-245 358 -370 1709 0
153 -297 223 1710 0
92 246 46 1711 0
395 -15 -373 1712 0
489 89 343 1713 0
98 313 86 1714 0
468 -91 -308 1715 0
-46 -448 277 1716 0
408 94 500 1717 0
-380 78 394 1718 0
-197 426 391 1719 0
-187 -25 -334 1720 0
361 22 -381 1721 0
381 -57 -106 1722 0
-445 438 -426 1723 0
-224 236 -206 1724 0
389 -236 -99 1725 0
298 -260 -77 1726 0
188 -210 -62 1727 0
72 -422 -320 1728 0
198 147 -203 1729 0
-256 398 -316 1730 0
-30 -257 -230 1731 0
111 243 295 1732 0
-193 159 230 1733 0
223 346 134 1734 0
428 289 232 1735 0
-328 156 -181 1736 0
67 -452 103 1737 0
150 -235 -440 1738 0
220 -234 -250 1739 0
327 -438 -61 1740 0
120 -25 -61 1741 0
232 -168 -302 1742 0
-182 -282 250 1743 0
-110 13 164 1744 0
411 -186 176 1745 0
-457 142 -60 1746 0
-246 188 474 1747 0
-54 129 447 1748 0
-429 78 340 1749 0
313 259 322 1750 0
-190 -451 -372 1751 0
-288 -367 402 1752 0
204 343 329 1753 0
-418 172 354 1754 0
-254 -351 155 1755 0
139 112 331 1756 0
-171 -30 -461 1757 0
340 266 -262 1758 0
7 492 398 1759 0
420 -11 73 1760 0
-376 -245 -6 1761 0
102 345 45 1762 0
293 -86 133 1763 0
44 -250 -472 1764 0
34 187 -436 1765 0
-30 367 259 1766 0
11 32 381 1767 0
-121 -371 309 1768 0
240 375 97 1769 0
-219 -57 426 1770 0
271 -309 -15 1771 0
-300 330 -382 1772 0
-135 144 -31 1773 0
-141 462 384 1774 0
-405 452 -17 1775 0
349 228 -486 1776 0
-55 -257 -255 1777 0
-304 -322 59 1778 0
-491 297 -241 1779 0
352 210 -337 1780 0
114 -335 500 1781 0
-66 -349 -317 1782 0
455 225 -109 1783 0
-275 230 -96 1784 0
82 459 487 1785 0
228 15 -500 1786 0
-259 -224 -110 1787 0
-138 228 -61 1788 0
-102 -245 285 1789 0
-210 -63 -335 1790 0
308 -472 -143 1791 0
157 345 -384 1792 0
-165 -252 280 1793 0
441 -262 158 1794 0
-437 128 -194 1795 0
78 69 -321 1796 0
128 -349 -241 1797 0
47 411 77 1798 0
-409 -452 313 1799 0
9 199 148 1800 0
-482 390 -5 1801 0
-256 -350 176 1802 0
175 409 -325 1803 0
479 147 -345 1804 0
12 -342 114 1805 0
-453 360 127 1806 0
113 -116 -10 1807 0
-178 -83 414 1808 0
-27 365 63 1809 0
409 -108 -28 1810 0
491 -264 -175 1811 0
-8 -119 355 1812 0
267 22 -50 1813 0
-243 -20 -362 1814 0
313 317 199 1815 0
-299 57 -266 1816 0
-191 422 -208 1817 0
-53 170 367 1818 0
191 467 435 1819 0
-254 404 -167 1820 0
320 279 499 1821 0
-112 -221 24 1822 0
265 -339 450 1823 0
166 426 -268 1824 0
26 -412 142 1825 0
-242 267 -349 1826 0
-177 -93 -445 1827 0
-321 213 63 1828 0
-117 248 480 1829 0
179 -46 -334 1830 0
223 -162 352 1831 0
-457 -307 -273 1832 0
-144 -180 153 1833 0
148 -310 177 1834 0
74 -288 5 1835 0
-383 -173 468 1836 0
-44 257 266 1837 0
-373 333 108 1838 0
464 142 -234 1839 0
-82 356 140 1840 0
401 363 -379 1841 0
-259 213 106 1842 0
44 342 438 1843 0
87 -280 -341 1844 0
-455 -155 -261 1845 0
421 -264 -185 1846 0
-138 -392 -258 1847 0
-495 376 -398 1848 0
-198 -425 474 1849 0
-101 54 -114 1850 0
185 -371 -428 1851 0
76 315 -292 1852 0
-191 -99 -339 1853 0
146 461 -301 1854 0
-428 153 17 1855 0
-38 -379 56 1856 0
-4 39 195 1857 0
28 338 -39 1858 0
-499 -247 -25 1859 0
324 -70 -12 1860 0
-67 475 -379 1861 0
452 -297 165 1862 0
-169 71 214 1863 0
-305 -243 291 1864 0
396 -36 -500 1865 0
463 -128 -401 1866 0
-454 109 -124 1867 0
-109 314 40 1868 0
361 280 -23 1869 0
-480 375 -118 1870 0
287 -5 -466 1871 0
414 67 428 1872 0
164 -455 -411 1873 0
238 -30 159 1874 0
-236 -20 385 1875 0
-458 -181 83 1876 0
-361 -89 -296 1877 0
-317 1 -445 1878 0
294 191 -320 1879 0
-250 -374 359 1880 0
-291 114 -30 1881 0
-18 77 87 1882 0
-171 367 -285 1883 0
32 479 -341 1884 0
145 126 190 1885 0
188 219 113 1886 0
99 -417 299 1887 0
423 205 -355 1888 0
-403 75 198 1889 0
-180 -309 -115 1890 0
-447 55 118 1891 0
277 -323 -376 1892 0
381 -377 -282 1893 0
130 211 190 1894 0
-108 151 -274 1895 0
82 16 61 1896 0
419 -166 -180 1897 0
-58 158 433 1898 0
-28 -258 -480 1899 0
84 -178 -48 1900 0
-31 312 -325 1901 0
23 160 -242 1902 0
174 -166 363 1903 0
1 484 -17 1904 0
-246 280 -93 1905 0
59 87 151 1906 0
-87 142 -91 1907 0
15 484 28 1908 0
22 -183 241 1909 0
-169 -188 26 1910 0
-435 -93 193 1911 0
-459 -399 -465 1912 0
454 -402 243 1913 0
317 -90 380 1914 0
-148 201 -41 1915 0
363 185 72 1916 0
-472 -477 404 1917 0
-489 482 185 1918 0
-485 -345 -1 1919 0
27 -75 -11 1920 0
437 -1 260 1921 0
340 -206 -484 1922 0
-484 -480 87 1923 0
402 462 -63 1924 0
351 483 -16 1925 0
-438 377 -481 1926 0
462 -460 -214 1927 0
222 -415 247 1928 0
-177 -202 55 1929 0
121 405 -238 1930 0
-279 72 -366 1931 0
-185 -289 426 1932 0
-114 75 -326 1933 0
395 -52 -59 1934 0
-428 92 138 1935 0
-259 327 55 1936 0
220 156 -20 1937 0
87 64 -111 1938 0
212 488 435 1939 0
-182 208 -39 1940 0
196 63 88 1941 0
64 155 -226 1942 0
-385 -48 459 1943 0
240 -446 -152 1944 0
-54 -149 -275 1945 0
48 252 294 1946 0
316 305 -180 1947 0
-332 384 81 1948 0
-42 -296 -127 1949 0
456 -446 -157 1950 0
97 270 -42 1951 0
38 -148 75 1952 0
355 500 -339 1953 0
-350 -462 -171 1954 0
86 -90 142 1955 0
43 62 -292 1956 0
395 -146 321 1957 0
-402 -482 -333 1958 0
-51 29 486 1959 0
-95 319 257 1960 0
-54 -409 -236 1961 0
56 -447 108 1962 0
472 287 108 1963 0
-314 126 266 1964 0
263 -108 -458 1965 0
229 243 341 1966 0
-279 -176 -245 1967 0
63 -285 18 1968 0
40 -328 296 1969 0
-496 249 265 1970 0
277 369 421 1971 0
57 -62 27 1972 0
324 121 -362 1973 0
-478 425 -304 1974 0
-271 -387 -198 1975 0
-283 104 422 1976 0
225 60 -119 1977 0
-150 445 495 1978 0
163 161 -351 1979 0
128 -85 -399 1980 0
-262 92 44 1981 0
388 -499 -475 1982 0
-20 30 -397 1983 0
99 -367 -338 1984 0
242 110 -376 1985 0
488 -419 -402 1986 0
-487 -125 -104 1987 0
-345 -31 -401 1988 0
247 -354 -85 1989 0
491 381 -153 1990 0
201 -166 -417 1991 0
-424 174 35 1992 0
-137 -1 -50 1993 0
-458 374 -345 1994 0
-46 -488 149 1995 0
-81 155 225 1996 0
-30 376 -216 1997 0
397 -361 187 1998 0
-356 196 201 1999 0
-349 -47 291 2000 0
-20 -368 -275 2001 0
277 -246 -140 2002 0
-357 276 397 2003 0
215 -169 159 2004 0
241 265 -180 2005 0
-218 150 -95 2006 0
409 -63 188 2007 0
-12 -132 -108 2008 0
-370 -9 242 2009 0
157 216 188 2010 0
-226 -210 126 2011 0
171 347 -276 2012 0
-377 140 -290 2013 0
-202 55 -133 2014 0
493 -233 -141 2015 0
-325 187 116 2016 0
215 304 -47 2017 0
10 454 264 2018 0
180 175 223 2019 0
417 -259 228 2020 0
-260 111 472 2021 0
-105 -143 113 2022 0
283 -198 -64 2023 0
358 66 -286 2024 0
409 171 385 2025 0
139 -487 -210 2026 0
-499 235 -395 2027 0
-102 316 -116 2028 0
126 293 199 2029 0
-477 -268 377 2030 0
-399 184 321 2031 0
-295 -113 115 2032 0
114 -381 32 2033 0
247 -87 190 2034 0
342 499 399 2035 0
-433 -408 -326 2036 0
355 -184 -241 2037 0
-66 -46 -202 2038 0
276 -12 -162 2039 0
-129 -68 66 2040 0
-319 450 -104 2041 0
-375 -134 320 2042 0
133 -490 -321 2043 0
326 -225 -288 2044 0
185 -98 -398 2045 0
-353 -309 -105 2046 0
20 -378 48 2047 0
372 -48 143 2048 0
34 401 -485 2049 0
-32 -260 148 2050 0
-269 -410 -353 2051 0
49 -282 -252 2052 0
229 -378 340 2053 0
-353 29 -106 2054 0
185 50 -280 2055 0
382 394 237 2056 0
-257 -470 74 2057 0
388 -393 -440 2058 0
-272 -199 -372 2059 0
209 138 385 2060 0
453 126 193 2061 0
292 91 -382 2062 0
-452 -10 -43 2063 0
43 347 111 2064 0
-8 -481 490 2065 0
-193 496 394 2066 0
217 309 184 2067 0
-384 48 -9 2068 0
146 95 -477 2069 0
-290 -402 163 2070 0
-228 479 324 2071 0
118 -270 416 2072 0
68 -99 -131 2073 0
-315 -317 -294 2074 0
-373 296 -463 2075 0
432 -481 491 2076 0
-277 -310 254 2077 0
-307 430 -282 2078 0
-323 -189 34 2079 0
-197 285 -97 2080 0
-174 423 341 2081 0
-206 -54 282 2082 0
69 10 417 2083 0
286 414 55 2084 0
-383 284 177 2085 0
99 -349 -144 2086 0
-423 40 236 2087 0
-480 348 -199 2088 0
376 -405 276 2089 0
70 50 -303 2090 0
375 -385 58 2091 0
217 299 455 2092 0
191 333 142 2093 0
439 -365 -87 2094 0
-309 -50 -392 2095 0
479 -388 134 2096 0
-457 -427 -396 2097 0
224 -102 -418 2098 0
233 83 -82 2099 0
-134 -405 -498 2100 0
-32 199 -136 2101 0
-364 489 -487 2102 0
324 284 385 2103 0
63 -455 46 2104 0
183 236 -339 2105 0
-63 139 -455 2106 0
111 -17 445 2107 0
407 87 -334 2108 0
-440 353 -343 2109 0
-290 249 -197 2110 0
372 332 410 2111 0
-164 500 449 2112 0
325 256 -319 2113 0
416 440 -252 2114 0
-377 -333 178 2115 0
499 -494 348 2116 0
22 174 110 2117 0
437 -343 -230 2118 0
-406 -403 181 2119 0
417 232 149 2120 0
-54 -80 200 2121 0
-304 451 322 2122 0
-294 500 -432 2123 0
-216 -214 -434 2124 0
-400 269 161 2125 0
-447 -106 -204 2126 0
-139 -314 -214 2127 0
-134 -466 446 2128 0
-174 -1 288 2129 0
467 371 -301 2130 0
186 -388 -79 2131 0
-409 416 -151 2132 0
193 -206 -207 2133 0
-453 -63 -18 2134 0
-352 129 235 2135 0
-339 -194 -300 2136 0
-146 -433 -282 2137 0
185 19 342 2138 0
-474 290 -406 2139 0
-449 175 53 2140 0
197 20 106 2141 0
222 -465 -51 2142 0
175 163 212 2143 0
-235 283 220 2144 0
-459 485 -255 2145 0
-336 -193 371 2146 0
54 337 -101 2147 0
-454 28 -277 2148 0
-179 372 -420 2149 0
32 225 64 2150 0
311 -345 382 2151 0
-356 166 396 2152 0
172 410 401 2153 0
-176 -95 166 2154 0
474 153 -79 2155 0
155 61 387 2156 0
-446 -448 -15 2157 0
382 -22 -246 2158 0
387 -184 -441 2159 0
-84 194 34 2160 0
-70 -339 278 2161 0
407 394 -147 2162 0
425 208 18 2163 0
363 190 286 2164 0
473 363 136 2165 0
-201 -364 -13 2166 0
-333 20 -381 2167 0
-353 111 245 2168 0
71 -50 244 2169 0
-119 313 -498 2170 0
65 330 268 2171 0
-398 191 -99 2172 0
115 -370 -414 2173 0
-71 415 303 2174 0
-311 -375 -178 2175 0
-135 51 -59 2176 0
197 -30 -324 2177 0
144 -385 188 2178 0
-439 -136 -399 2179 0
-306 -245 99 2180 0
367 -295 473 2181 0
156 132 130 2182 0
386 440 -377 2183 0
371 175 28 2184 0
-66 -336 -193 2185 0
-175 366 -451 2186 0
408 165 24 2187 0
17 -498 70 2188 0
-69 10 -338 2189 0
33 -289 448 2190 0
241 -273 -211 2191 0
-406 364 -481 2192 0
-469 18 -445 2193 0
-397 -77 40 2194 0
375 -494 -469 2195 0
-213 39 356 2196 0
156 -238 -302 2197 0
-250 405 419 2198 0
-318 22 123 2199 0
138 -321 -373 2200 0
481 365 -269 2201 0
295 -468 299 2202 0
234 129 -132 2203 0
-59 443 -451 2204 0
-165 -139 -78 2205 0
-257 -12 -300 2206 0
-285 243 169 2207 0
-272 124 209 2208 0
231 109 -390 2209 0
488 26 -287 2210 0
-203 -252 422 2211 0
-177 224 -60 2212 0
66 -362 -440 2213 0
-365 350 183 2214 0
375 -429 -213 2215 0
205 -164 -376 2216 0
-403 451 -429 2217 0
376 50 -357 2218 0
-498 42 -437 2219 0
-241 15 122 2220 0
135 214 -206 2221 0
-352 -323 -110 2222 0
-27 -131 -351 2223 0
93 427 98 2224 0
-493 -358 297 2225 0
-274 -204 -259 2226 0
173 352 -93 2227 0
-334 -37 138 2228 0
-347 -434 -413 2229 0
264 186 -474 2230 0
115 477 159 2231 0
-480 -249 -351 2232 0
105 31 -81 2233 0
-357 -333 76 2234 0
174 455 144 2235 0
-470 -206 -228 2236 0
-463 -442 122 2237 0
-345 -28 -332 2238 0
-207 -482 -64 2239 0
153 -291 35 2240 0
-483 194 263 2241 0
25 -140 285 2242 0
-272 -322 50 2243 0
361 105 -115 2244 0
-422 -102 -217 2245 0
82 -485 460 2246 0
11 339 -294 2247 0
488 -124 355 2248 0
316 -106 -470 2249 0
288 -467 457 2250 0
-134 8 75 2251 0
33 323 136 2252 0
-162 241 95 2253 0
-153 -461 -99 2254 0
111 198 163 2255 0
-158 -212 213 2256 0
-372 111 250 2257 0
-192 56 260 2258 0
307 -298 -246 2259 0
-208 -248 -474 2260 0
473 187 -160 2261 0
-4 -275 369 2262 0
-50 12 -409 2263 0
-316 -435 -407 2264 0
-55 -138 308 2265 0
92 -425 -303 2266 0
-108 410 177 2267 0
152 -256 338 2268 0
-374 194 -89 2269 0
-314 495 393 2270 0
198 -351 266 2271 0
-395 173 417 2272 0
-407 156 152 2273 0
-258 -332 78 2274 0
266 -289 494 2275 0
-400 -56 207 2276 0
429 -316 -404 2277 0
-342 272 380 2278 0
460 -340 -194 2279 0
-216 -278 209 2280 0
400 -490 432 2281 0
222 -466 150 2282 0
-59 477 242 2283 0
485 260 -86 2284 0
-273 106 472 2285 0
13 -50 14 2286 0
345 -339 -148 2287 0
-246 -442 -10 2288 0
-192 154 263 2289 0
316 46 230 2290 0
258 -155 3 2291 0
-317 281 298 2292 0
-54 458 480 2293 0
-49 353 96 2294 0
145 -199 -236 2295 0
461 -424 -286 2296 0
405 484 209 2297 0
150 -294 -152 2298 0
259 443 -463 2299 0
388 -459 -201 2300 0
-418 -267 -454 2301 0
463 -103 -139 2302 0
2 17 292 2303 0
-228 -441 -89 2304 0
-472 162 380 2305 0
-162 216 444 2306 0
-399 42 54 2307 0
-212 422 -325 2308 0
216 -268 8 2309 0
280 -364 45 2310 0
-410 -87 220 2311 0
-448 164 -341 2312 0
182 423 323 2313 0
99 251 32 2314 0
-262 -284 -252 2315 0
-404 80 -267 2316 0
365 63 -436 2317 0
493 344 275 2318 0
197 -422 -233 2319 0
-489 260 -394 2320 0
430 -171 -223 2321 0
-307 215 168 2322 0
138 266 263 2323 0
169 445 181 2324 0
-474 -122 302 2325 0
-300 -32 464 2326 0
268 441 -367 2327 0
-186 9 190 2328 0
220 -457 300 2329 0
77 56 131 2330 0
326 -153 -50 2331 0
-473 291 -36 2332 0
59 -467 242 2333 0
-240 153 100 2334 0
-76 44 72 2335 0
144 461 -396 2336 0
-381 -494 131 2337 0
118 -55 -394 2338 0
432 74 -149 2339 0
357 -454 479 2340 0
402 3 63 2341 0
-55 447 -496 2342 0
-386 347 -93 2343 0
-151 178 76 2344 0
169 -40 -143 2345 0
-233 -457 193 2346 0
-266 -9 5 2347 0
-481 201 -436 2348 0
-114 -111 -303 2349 0
-115 -436 -258 2350 0
-498 432 488 2351 0
104 453 481 2352 0
-64 163 485 2353 0
32 -343 124 2354 0
-258 -54 -252 2355 0
-89 -258 -198 2356 0
456 354 344 2357 0
-367 -2 -97 2358 0
-388 7 373 2359 0
299 -74 43 2360 0
46 -83 -88 2361 0
-235 264 -428 2362 0
-406 8 -110 2363 0
-406 18 415 2364 0
28 -339 -58 2365 0
-436 169 -471 2366 0
-388 -68 -108 2367 0
401 -425 -280 2368 0
-270 -327 -223 2369 0
146 181 -489 2370 0
-227 -485 355 2371 0
-168 -207 -36 2372 0
153 -89 61 2373 0
321 -224 355 2374 0
-290 -156 65 2375 0
-472 -58 187 2376 0
451 418 -369 2377 0
451 -274 -139 2378 0
262 -447 330 2379 0
-377 -307 -68 2380 0
462 473 -114 2381 0
-294 -25 -391 2382 0
50 -172 452 2383 0
-68 -159 100 2384 0
437 246 415 2385 0
-137 282 45 2386 0
-231 290 -75 2387 0
469 -98 -75 2388 0
-301 280 -173 2389 0
88 -446 -54 2390 0
-105 -166 386 2391 0
40 -499 -9 2392 0
-281 -52 -127 2393 0
394 440 57 2394 0
-484 -87 -256 2395 0
-170 37 7 2396 0
-246 -78 448 2397 0
-72 -442 -101 2398 0
-305 -125 -429 2399 0
-212 323 181 2400 0
-419 352 -360 2401 0
-341 -137 -314 2402 0
-184 294 -133 2403 0
-261 -345 496 2404 0
-127 153 357 2405 0
302 -422 174 2406 0
-433 13 -432 2407 0
-92 420 314 2408 0
259 219 36 2409 0
6 -339 129 2410 0
-481 -233 327 2411 0
455 480 -411 2412 0
216 -488 250 2413 0
217 272 209 2414 0
-93 -216 -294 2415 0
-309 -496 -6 2416 0
-304 -65 270 2417 0
342 379 -333 2418 0
132 -306 -246 2419 0
-37 319 -395 2420 0
-108 401 -206 2421 0
-29 17 143 2422 0
190 -120 -249 2423 0
-488 321 -401 2424 0
-407 385 255 2425 0
-320 -157 -112 2426 0
230 -324 119 2427 0
383 -117 -368 2428 0
-223 -183 -161 2429 0
471 32 124 2430 0
342 -129 -190 2431 0
-378 -282 -3 2432 0
-258 431 -354 2433 0
324 -78 -234 2434 0
-269 167 218 2435 0
-3 -433 364 2436 0
368 -199 367 2437 0
25 335 86 2438 0
381 -144 -122 2439 0
-214 -451 -333 2440 0
325 -311 -204 2441 0
464 -445 -382 2442 0
-292 355 -20 2443 0
-337 -160 -85 2444 0
365 -402 -160 2445 0
-74 -75 120 2446 0
-106 -235 -383 2447 0
471 -197 -211 2448 0
-469 -109 -292 2449 0
-251 -98 -182 2450 0
-73 -390 -334 2451 0
122 275 -422 2452 0
-196 468 -135 2453 0
321 -160 -423 2454 0
-35 -393 -12 2455 0
-344 374 -66 2456 0
111 18 181 2457 0
343 -130 141 2458 0
334 -279 -99 2459 0
-122 -23 331 2460 0
-121 -4 -425 2461 0
286 10 225 2462 0
5 68 82 2463 0
-469 454 -59 2464 0
-65 124 113 2465 0
-32 -188 -272 2466 0
259 63 340 2467 0
-413 224 78 2468 0
-379 405 -28 2469 0
217 86 -207 2470 0
-429 46 313 2471 0
403 -70 -98 2472 0
254 122 -311 2473 0
198 -48 -288 2474 0
414 -43 20 2475 0
-407 447 -489 2476 0
-415 151 -259 2477 0
258 -428 -437 2478 0
231 -16 26 2479 0
-74 -343 -173 2480 0
142 35 -322 2481 0
37 -229 3 2482 0
-485 40 218 2483 0
-399 484 137 2484 0
-51 241 -300 2485 0
206 333 19 2486 0
220 -78 -344 2487 0
-105 413 -42 2488 0
-342 -50 -381 2489 0
-330 -450 -87 2490 0
-475 75 249 2491 0
-493 -114 26 2492 0
71 -205 -79 2493 0
308 -129 -157 2494 0
366 99 252 2495 0
-469 -21 -217 2496 0
-449 -359 19 2497 0
448 457 -474 2498 0
215 -174 448 2499 0
364 342 49 2500 0
-496 133 315 2501 0
298 257 -382 2502 0
-288 -142 52 2503 0
-326 325 316 2504 0
129 -298 175 2505 0
360 112 146 2506 0
-116 -26 -66 2507 0
69 354 -91 2508 0
46 338 258 2509 0
344 -235 173 2510 0
-59 -34 404 2511 0
-390 -450 357 2512 0
322 169 402 2513 0
-467 -29 465 2514 0
128 -351 -470 2515 0
-378 209 -300 2516 0
6 124 392 2517 0
365 443 -43 2518 0
-25 -482 492 2519 0
236 84 -189 2520 0
423 -482 -229 2521 0
-298 149 102 2522 0
-76 -365 434 2523 0
323 -291 -115 2524 0
186 261 286 2525 0
-323 467 -275 2526 0
295 471 -179 2527 0
417 359 -159 2528 0
-287 141 96 2529 0
-182 444 -208 2530 0
53 -319 -56 2531 0
-32 -307 -236 2532 0
-257 -321 -235 2533 0
-217 -24 -368 2534 0
419 -214 -425 2535 0
-190 -414 132 2536 0
212 -458 -200 2537 0
297 61 -120 2538 0
84 219 -317 2539 0
-126 351 -453 2540 0
-409 44 284 2541 0
51 -47 413 2542 0
-31 -425 91 2543 0
-1 107 -225 2544 0
445 -236 -309 2545 0
252 -292 380 2546 0
-406 -391 327 2547 0
-147 -124 -363 2548 0
496 131 297 2549 0
407 -361 -240 2550 0
-27 132 317 2551 0
92 -375 -41 2552 0
255 139 -399 2553 0
-100 403 -31 2554 0
321 385 -369 2555 0
-399 -92 -386 2556 0
372 235 -243 2557 0
444 115 11 2558 0
168 265 -160 2559 0
433 81 -160 2560 0
193 -300 397 2561 0
-193 367 -41 2562 0
182 354 102 2563 0
246 400 425 2564 0
385 -424 -331 2565 0
413 -7 219 2566 0
234 305 -116 2567 0
355 467 -289 2568 0
93 -54 115 2569 0
425 313 407 2570 0
154 138 182 2571 0
247 293 199 2572 0
-184 -98 365 2573 0
-77 82 -147 2574 0
-139 -421 374 2575 0
171 -417 -214 2576 0
-388 144 -257 2577 0
-194 123 314 2578 0
200 467 291 2579 0
-88 7 245 2580 0
92 59 366 2581 0
-152 -275 -236 2582 0
-24 -273 174 2583 0
248 -399 491 2584 0
-106 -461 -494 2585 0
410 5 -312 2586 0
-326 -462 -236 2587 0
221 -374 -465 2588 0
430 -219 339 2589 0
-454 427 30 2590 0
-155 -187 -490 2591 0
370 -278 -35 2592 0
-330 -192 -167 2593 0
453 306 295 2594 0
-50 -99 477 2595 0
-309 57 285 2596 0
-363 40 322 2597 0
88 281 -199 2598 0
219 -62 -380 2599 0
-340 -2 239 2600 0
-130 241 -251 2601 0
447 356 -300 2602 0
64 -409 -364 2603 0
-116 254 -64 2604 0
57 437 -148 2605 0
23 -282 -401 2606 0
-494 40 209 2607 0
457 -199 492 2608 0
-129 -75 355 2609 0
463 24 3 2610 0
-204 499 -183 2611 0
-253 -164 -188 2612 0
-34 54 -149 2613 0
-154 -150 -436 2614 0
321 54 416 2615 0
318 -427 343 2616 0
223 99 -133 2617 0
335 77 56 2618 0
-489 165 -480 2619 0
102 158 405 2620 0
329 -412 -26 2621 0
182 -221 -431 2622 0
87 118 -401 2623 0
127 -326 -430 2624 0
-83 -350 290 2625 0
-135 -122 476 2626 0
-26 146 412 2627 0
-377 -404 -243 2628 0
-356 -401 234 2629 0
326 458 -250 2630 0
311 371 -125 2631 0
426 -4 317 2632 0
350 106 203 2633 0
-69 -196 -99 2634 0
38 -58 -293 2635 0
16 172 -271 2636 0
-301 268 381 2637 0
-153 473 -400 2638 0
-493 182 255 2639 0
76 -203 220 2640 0
-96 -140 34 2641 0
5 121 -103 2642 0
-46 322 -264 2643 0
-224 -299 487 2644 0
-375 438 231 2645 0
-222 -284 297 2646 0
210 444 -318 2647 0
349 -173 229 2648 0
-415 165 83 2649 0
392 -204 377 2650 0
