p cnf 2650 2150
115 310 479 501 0
73 39 -246 502 0
-474 -308 445 503 0
-196 244 -275 504 0
-274 -364 61 505 0
500 204 -351 506 0
134 140 301 507 0
335 61 103 508 0
-68 -193 220 509 0
-259 70 -331 510 0
-53 -361 209 511 0
-455 432 -145 512 0
-92 -38 195 513 0
-348 205 -33 514 0
-91 -490 406 515 0
445 -46 421 516 0
-309 486 -85 517 0
230 -262 -463 518 0
378 -39 -27 519 0
-223 211 -139 520 0
468 -357 -400 521 0
339 -448 -45 522 0
-221 -442 392 523 0
389 -59 458 524 0
-348 -485 -277 525 0
393 466 247 526 0
-146 304 352 527 0
-451 191 357 528 0
-407 -281 35 529 0
307 450 -493 530 0
108 304 455 531 0
-447 -360 474 532 0
138 -225 -351 533 0
-60 116 -105 534 0
369 -188 148 535 0
-284 -262 139 536 0
143 -31 436 537 0
246 -373 365 538 0
500 -290 -51 539 0
-457 -416 -300 540 0
257 379 364 541 0
23 -197 346 542 0
456 -245 163 543 0
373 -460 370 544 0
431 -442 -84 545 0
165 -449 -282 546 0
-251 -439 -476 547 0
-221 71 45 548 0
-255 331 116 549 0
-346 2 -394 550 0
220 -300 -409 551 0
-481 427 -356 552 0
91 -178 -259 553 0
441 -119 363 554 0
-201 -280 -362 555 0
-111 -59 175 556 0
484 65 -350 557 0
207 43 -292 558 0
-453 -240 244 559 0
-134 229 -349 560 0
-245 289 67 561 0
266 449 141 562 0
310 167 -284 563 0
334 -473 136 564 0
-231 349 351 565 0
-467 421 -325 566 0
-484 -402 5 567 0
348 -109 449 568 0
358 -441 -27 569 0
167 30 -168 570 0
-282 354 -341 571 0
397 227 -98 572 0
-225 -188 -462 573 0
-241 336 -365 574 0
305 90 -368 575 0
95 -135 -334 576 0
225 463 233 577 0
127 -111 -373 578 0
332 -89 -237 579 0
411 -494 325 580 0
285 431 -184 581 0
479 -295 319 582 0
-366 -349 -29 583 0
-385 166 -186 584 0
-178 -425 -32 585 0
-191 234 -364 586 0
294 -130 87 587 0
499 -154 177 588 0
382 -419 -266 589 0
-59 371 -336 590 0
-77 288 -157 591 0
22 -243 266 592 0
-39 -263 -308 593 0
-231 -259 -373 594 0
-33 -9 338 595 0
-124 215 -19 596 0
-189 -127 -37 597 0
-288 -301 162 598 0
302 97 -215 599 0
-51 349 45 600 0
-452 482 -232 601 0
270 420 372 602 0
-37 -390 -489 603 0
236 44 357 604 0
-385 268 -342 605 0
-214 -143 499 606 0
-397 -78 412 607 0
-489 374 -350 608 0
-203 379 -64 609 0
281 -271 -214 610 0
-355 39 -41 611 0
422 -129 144 612 0
384 499 233 613 0
-489 219 -67 614 0
-14 -77 -266 615 0
-428 299 442 616 0
44 65 -272 617 0
-364 463 143 618 0
-328 197 -153 619 0
119 440 275 620 0
-149 -241 -77 621 0
214 492 463 622 0
-250 -39 -349 623 0
300 -334 -281 624 0
-152 325 -47 625 0
404 133 -236 626 0
202 64 387 627 0
-376 155 429 628 0
21 486 432 629 0
198 130 500 630 0
185 -121 -343 631 0
-4 -392 -181 632 0
-297 -469 -71 633 0
-256 22 144 634 0
-6 -182 -52 635 0
-278 84 127 636 0
-494 329 -378 637 0
-395 -463 231 638 0
23 469 -376 639 0
-494 54 -77 640 0
-171 249 277 641 0
-343 -281 -143 642 0
171 389 -259 643 0
-178 200 -363 644 0
-202 -424 -478 645 0
257 -111 281 646 0
310 -288 -275 647 0
474 -498 485 648 0
366 -308 -399 649 0
107 38 -28 650 0
-401 83 287 651 0
-399 143 78 652 0
-434 -446 170 653 0
-415 211 343 654 0
446 101 -156 655 0
-492 25 -484 656 0
327 19 388 657 0
284 191 82 658 0
326 -494 392 659 0
309 -439 380 660 0
-380 -69 407 661 0
388 -193 44 662 0
151 231 328 663 0
47 -27 6 664 0
60 49 152 665 0
-76 -17 -194 666 0
-22 -209 -429 667 0
-192 -251 460 668 0
-30 423 -25 669 0
-452 -311 121 670 0
283 375 -158 671 0
481 -19 -245 672 0
-149 439 -444 673 0
-497 -32 90 674 0
176 365 -273 675 0
19 42 266 676 0
227 51 -207 677 0
27 13 415 678 0
-262 443 459 679 0
-481 -489 302 680 0
497 -109 -480 681 0
-180 373 -444 682 0
421 -279 -349 683 0
80 -145 -415 684 0
-420 -39 469 685 0
113 -412 414 686 0
-33 237 111 687 0
-169 -407 -189 688 0
-361 -415 122 689 0
-101 -107 112 690 0
-106 -2 -47 691 0
-379 7 180 692 0
270 158 -60 693 0
279 451 -290 694 0
199 -414 -125 695 0
252 192 -35 696 0
-257 98 -210 697 0
-328 291 -324 698 0
500 -240 -368 699 0
131 157 -385 700 0
-379 -238 347 701 0
-275 466 -126 702 0
-73 -38 -460 703 0
-263 34 -410 704 0
425 458 -212 705 0
480 79 -338 706 0
427 244 -266 707 0
485 202 184 708 0
-338 -426 10 709 0
41 -321 -460 710 0
-396 393 113 711 0
416 -216 -312 712 0
246 50 147 713 0
-214 172 -193 714 0
-133 281 -211 715 0
183 -356 163 716 0
266 -117 -226 717 0
-243 -167 333 718 0
-61 361 -137 719 0
183 204 366 720 0
-101 -355 13 721 0
-331 20 -489 722 0
114 10 -17 723 0
427 -111 168 724 0
-141 -279 -446 725 0
-321 295 18 726 0
487 8 56 727 0
-139 -272 2 728 0
-442 -110 -336 729 0
-191 -64 -205 730 0
234 -89 225 731 0
37 318 -252 732 0
273 189 19 733 0
-306 -190 -278 734 0
76 -59 175 735 0
-216 411 16 736 0
-174 -407 -139 737 0
388 357 410 738 0
467 -299 -180 739 0
120 439 365 740 0
64 14 -33 741 0
-74 -162 -28 742 0
-449 -42 -116 743 0
-23 157 -312 744 0
79 171 98 745 0
328 -218 -274 746 0
-267 -287 281 747 0
-393 -138 -377 748 0
-345 -360 -22 749 0
-216 385 81 750 0
-276 -175 -404 751 0
-23 -301 152 752 0
-41 491 382 753 0
62 158 -371 754 0
-386 -499 393 755 0
373 -172 491 756 0
299 414 -12 757 0
-220 40 483 758 0
246 277 -18 759 0
-497 -342 -8 760 0
191 288 490 761 0
350 -202 -446 762 0
385 -420 77 763 0
-34 306 -66 764 0
-444 -350 -485 765 0
-463 -28 -17 766 0
249 197 443 767 0
354 327 426 768 0
473 -140 -232 769 0
467 282 -450 770 0
-371 496 -342 771 0
-185 -451 -378 772 0
-256 312 -29 773 0
-267 -135 479 774 0
-11 -76 317 775 0
143 -477 152 776 0
7 -373 -478 777 0
-180 178 -360 778 0
-309 -75 -234 779 0
42 -18 -423 780 0
-25 351 -430 781 0
172 254 -406 782 0
-224 -203 -309 783 0
-285 346 -149 784 0
-22 -362 -320 785 0
-29 -147 -269 786 0
-465 187 -138 787 0
-247 459 -14 788 0
-43 -345 80 789 0
122 464 345 790 0
122 -188 -358 791 0
-78 138 -205 792 0
-30 183 -255 793 0
-215 -80 -160 794 0
351 -424 488 795 0
59 -242 367 796 0
-157 -194 389 797 0
-471 199 175 798 0
39 -106 349 799 0
263 98 204 800 0
-367 481 132 801 0
-304 266 50 802 0
-247 355 19 803 0
-73 -342 -69 804 0
125 -144 -419 805 0
-169 463 -150 806 0
285 -409 348 807 0
19 382 434 808 0
-90 438 -310 809 0
362 165 93 810 0
-83 129 -408 811 0
396 -129 148 812 0
337 -288 -329 813 0
420 -91 -225 814 0
85 456 210 815 0
-473 430 -420 816 0
-477 -434 241 817 0
-110 341 14 818 0
451 -298 -47 819 0
53 107 121 820 0
211 208 -277 821 0
57 222 474 822 0
372 -58 -155 823 0
22 338 315 824 0
-500 103 31 825 0
389 239 314 826 0
33 187 -485 827 0
-332 465 424 828 0
13 194 -231 829 0
-238 -195 392 830 0
-11 -156 -87 831 0
-471 -207 -409 832 0
58 75 112 833 0
-5 -24 456 834 0
41 491 -50 835 0
21 173 -139 836 0
-69 452 387 837 0
5 -40 -130 838 0
-95 -404 356 839 0
-139 418 213 840 0
-331 -79 -298 841 0
495 -169 320 842 0
-290 -143 -52 843 0
-440 -49 13 844 0
361 115 -156 845 0
121 496 -232 846 0
19 169 55 847 0
-332 232 -178 848 0
305 -385 54 849 0
143 -114 8 850 0
59 -470 -77 851 0
56 -260 -417 852 0
-126 -498 151 853 0
-161 286 70 854 0
151 -329 -263 855 0
-235 122 -217 856 0
-13 -15 -7 857 0
-67 -232 -309 858 0
379 141 -235 859 0
384 -303 237 860 0
-354 -137 -223 861 0
427 -392 37 862 0
195 -473 -73 863 0
-196 409 267 864 0
-371 338 -235 865 0
160 459 323 866 0
-10 -484 342 867 0
-370 -191 167 868 0
20 -51 -19 869 0
-479 17 206 870 0
-440 287 381 871 0
-51 -199 24 872 0
79 328 226 873 0
351 -488 387 874 0
71 -367 485 875 0
117 -214 374 876 0
-282 467 -113 877 0
-42 -167 230 878 0
361 411 26 879 0
-373 46 492 880 0
88 -216 -201 881 0
-296 20 214 882 0
1 -332 183 883 0
158 -363 -334 884 0
168 -375 -377 885 0
-256 -274 -422 886 0
-494 39 -193 887 0
-267 114 -413 888 0
166 -2 146 889 0
-71 -43 388 890 0
-72 189 -17 891 0
-309 -403 336 892 0
168 -387 -131 893 0
359 -218 -435 894 0
229 -185 -141 895 0
-471 282 -135 896 0
-86 -320 114 897 0
273 91 392 898 0
83 336 -178 899 0
-110 409 180 900 0
-168 211 -378 901 0
87 -262 -362 902 0
-190 -205 433 903 0
-465 -265 472 904 0
464 -371 -419 905 0
482 205 449 906 0
496 -28 -451 907 0
-62 -110 -26 908 0
200 346 289 909 0
382 -60 -260 910 0
357 -282 55 911 0
-90 195 -14 912 0
-488 233 -31 913 0
134 -21 -451 914 0
-152 462 53 915 0
399 234 -364 916 0
15 -83 -327 917 0
-258 -341 288 918 0
-126 -389 -270 919 0
99 370 -416 920 0
80 -139 229 921 0
-211 359 232 922 0
348 16 -330 923 0
-327 -288 153 924 0
-371 -201 115 925 0
204 31 -33 926 0
-84 327 366 927 0
-13 -282 -253 928 0
194 -91 196 929 0
325 381 123 930 0
414 293 445 931 0
-417 131 -353 932 0
159 215 4 933 0
4 414 -360 934 0
379 103 -221 935 0
268 339 275 936 0
449 48 -185 937 0
204 -453 -8 938 0
358 -427 -287 939 0
61 233 -34 940 0
1 -416 83 941 0
454 208 416 942 0
-291 -111 -377 943 0
-63 -151 -482 944 0
-295 -277 178 945 0
292 -323 -358 946 0
160 446 277 947 0
-459 -1 5 948 0
-206 463 493 949 0
-251 431 -496 950 0
-353 -227 3 951 0
329 293 471 952 0
-468 26 207 953 0
-351 483 -170 954 0
-460 292 -284 955 0
62 -196 -41 956 0
188 -431 -291 957 0
-124 -352 -310 958 0
208 -67 -131 959 0
123 264 -188 960 0
194 -311 261 961 0
41 129 -471 962 0
182 190 426 963 0
191 258 -97 964 0
-367 -491 490 965 0
-8 162 65 966 0
206 387 -148 967 0
-19 3 14 968 0
367 253 -173 969 0
-356 426 -440 970 0
-430 -188 420 971 0
199 118 281 972 0
-66 53 427 973 0
32 305 -397 974 0
408 287 389 975 0
213 -261 381 976 0
166 76 461 977 0
-448 100 63 978 0
487 454 100 979 0
41 70 -36 980 0
-31 -421 -169 981 0
-234 -395 372 982 0
-242 481 60 983 0
-344 -20 275 984 0
475 433 335 985 0
150 388 87 986 0
144 -456 126 987 0
100 -128 161 988 0
-52 383 -226 989 0
30 -83 347 990 0
-65 203 -198 991 0
377 -28 253 992 0
-166 485 164 993 0
287 -214 -367 994 0
407 -242 246 995 0
248 -129 73 996 0
-92 233 -380 997 0
-412 352 184 998 0
373 -118 60 999 0
-192 -69 -191 1000 0
39 -449 -262 1001 0
-27 270 -84 1002 0
23 209 277 1003 0
21 -396 -197 1004 0
225 61 56 1005 0
250 420 -418 1006 0
229 323 223 1007 0
489 142 -492 1008 0
494 -485 -134 1009 0
-300 -104 262 1010 0
39 261 -73 1011 0
249 404 35 1012 0
152 21 -166 1013 0
-391 289 281 1014 0
395 149 -302 1015 0
33 -238 136 1016 0
248 -147 -2 1017 0
167 212 -127 1018 0
-149 365 -214 1019 0
-274 297 -183 1020 0
431 174 -370 1021 0
-367 -483 -117 1022 0
232 89 -159 1023 0
-191 64 120 1024 0
420 -484 -52 1025 0
60 -249 -179 1026 0
-317 112 301 1027 0
-11 -448 375 1028 0
-469 288 -350 1029 0
422 -320 391 1030 0
95 -469 423 1031 0
-458 -441 -339 1032 0
456 256 230 1033 0
-358 -38 119 1034 0
289 417 -492 1035 0
-237 372 83 1036 0
-255 -407 403 1037 0
-275 -46 450 1038 0
210 -106 -301 1039 0
472 -275 -305 1040 0
-120 -187 -45 1041 0
409 445 98 1042 0
343 462 447 1043 0
-37 84 308 1044 0
-352 171 400 1045 0
-302 -72 -263 1046 0
48 448 -401 1047 0
-416 290 -66 1048 0
-358 58 -286 1049 0
236 -221 -254 1050 0
-350 306 440 1051 0
-259 107 -226 1052 0
9 -283 -280 1053 0
12 -71 268 1054 0
-246 36 357 1055 0
-498 117 -104 1056 0
375 180 -216 1057 0
-418 372 330 1058 0
40 174 51 1059 0
-338 -197 -143 1060 0
-140 33 -446 1061 0
43 171 39 1062 0
-182 59 -288 1063 0
58 299 60 1064 0
431 297 -292 1065 0
-498 -75 -164 1066 0
-178 -96 -223 1067 0
120 455 -305 1068 0
-46 291 239 1069 0
40 -380 66 1070 0
7 313 -462 1071 0
168 -467 -382 1072 0
210 -24 435 1073 0
268 -313 376 1074 0
-152 -86 221 1075 0
-449 85 226 1076 0
261 -185 485 1077 0
-68 -239 -468 1078 0
-375 -372 -67 1079 0
251 -53 50 1080 0
25 188 161 1081 0
-237 59 28 1082 0
-269 36 -305 1083 0
-428 284 168 1084 0
-112 465 -423 1085 0
465 211 -29 1086 0
-400 -388 406 1087 0
-122 -459 218 1088 0
131 275 450 1089 0
-250 -480 -226 1090 0
-124 -283 -475 1091 0
191 -278 -358 1092 0
-436 -137 -329 1093 0
86 -50 -264 1094 0
161 333 -373 1095 0
-397 153 181 1096 0
391 490 -112 1097 0
-434 -211 121 1098 0
-229 -379 -485 1099 0
-372 34 -176 1100 0
-239 -345 2 1101 0
440 313 101 1102 0
-438 -193 -484 1103 0
194 -489 45 1104 0
438 42 -397 1105 0
-76 422 139 1106 0
212 436 -172 1107 0
-490 -404 -497 1108 0
-458 64 -301 1109 0
207 -331 483 1110 0
243 -263 -500 1111 0
328 -250 382 1112 0
-91 -419 65 1113 0
287 -199 146 1114 0
266 -161 -431 1115 0
-287 -314 -368 1116 0
-490 312 408 1117 0
428 -41 289 1118 0
-411 416 249 1119 0
22 34 -13 1120 0
-252 -208 -420 1121 0
487 331 -327 1122 0
-376 435 -115 1123 0
-69 420 201 1124 0
279 98 194 1125 0
366 -169 238 1126 0
161 -433 -195 1127 0
-30 -272 341 1128 0
-102 185 31 1129 0
-180 -385 343 1130 0
277 406 -135 1131 0
-279 -237 -216 1132 0
376 45 181 1133 0
-407 -455 -428 1134 0
355 485 -402 1135 0
-373 -405 329 1136 0
84 449 246 1137 0
-294 4 56 1138 0
166 -107 106 1139 0
-124 145 -365 1140 0
395 147 294 1141 0
-63 -283 -397 1142 0
-186 -256 438 1143 0
44 186 -490 1144 0
202 -46 -461 1145 0
-254 -331 284 1146 0
-280 46 -11 1147 0
325 -186 160 1148 0
321 480 56 1149 0
-140 184 82 1150 0
-83 -439 -168 1151 0
135 -469 303 1152 0
490 222 275 1153 0
-364 -338 -276 1154 0
33 -477 -126 1155 0
-279 386 -429 1156 0
368 406 24 1157 0
302 255 -338 1158 0
-423 -259 -81 1159 0
26 220 -277 1160 0
18 -187 244 1161 0
320 315 91 1162 0
169 -57 71 1163 0
327 347 233 1164 0
-55 17 297 1165 0
-248 435 -92 1166 0
231 -196 113 1167 0
44 -387 20 1168 0
303 282 233 1169 0
-471 -419 -483 1170 0
77 410 -181 1171 0
461 33 500 1172 0
-297 402 -137 1173 0
-37 48 -26 1174 0
-70 -52 395 1175 0
-120 386 -144 1176 0
418 312 360 1177 0
-348 458 -163 1178 0
115 397 -492 1179 0
435 277 -105 1180 0
3 -14 -73 1181 0
115 -222 -159 1182 0
401 383 -353 1183 0
-54 350 200 1184 0
127 -9 -189 1185 0
-265 -396 -195 1186 0
-64 127 -188 1187 0
132 -141 311 1188 0
-253 -390 -293 1189 0
281 -72 391 1190 0
166 263 325 1191 0
376 -98 140 1192 0
64 -165 -393 1193 0
-263 -307 -371 1194 0
37 248 359 1195 0
174 -135 378 1196 0
459 252 -244 1197 0
-167 296 -78 1198 0
81 18 204 1199 0
482 95 -303 1200 0
-241 -101 433 1201 0
425 -30 200 1202 0
359 434 -315 1203 0
106 205 446 1204 0
-106 -169 456 1205 0
116 -240 -52 1206 0
-200 -142 194 1207 0
391 279 480 1208 0
-280 -468 -403 1209 0
47 -12 81 1210 0
31 328 -21 1211 0
456 208 303 1212 0
354 28 269 1213 0
267 -265 461 1214 0
141 16 -332 1215 0
346 -383 -90 1216 0
-295 -289 -382 1217 0
37 -126 -27 1218 0
313 -237 -142 1219 0
424 -239 68 1220 0
-405 279 -371 1221 0
-315 424 418 1222 0
-303 244 386 1223 0
432 -111 62 1224 0
-169 42 366 1225 0
-44 93 -144 1226 0
-17 237 196 1227 0
58 93 273 1228 0
188 221 -66 1229 0
-20 -190 229 1230 0
305 -294 442 1231 0
-143 -478 69 1232 0
446 -251 -234 1233 0
193 380 -342 1234 0
-85 -80 109 1235 0
-498 -174 -448 1236 0
188 158 -216 1237 0
261 -499 -365 1238 0
-384 -241 348 1239 0
-456 263 -39 1240 0
242 177 338 1241 0
17 157 340 1242 0
-341 239 -396 1243 0
249 -140 287 1244 0
-420 -28 -285 1245 0
314 53 -243 1246 0
76 -429 -184 1247 0
314 -81 -171 1248 0
-165 -267 32 1249 0
-196 -405 -17 1250 0
157 479 299 1251 0
33 446 312 1252 0
387 269 -403 1253 0
412 162 77 1254 0
-6 -155 366 1255 0
355 -467 405 1256 0
-278 -216 198 1257 0
-307 227 213 1258 0
73 144 -46 1259 0
-226 299 146 1260 0
30 -321 -107 1261 0
-9 265 -225 1262 0
491 124 422 1263 0
29 -320 79 1264 0
-434 -153 -493 1265 0
-207 404 -478 1266 0
-325 277 -250 1267 0
-227 -110 424 1268 0
306 494 -87 1269 0
362 482 344 1270 0
-463 180 40 1271 0
339 181 377 1272 0
183 107 106 1273 0
154 353 -486 1274 0
-383 389 -256 1275 0
260 -261 -276 1276 0
-58 -407 115 1277 0
43 -304 404 1278 0
-496 -50 309 1279 0
450 385 220 1280 0
-289 171 381 1281 0
73 -129 -401 1282 0
436 -229 -232 1283 0
94 -451 445 1284 0
-469 84 -130 1285 0
-226 396 -324 1286 0
405 -208 -148 1287 0
-416 247 -481 1288 0
-74 -55 400 1289 0
-253 -45 -213 1290 0
334 20 -88 1291 0
-177 -346 303 1292 0
-288 117 -80 1293 0
298 317 -26 1294 0
328 -373 -371 1295 0
224 357 -38 1296 0
-30 195 -415 1297 0
-401 -147 -335 1298 0
-428 -365 -309 1299 0
-224 -95 -454 1300 0
433 -163 -19 1301 0
-39 229 -193 1302 0
-31 230 -160 1303 0
-222 434 -432 1304 0
-28 -55 425 1305 0
243 472 25 1306 0
493 172 -440 1307 0
-389 483 -459 1308 0
-272 -212 158 1309 0
-362 -390 -327 1310 0
-468 -152 391 1311 0
378 -388 -159 1312 0
411 -421 331 1313 0
165 -51 -125 1314 0
128 -70 -307 1315 0
283 -390 -310 1316 0
-81 -369 -349 1317 0
-208 -34 398 1318 0
148 -68 -440 1319 0
467 -244 198 1320 0
-495 296 413 1321 0
-41 -492 117 1322 0
-379 -483 -462 1323 0
-356 -435 -129 1324 0
-56 -471 353 1325 0
283 -344 -43 1326 0
273 -48 -110 1327 0
491 -349 373 1328 0
-469 393 491 1329 0
450 91 391 1330 0
49 -402 -249 1331 0
-44 -300 19 1332 0
-188 -271 -465 1333 0
218 291 1 1334 0
369 97 176 1335 0
-427 -150 434 1336 0
-268 -234 295 1337 0
433 -230 15 1338 0
412 -362 -197 1339 0
497 394 80 1340 0
-227 -416 -326 1341 0
359 191 89 1342 0
-462 422 340 1343 0
-211 -235 -74 1344 0
-36 -181 187 1345 0
-36 73 377 1346 0
-165 435 41 1347 0
-89 161 -475 1348 0
-12 -246 -306 1349 0
199 -196 -233 1350 0
-215 247 81 1351 0
67 -448 -148 1352 0
128 -58 -110 1353 0
-310 -421 29 1354 0
463 -287 -417 1355 0
345 467 -121 1356 0
-26 313 363 1357 0
129 59 -62 1358 0
197 -432 428 1359 0
144 -367 -135 1360 0
412 -452 -193 1361 0
451 102 -183 1362 0
408 -416 -413 1363 0
457 -214 -202 1364 0
350 83 372 1365 0
126 -347 73 1366 0
284 -253 -172 1367 0
-123 -314 397 1368 0
64 -86 -217 1369 0
71 -354 374 1370 0
-352 383 -40 1371 0
-187 316 305 1372 0
-389 134 -461 1373 0
201 -192 -327 1374 0
317 468 -213 1375 0
-178 -347 -209 1376 0
-65 257 354 1377 0
-315 442 100 1378 0
262 -275 39 1379 0
454 -277 404 1380 0
334 436 -255 1381 0
-106 265 175 1382 0
391 -89 -467 1383 0
-104 489 -151 1384 0
-443 -121 -473 1385 0
-349 181 250 1386 0
-399 -475 -96 1387 0
218 130 92 1388 0
-198 234 -392 1389 0
348 -139 143 1390 0
-313 -475 -373 1391 0
-421 -278 445 1392 0
-354 76 -50 1393 0
379 36 -404 1394 0
-34 -153 481 1395 0
102 -148 165 1396 0
44 9 229 1397 0
-142 485 12 1398 0
-158 402 329 1399 0
184 -430 477 1400 0
-371 142 359 1401 0
235 -177 -451 1402 0
-29 -232 385 1403 0
-397 -27 431 1404 0
-138 -395 -234 1405 0
319 93 256 1406 0
166 409 160 1407 0
439 -69 -411 1408 0
90 -320 328 1409 0
-257 -347 63 1410 0
-132 446 -263 1411 0
407 -233 485 1412 0
357 128 471 1413 0
286 -153 -178 1414 0
-271 93 -467 1415 0
142 178 422 1416 0
-10 353 -354 1417 0
466 -143 -373 1418 0
-139 68 -225 1419 0
-454 78 -346 1420 0
-90 -363 494 1421 0
-174 -118 149 1422 0
-380 -83 -320 1423 0
227 -434 299 1424 0
-183 -199 -244 1425 0
291 93 -185 1426 0
466 279 -206 1427 0
81 59 -426 1428 0
-223 307 380 1429 0
-268 163 332 1430 0
-271 284 -401 1431 0
450 152 -160 1432 0
-205 -243 471 1433 0
158 17 -13 1434 0
-453 -30 -369 1435 0
359 430 -324 1436 0
500 36 -493 1437 0
324 -222 -200 1438 0
283 -336 47 1439 0
-1 441 238 1440 0
-335 -180 -428 1441 0
-109 -374 -251 1442 0
-137 302 -172 1443 0
31 -281 -396 1444 0
103 -127 -332 1445 0
-36 302 277 1446 0
-384 12 309 1447 0
188 -90 -410 1448 0
244 -145 228 1449 0
204 -360 432 1450 0
347 40 237 1451 0
-161 -15 -216 1452 0
311 367 499 1453 0
-26 -31 -432 1454 0
-354 144 -474 1455 0
-116 -119 296 1456 0
-433 -429 494 1457 0
-174 -112 -489 1458 0
447 371 -169 1459 0
-482 37 -78 1460 0
-225 -37 79 1461 0
-401 173 -58 1462 0
167 -131 -60 1463 0
109 -454 -44 1464 0
-245 96 188 1465 0
-183 357 281 1466 0
122 358 -40 1467 0
-40 294 -112 1468 0
281 354 146 1469 0
-103 218 -8 1470 0
322 -473 -90 1471 0
-139 -148 -141 1472 0
19 -479 273 1473 0
150 -223 24 1474 0
-445 121 -459 1475 0
-115 186 -105 1476 0
155 -404 -402 1477 0
490 211 -122 1478 0
-249 -335 419 1479 0
-306 242 134 1480 0
137 -433 79 1481 0
-387 -167 116 1482 0
373 381 -16 1483 0
-147 -161 -155 1484 0
-344 312 -500 1485 0
-345 -282 -158 1486 0
279 489 -9 1487 0
-251 219 -354 1488 0
-31 -342 -486 1489 0
185 -369 160 1490 0
379 294 158 1491 0
-412 111 -4 1492 0
-450 -27 -74 1493 0
153 -475 369 1494 0
266 -83 -367 1495 0
392 -439 -177 1496 0
-375 317 214 1497 0
-448 -435 -329 1498 0
265 -327 -89 1499 0
-483 -480 277 1500 0
8 138 279 1501 0
-343 -90 -66 1502 0
-126 196 -91 1503 0
-244 164 -410 1504 0
-303 498 315 1505 0
123 34 386 1506 0
151 425 -430 1507 0
-402 393 6 1508 0
-165 -67 268 1509 0
-84 243 -153 1510 0
-60 382 357 1511 0
-277 -458 -210 1512 0
476 297 -497 1513 0
280 248 -133 1514 0
-472 -483 264 1515 0
-114 -496 -232 1516 0
-419 -301 80 1517 0
43 306 -348 1518 0
192 -73 269 1519 0
-488 -351 -111 1520 0
214 37 -337 1521 0
-241 -491 136 1522 0
19 -336 -266 1523 0
-422 -155 398 1524 0
31 59 210 1525 0
230 481 444 1526 0
-393 -477 252 1527 0
-17 -304 313 1528 0
-181 255 -286 1529 0
-216 398 391 1530 0
-8 -338 79 1531 0
-418 158 -436 1532 0
-192 77 205 1533 0
-456 188 -450 1534 0
367 303 -55 1535 0
340 121 250 1536 0
191 -184 -440 1537 0
379 49 -487 1538 0
-358 4 230 1539 0
-323 -167 -26 1540 0
-265 374 129 1541 0
397 -458 -103 1542 0
-275 -386 -118 1543 0
131 -169 -327 1544 0
168 -380 -20 1545 0
-180 -99 -105 1546 0
351 -29 380 1547 0
-407 -238 422 1548 0
294 386 438 1549 0
-444 466 470 1550 0
-255 -452 273 1551 0
-163 140 -427 1552 0
181 418 241 1553 0
46 -141 -445 1554 0
-147 -262 52 1555 0
462 309 -260 1556 0
-147 30 28 1557 0
-212 -62 -423 1558 0
-347 398 -162 1559 0
64 -394 -18 1560 0
-118 -232 -107 1561 0
-269 -326 -257 1562 0
366 -320 -330 1563 0
-357 473 -342 1564 0
-350 440 306 1565 0
-59 405 378 1566 0
-412 -158 -84 1567 0
-110 -442 277 1568 0
-71 409 -416 1569 0
-29 395 180 1570 0
389 457 -453 1571 0
-39 426 20 1572 0
-311 480 402 1573 0
312 -344 -192 1574 0
343 5 -275 1575 0
-410 354 -311 1576 0
291 -102 201 1577 0
24 -302 216 1578 0
161 38 452 1579 0
-101 434 -266 1580 0
-239 -298 447 1581 0
120 -436 461 1582 0
120 140 -297 1583 0
-156 359 332 1584 0
-437 -373 -21 1585 0
141 203 212 1586 0
-9 -311 5 1587 0
-288 16 -15 1588 0
-379 -4 173 1589 0
-293 -284 -432 1590 0
235 19 -447 1591 0
348 -9 -445 1592 0
467 -493 -85 1593 0
125 51 -165 1594 0
135 -457 420 1595 0
-95 425 -365 1596 0
-417 56 -371 1597 0
133 71 -160 1598 0
-414 -361 218 1599 0
322 35 88 1600 0
463 -17 -116 1601 0
209 -260 -359 1602 0
445 -287 477 1603 0
-430 -260 -457 1604 0
175 37 -356 1605 0
-490 28 363 1606 0
-100 -175 167 1607 0
113 148 -322 1608 0
-453 40 70 1609 0
-428 -170 287 1610 0
19 -11 -47 1611 0
-389 -292 397 1612 0
-323 456 298 1613 0
249 47 226 1614 0
482 47 -488 1615 0
494 -452 471 1616 0
-456 328 370 1617 0
358 494 243 1618 0
397 -271 323 1619 0
405 70 287 1620 0
-414 -236 -458 1621 0
-98 -494 338 1622 0
-48 -482 -293 1623 0
264 -346 452 1624 0
426 -227 351 1625 0
96 300 -194 1626 0
192 376 -190 1627 0
497 -456 -300 1628 0
219 99 -128 1629 0
198 -94 84 1630 0
232 143 499 1631 0
321 387 -371 1632 0
136 360 24 1633 0
184 258 415 1634 0
306 -397 381 1635 0
256 -265 125 1636 0
-229 -34 65 1637 0
-118 -318 394 1638 0
-211 -106 -359 1639 0
204 197 -53 1640 0
136 -77 -467 1641 0
168 -113 416 1642 0
-397 -208 468 1643 0
-86 -147 -306 1644 0
-129 46 -223 1645 0
47 443 347 1646 0
-350 -10 461 1647 0
-234 -381 -69 1648 0
-132 -318 166 1649 0
231 -135 -357 1650 0
-230 -67 255 1651 0
478 -154 355 1652 0
41 -389 477 1653 0
-497 282 -456 1654 0
186 -475 351 1655 0
-450 -188 -275 1656 0
-359 -413 301 1657 0
260 -269 -413 1658 0
-85 259 129 1659 0
-209 267 277 1660 0
75 323 212 1661 0
229 150 92 1662 0
-370 -421 -15 1663 0
337 371 -366 1664 0
-137 500 48 1665 0
-476 -310 263 1666 0
8 -401 -102 1667 0
-293 -419 -164 1668 0
111 -73 495 1669 0
376 -338 465 1670 0
-382 -334 87 1671 0
290 -51 -133 1672 0
-242 460 350 1673 0
-34 -16 415 1674 0
389 202 176 1675 0
140 29 -203 1676 0
326 165 -291 1677 0
-139 251 258 1678 0
280 3 -409 1679 0
376 65 426 1680 0
-196 -415 496 1681 0
299 356 476 1682 0
422 59 -167 1683 0
217 191 348 1684 0
196 -147 -448 1685 0
-6 -148 -150 1686 0
-335 -248 -1 1687 0
274 493 20 1688 0
490 -195 416 1689 0
-120 -171 -81 1690 0
-378 -111 -288 1691 0
-188 -427 350 1692 0
500 370 -235 1693 0
-357 -321 -110 1694 0
441 -373 -113 1695 0
-157 477 -289 1696 0
-256 -50 63 1697 0
11 -35 -168 1698 0
362 346 -103 1699 0
452 -131 -282 1700 0
81 199 295 1701 0
134 452 -380 1702 0
-97 -280 -119 1703 0
35 57 -163 1704 0
229 277 157 1705 0
358 291 298 1706 0
-412 -211 -271 1707 0
-408 270 -327 1708 0
270 473 220 1709 0
181 318 473 1710 0
287 -68 -196 1711 0
-121 -88 33 1712 0
346 262 -238 1713 0
-55 311 307 1714 0
59 -295 -197 1715 0
175 430 -106 1716 0
-374 -321 447 1717 0
-109 287 -18 1718 0
-43 -82 -32 1719 0
50 224 269 1720 0
289 403 285 1721 0
222 -491 -321 1722 0
309 -337 -190 1723 0
118 5 174 1724 0
-426 -36 105 1725 0
-417 196 302 1726 0
236 -499 -482 1727 0
-443 326 98 1728 0
105 337 -215 1729 0
-405 -356 -5 1730 0
-161 109 364 1731 0
63 309 160 1732 0
439 398 73 1733 0
-233 468 59 1734 0
-289 -155 332 1735 0
-291 464 160 1736 0
-236 108 318 1737 0
258 233 -53 1738 0
-41 -113 11 1739 0
-325 -128 -61 1740 0
500 -116 -485 1741 0
432 -395 -185 1742 0
287 350 458 1743 0
439 302 463 1744 0
319 -404 -105 1745 0
-407 256 238 1746 0
-372 -101 415 1747 0
-425 168 45 1748 0
105 -30 422 1749 0
236 -359 470 1750 0
412 -384 -499 1751 0
-49 76 -428 1752 0
41 -143 -188 1753 0
93 302 90 1754 0
117 444 -306 1755 0
57 -37 -261 1756 0
-211 -482 -283 1757 0
263 -64 388 1758 0
166 477 -230 1759 0
410 -474 -9 1760 0
406 -262 87 1761 0
223 -295 50 1762 0
472 175 415 1763 0
79 -216 475 1764 0
-36 424 -180 1765 0
131 59 422 1766 0
135 284 -324 1767 0
66 497 326 1768 0
129 195 -394 1769 0
335 435 370 1770 0
-439 348 -60 1771 0
70 317 361 1772 0
193 112 383 1773 0
221 -426 138 1774 0
-318 -346 454 1775 0
462 16 163 1776 0
-470 -378 90 1777 0
397 105 282 1778 0
27 318 473 1779 0
-335 -213 -162 1780 0
-465 491 -349 1781 0
-146 -411 -215 1782 0
39 -486 56 1783 0
-338 39 163 1784 0
-213 -314 -480 1785 0
-65 399 270 1786 0
-349 355 -237 1787 0
208 -270 112 1788 0
-349 366 -194 1789 0
-16 -344 -128 1790 0
-227 462 -163 1791 0
-411 163 478 1792 0
237 -1 -170 1793 0
-352 383 355 1794 0
-240 490 -181 1795 0
-292 222 -344 1796 0
227 162 496 1797 0
-343 -406 -183 1798 0
143 -358 252 1799 0
404 293 -269 1800 0
195 -186 187 1801 0
103 -356 -124 1802 0
125 -177 -282 1803 0
-72 185 233 1804 0
-328 279 14 1805 0
74 -329 -25 1806 0
211 -224 -121 1807 0
-274 -163 -470 1808 0
-16 49 495 1809 0
-499 -470 375 1810 0
-48 54 -428 1811 0
-373 54 -161 1812 0
-398 446 -377 1813 0
459 -42 487 1814 0
156 467 -483 1815 0
-475 -310 482 1816 0
119 409 104 1817 0
239 -437 -353 1818 0
-201 167 -166 1819 0
-108 105 -164 1820 0
101 277 57 1821 0
203 -482 -61 1822 0
-293 78 -193 1823 0
-492 -88 358 1824 0
274 -300 -117 1825 0
-14 -457 -170 1826 0
319 124 350 1827 0
62 86 -198 1828 0
258 265 -142 1829 0
277 -138 21 1830 0
293 464 20 1831 0
-483 175 -319 1832 0
114 377 389 1833 0
201 -321 260 1834 0
498 5 477 1835 0
-444 57 167 1836 0
370 349 436 1837 0
-162 -244 -26 1838 0
-449 232 44 1839 0
-139 -33 75 1840 0
-257 -327 168 1841 0
-215 83 139 1842 0
88 469 -283 1843 0
-275 120 -225 1844 0
377 199 403 1845 0
333 259 225 1846 0
-241 -316 -70 1847 0
240 128 380 1848 0
476 226 -336 1849 0
-140 -217 -90 1850 0
-363 -444 269 1851 0
-409 340 -287 1852 0
-148 175 -452 1853 0
-169 -474 -46 1854 0
26 427 -453 1855 0
155 380 328 1856 0
-146 379 444 1857 0
-30 -309 101 1858 0
-386 -74 409 1859 0
-60 399 -134 1860 0
-342 292 331 1861 0
344 102 335 1862 0
-420 409 -159 1863 0
-333 -143 129 1864 0
329 -376 7 1865 0
482 134 299 1866 0
-385 -112 -247 1867 0
168 40 -373 1868 0
-131 -98 -331 1869 0
3 -364 224 1870 0
-321 142 -139 1871 0
166 177 275 1872 0
-150 207 -157 1873 0
450 -460 41 1874 0
336 -164 -170 1875 0
-120 9 -23 1876 0
-28 -160 257 1877 0
-160 -442 252 1878 0
468 437 114 1879 0
-131 46 -231 1880 0
318 -39 -397 1881 0
63 -402 257 1882 0
42 -244 -41 1883 0
-36 222 -105 1884 0
29 -161 -404 1885 0
-101 119 253 1886 0
-436 172 211 1887 0
262 483 24 1888 0
-377 279 267 1889 0
-73 -196 141 1890 0
15 392 -312 1891 0
-395 321 211 1892 0
64 -450 31 1893 0
407 30 -178 1894 0
-80 482 -52 1895 0
360 158 -49 1896 0
437 131 -329 1897 0
271 484 336 1898 0
275 429 166 1899 0
17 -488 95 1900 0
380 355 117 1901 0
-385 308 -233 1902 0
-343 114 -500 1903 0
398 -338 367 1904 0
136 -16 -143 1905 0
57 115 -118 1906 0
-438 473 -397 1907 0
187 -29 439 1908 0
228 457 466 1909 0
228 197 -211 1910 0
341 2 334 1911 0
119 249 32 1912 0
-307 -28 -301 1913 0
241 192 -228 1914 0
35 349 208 1915 0
325 -360 -478 1916 0
288 -66 -12 1917 0
-394 359 205 1918 0
-391 -218 140 1919 0
-208 147 279 1920 0
-163 357 19 1921 0
92 471 397 1922 0
-23 63 -272 1923 0
-401 -490 328 1924 0
-28 219 189 1925 0
-40 -231 25 1926 0
38 -477 145 1927 0
-450 103 -271 1928 0
385 107 124 1929 0
-199 -382 -357 1930 0
490 -435 -45 1931 0
-475 31 424 1932 0
274 1 248 1933 0
497 -129 -263 1934 0
332 95 -190 1935 0
-24 -316 158 1936 0
283 -361 -491 1937 0
-475 180 -405 1938 0
415 320 -368 1939 0
-44 -204 -89 1940 0
-62 296 -465 1941 0
263 -356 141 1942 0
280 269 165 1943 0
260 444 -101 1944 0
280 9 258 1945 0
246 -214 326 1946 0
-238 -194 -1 1947 0
71 -452 489 1948 0
310 -8 -382 1949 0
60 459 -26 1950 0
-298 -179 401 1951 0
281 425 76 1952 0
220 -4 32 1953 0
422 -437 -407 1954 0
-379 414 278 1955 0
-283 64 -18 1956 0
-18 199 -234 1957 0
-454 282 -495 1958 0
383 33 497 1959 0
-94 -410 381 1960 0
-442 261 350 1961 0
-260 57 336 1962 0
73 306 -393 1963 0
468 352 -429 1964 0
414 323 -48 1965 0
92 23 209 1966 0
-17 392 438 1967 0
371 409 -266 1968 0
499 365 77 1969 0
-316 -90 -467 1970 0
359 46 265 1971 0
-69 -378 -147 1972 0
-487 -352 -301 1973 0
-218 334 -320 1974 0
-433 213 -4 1975 0
-285 -101 -402 1976 0
375 194 -483 1977 0
204 -345 12 1978 0
120 121 229 1979 0
-10 -332 -342 1980 0
464 280 303 1981 0
186 -493 10 1982 0
344 -195 394 1983 0
149 384 147 1984 0
-30 203 -13 1985 0
160 431 318 1986 0
378 409 -176 1987 0
395 108 -114 1988 0
269 -71 30 1989 0
-294 -6 295 1990 0
-228 257 -63 1991 0
426 344 167 1992 0
-20 163 -323 1993 0
444 147 -40 1994 0
127 427 171 1995 0
-248 -290 263 1996 0
396 -161 103 1997 0
378 57 -308 1998 0
233 -164 -492 1999 0
-325 -220 319 2000 0
-50 441 95 2001 0
-400 260 29 2002 0
-218 -46 -353 2003 0
231 69 206 2004 0
-208 260 474 2005 0
100 -378 10 2006 0
278 -209 -201 2007 0
481 15 -498 2008 0
286 402 -270 2009 0
-169 -263 69 2010 0
-106 312 -47 2011 0
-361 344 -411 2012 0
466 -369 -191 2013 0
-457 115 -360 2014 0
466 345 -148 2015 0
-382 -19 -419 2016 0
469 -186 72 2017 0
-242 186 -482 2018 0
-203 -66 -282 2019 0
83 -113 -245 2020 0
-271 -276 -21 2021 0
227 483 188 2022 0
94 -98 313 2023 0
-133 -317 -448 2024 0
-444 -311 172 2025 0
-90 262 5 2026 0
-209 -61 -53 2027 0
-139 -181 466 2028 0
-407 493 -439 2029 0
154 421 472 2030 0
-345 495 -164 2031 0
-243 -4 -494 2032 0
-105 -45 -272 2033 0
328 384 -177 2034 0
442 168 400 2035 0
103 -433 -284 2036 0
251 146 395 2037 0
-415 448 -281 2038 0
-274 438 309 2039 0
-334 187 170 2040 0
-81 -36 219 2041 0
-220 232 -34 2042 0
-410 125 -186 2043 0
-257 222 -67 2044 0
-126 47 -228 2045 0
480 -404 174 2046 0
313 296 -274 2047 0
-101 -74 88 2048 0
-110 -215 106 2049 0
380 38 -57 2050 0
-187 167 278 2051 0
-148 -83 -239 2052 0
-217 21 -478 2053 0
282 -341 251 2054 0
-69 181 9 2055 0
-130 144 -146 2056 0
-79 -173 -160 2057 0
-166 -24 353 2058 0
88 -54 -109 2059 0
-163 -293 54 2060 0
388 -108 307 2061 0
-86 -206 -127 2062 0
375 323 -340 2063 0
204 -276 457 2064 0
421 -264 136 2065 0
49 48 -32 2066 0
-260 484 -186 2067 0
202 219 -424 2068 0
384 164 -69 2069 0
-214 -268 -159 2070 0
134 -125 -142 2071 0
-34 234 484 2072 0
358 343 -96 2073 0
-117 110 -71 2074 0
141 102 -429 2075 0
-4 110 12 2076 0
-35 34 344 2077 0
398 -262 133 2078 0
-324 -422 263 2079 0
-34 197 409 2080 0
431 124 34 2081 0
52 -439 443 2082 0
-375 473 -299 2083 0
261 -196 -9 2084 0
198 -36 379 2085 0
-263 -149 375 2086 0
312 35 -128 2087 0
-15 194 352 2088 0
-346 -195 -485 2089 0
263 390 343 2090 0
-74 -492 -98 2091 0
70 435 334 2092 0
-488 -308 -272 2093 0
36 -65 494 2094 0
295 -112 -377 2095 0
-226 -376 -193 2096 0
-384 157 -250 2097 0
137 -482 107 2098 0
-308 179 464 2099 0
-76 53 206 2100 0
-336 127 95 2101 0
-44 90 -459 2102 0
459 -102 478 2103 0
-267 133 -90 2104 0
130 86 -233 2105 0
55 -397 -262 2106 0
-178 29 161 2107 0
-208 257 166 2108 0
10 -133 210 2109 0
-195 239 -393 2110 0
-216 222 486 2111 0
-196 350 245 2112 0
-361 367 168 2113 0
403 188 147 2114 0
265 357 -469 2115 0
-208 -152 105 2116 0
375 443 299 2117 0
69 -298 225 2118 0
-217 248 373 2119 0
412 261 -234 2120 0
213 404 44 2121 0
-148 -443 -321 2122 0
-239 259 -207 2123 0
-247 -192 -326 2124 0
459 -481 423 2125 0
253 467 444 2126 0
469 217 491 2127 0
-386 346 82 2128 0
357 -134 350 2129 0
-399 105 -365 2130 0
-452 -377 242 2131 0
291 438 279 2132 0
411 -12 462 2133 0
245 93 -251 2134 0
-44 -418 163 2135 0
-347 -151 256 2136 0
-202 -83 327 2137 0
-369 -368 1 2138 0
371 -441 388 2139 0
376 -427 289 2140 0
-87 -278 360 2141 0
-327 -98 312 2142 0
137 420 -244 2143 0
188 -128 36 2144 0
84 -1 389 2145 0
87 -112 44 2146 0
273 -62 235 2147 0
-477 -154 -162 2148 0
-42 104 -25 2149 0
-308 7 488 2150 0
-119 404 489 2151 0
288 -299 189 2152 0
181 -496 -44 2153 0
-422 150 -373 2154 0
226 61 -471 2155 0
26 -318 -352 2156 0
272 228 285 2157 0
230 -132 494 2158 0
35 -32 388 2159 0
200 90 390 2160 0
-222 391 32 2161 0
-159 380 -303 2162 0
-136 -134 386 2163 0
-174 445 -125 2164 0
353 -460 -48 2165 0
-461 -213 -392 2166 0
367 -185 451 2167 0
-401 380 -143 2168 0
-296 -40 156 2169 0
193 -89 331 2170 0
245 303 -143 2171 0
106 252 -125 2172 0
37 87 235 2173 0
-417 -72 4 2174 0
42 115 143 2175 0
-434 31 278 2176 0
217 169 -99 2177 0
162 34 303 2178 0
352 347 70 2179 0
285 115 -186 2180 0
317 488 280 2181 0
-210 160 50 2182 0
-456 412 305 2183 0
-245 -3 -374 2184 0
400 -454 405 2185 0
-466 -185 -412 2186 0
-383 -360 -191 2187 0
-272 -212 315 2188 0
196 -333 -92 2189 0
103 -335 -100 2190 0
64 -245 465 2191 0
224 -472 312 2192 0
96 -132 -229 2193 0
-471 -92 -354 2194 0
-379 3 397 2195 0
-280 -357 37 2196 0
9 407 -65 2197 0
289 -91 1 2198 0
-204 349 240 2199 0
28 76 -83 2200 0
497 -51 44 2201 0
-318 21 390 2202 0
305 -147 425 2203 0
-148 -32 -92 2204 0
273 -88 444 2205 0
62 478 -258 2206 0
-58 427 -476 2207 0
62 68 125 2208 0
-185 230 -463 2209 0
418 424 -493 2210 0
337 -121 -18 2211 0
349 -85 -425 2212 0
479 -405 -206 2213 0
-472 414 58 2214 0
365 241 417 2215 0
-103 -220 369 2216 0
376 -107 404 2217 0
-471 485 126 2218 0
-178 162 -49 2219 0
26 258 -358 2220 0
466 -74 371 2221 0
432 317 -355 2222 0
-351 73 440 2223 0
286 -367 99 2224 0
-286 -30 171 2225 0
40 -310 -269 2226 0
-167 -489 274 2227 0
31 160 -367 2228 0
328 135 -87 2229 0
210 -119 55 2230 0
-97 15 -276 2231 0
-42 -477 463 2232 0
-471 -244 391 2233 0
-437 -313 -133 2234 0
-87 96 77 2235 0
34 252 -7 2236 0
-497 -279 -174 2237 0
-288 -492 -487 2238 0
485 360 306 2239 0
-262 19 -260 2240 0
457 40 -304 2241 0
336 143 -69 2242 0
5 307 337 2243 0
-82 328 292 2244 0
-484 464 346 2245 0
49 -331 -353 2246 0
-98 -278 -37 2247 0
-158 -125 -54 2248 0
-326 434 347 2249 0
-3 346 -186 2250 0
16 100 172 2251 0
-489 -154 -68 2252 0
-380 147 -43 2253 0
340 33 -500 2254 0
-135 -311 146 2255 0
387 471 -11 2256 0
-123 88 300 2257 0
-207 -437 -434 2258 0
461 -76 -362 2259 0
-453 297 -12 2260 0
100 120 282 2261 0
-232 80 -313 2262 0
462 -172 33 2263 0
176 239 -86 2264 0
-350 -257 493 2265 0
259 288 -273 2266 0
441 -325 -36 2267 0
-369 -349 -117 2268 0
-134 -194 178 2269 0
123 162 426 2270 0
346 151 393 2271 0
45 -27 482 2272 0
-232 454 118 2273 0
-117 472 -229 2274 0
15 -366 243 2275 0
-366 236 -162 2276 0
-215 -310 -282 2277 0
-47 -432 399 2278 0
-348 -236 26 2279 0
-306 -499 116 2280 0
-301 -432 275 2281 0
-156 -14 410 2282 0
-312 -369 -144 2283 0
310 -149 15 2284 0
293 -389 -14 2285 0
239 381 -305 2286 0
238 -286 -481 2287 0
324 -449 -471 2288 0
104 142 275 2289 0
216 -195 101 2290 0
-288 -416 -473 2291 0
283 426 -268 2292 0
347 -479 28 2293 0
174 -480 499 2294 0
180 -489 -411 2295 0
-251 151 176 2296 0
350 -143 73 2297 0
266 10 -293 2298 0
342 284 -474 2299 0
-354 -471 -125 2300 0
-379 -52 252 2301 0
73 2 228 2302 0
21 -443 240 2303 0
6 91 -276 2304 0
-364 -487 132 2305 0
203 367 -87 2306 0
257 -47 400 2307 0
-124 464 116 2308 0
421 -43 253 2309 0
247 266 -435 2310 0
-297 -466 -363 2311 0
201 378 -316 2312 0
-356 -218 -171 2313 0
231 187 263 2314 0
-379 -123 437 2315 0
405 107 225 2316 0
-10 107 220 2317 0
313 436 -247 2318 0
486 360 259 2319 0
200 110 -123 2320 0
182 -183 211 2321 0
-94 -69 -375 2322 0
-15 86 -88 2323 0
-184 288 -125 2324 0
386 287 162 2325 0
-438 -457 5 2326 0
-261 146 -188 2327 0
280 -445 259 2328 0
-276 427 -52 2329 0
480 410 -300 2330 0
363 386 -469 2331 0
-110 -259 25 2332 0
-305 -38 -469 2333 0
-266 273 500 2334 0
-153 222 237 2335 0
-480 331 261 2336 0
326 149 216 2337 0
235 271 344 2338 0
-271 348 124 2339 0
204 -114 -99 2340 0
-420 -485 -35 2341 0
-121 -149 -335 2342 0
-174 -112 397 2343 0
-438 295 30 2344 0
-90 452 235 2345 0
-377 110 -211 2346 0
485 118 242 2347 0
-237 121 420 2348 0
113 -480 -284 2349 0
311 -171 -494 2350 0
-270 -427 339 2351 0
187 434 162 2352 0
-436 -73 402 2353 0
-97 108 52 2354 0
307 -385 -73 2355 0
176 -277 -482 2356 0
451 423 -258 2357 0
211 -136 462 2358 0
411 418 386 2359 0
-412 -6 86 2360 0
-451 -490 474 2361 0
213 210 -208 2362 0
59 -97 389 2363 0
7 163 -22 2364 0
420 -305 -231 2365 0
212 -65 -493 2366 0
489 -426 375 2367 0
-338 -47 157 2368 0
-125 185 -219 2369 0
-321 380 164 2370 0
-411 -159 28 2371 0
137 -170 -154 2372 0
-69 363 -406 2373 0
153 -179 -52 2374 0
379 -70 149 2375 0
264 -64 -12 2376 0
-334 318 30 2377 0
-123 229 -378 2378 0
-286 205 -176 2379 0
-415 404 386 2380 0
-99 -264 113 2381 0
434 330 -487 2382 0
80 -125 -44 2383 0
2 160 -289 2384 0
-482 459 -355 2385 0
295 -63 142 2386 0
276 495 -365 2387 0
81 -2 -25 2388 0
304 251 -218 2389 0
-245 -33 402 2390 0
-423 -338 58 2391 0
-368 342 417 2392 0
-467 -6 208 2393 0
-416 147 241 2394 0
82 -75 150 2395 0
-268 248 -92 2396 0
323 202 309 2397 0
276 -157 296 2398 0
-129 437 169 2399 0
279 217 193 2400 0
8 -93 -218 2401 0
40 -268 171 2402 0
-292 217 237 2403 0
360 -368 -3 2404 0
-333 456 113 2405 0
162 278 285 2406 0
-440 -437 55 2407 0
195 -289 -432 2408 0
-270 -273 -99 2409 0
65 -41 -115 2410 0
-344 328 -321 2411 0
88 268 68 2412 0
-191 269 167 2413 0
402 491 -328 2414 0
95 -433 415 2415 0
211 -442 215 2416 0
-262 -487 192 2417 0
104 -491 -142 2418 0
-227 494 98 2419 0
182 -159 -322 2420 0
-372 -483 -442 2421 0
-420 -107 292 2422 0
108 355 451 2423 0
-82 -32 -62 2424 0
147 -35 76 2425 0
233 -328 -5 2426 0
45 -379 457 2427 0
-29 -452 71 2428 0
255 479 88 2429 0
173 148 -244 2430 0
193 -489 -71 2431 0
-73 188 197 2432 0
-338 -3 -295 2433 0
-206 334 3 2434 0
-271 115 272 2435 0
-495 118 359 2436 0
-192 96 -61 2437 0
439 197 76 2438 0
121 230 -427 2439 0
-366 -323 281 2440 0
52 264 463 2441 0
-61 173 389 2442 0
242 -472 -337 2443 0
301 -266 49 2444 0
-34 77 -14 2445 0
464 201 257 2446 0
120 -60 219 2447 0
453 194 107 2448 0
-303 -314 -292 2449 0
-9 204 -255 2450 0
461 318 -211 2451 0
223 154 16 2452 0
386 22 387 2453 0
102 -153 130 2454 0
94 422 293 2455 0
251 198 267 2456 0
449 253 93 2457 0
466 -325 140 2458 0
259 483 -424 2459 0
-344 343 -150 2460 0
87 84 -409 2461 0
377 270 -266 2462 0
10 57 47 2463 0
-198 242 -166 2464 0
17 134 68 2465 0
255 -437 -59 2466 0
-162 347 -361 2467 0
491 -291 -409 2468 0
292 -496 -305 2469 0
-497 -7 -147 2470 0
-290 459 -407 2471 0
188 35 158 2472 0
393 154 275 2473 0
125 -157 -182 2474 0
-138 182 -436 2475 0
210 123 -115 2476 0
91 -309 -92 2477 0
-210 132 49 2478 0
327 410 -470 2479 0
-119 82 374 2480 0
-31 326 -204 2481 0
339 -359 220 2482 0
-223 -465 -180 2483 0
-463 -53 437 2484 0
-381 266 -370 2485 0
144 -134 382 2486 0
173 296 489 2487 0
290 -416 -317 2488 0
212 -23 407 2489 0
284 123 86 2490 0
479 -173 380 2491 0
457 -307 268 2492 0
-357 -281 333 2493 0
-149 -196 494 2494 0
407 -138 -424 2495 0
128 375 -171 2496 0
-61 -254 -121 2497 0
-95 397 -81 2498 0
431 7 -87 2499 0
-363 384 393 2500 0
-372 -88 -214 2501 0
-425 75 -461 2502 0
30 175 270 2503 0
-48 -189 -101 2504 0
-259 -212 206 2505 0
357 -399 143 2506 0
357 333 311 2507 0
78 -102 371 2508 0
254 400 393 2509 0
470 -129 -130 2510 0
408 -256 -155 2511 0
158 165 -197 2512 0
-100 36 486 2513 0
136 21 409 2514 0
-453 -32 -229 2515 0
-389 50 400 2516 0
-118 -383 -70 2517 0
392 273 459 2518 0
-421 -380 359 2519 0
-337 380 -368 2520 0
-320 -49 -473 2521 0
275 337 130 2522 0
324 449 -129 2523 0
-96 293 26 2524 0
-494 384 257 2525 0
451 141 485 2526 0
-449 -108 176 2527 0
150 -239 -338 2528 0
-259 -336 11 2529 0
12 -390 -331 2530 0
-234 -414 -238 2531 0
-32 415 -39 2532 0
378 319 -128 2533 0
-233 268 -352 2534 0
-229 57 -244 2535 0
343 380 187 2536 0
373 -453 35 2537 0
-111 -38 -195 2538 0
454 -368 -196 2539 0
120 -16 -58 2540 0
-195 -179 432 2541 0
375 423 -83 2542 0
-328 417 319 2543 0
346 110 405 2544 0
-23 32 -110 2545 0
307 -159 -399 2546 0
24 -127 197 2547 0
487 381 199 2548 0
-381 -32 -60 2549 0
147 -414 465 2550 0
-100 379 -400 2551 0
458 -156 235 2552 0
-210 77 445 2553 0
-104 135 330 2554 0
110 6 -390 2555 0
-165 -25 389 2556 0
498 -375 -28 2557 0
33 123 -181 2558 0
3 -177 72 2559 0
241 -424 -466 2560 0
59 64 -201 2561 0
247 463 10 2562 0
-152 -262 -413 2563 0
424 -213 -261 2564 0
63 492 5 2565 0
240 112 -339 2566 0
-14 -269 -15 2567 0
-116 210 -139 2568 0
-465 -347 -155 2569 0
92 66 -232 2570 0
28 199 56 2571 0
-81 -149 302 2572 0
-53 -494 -385 2573 0
-373 347 49 2574 0
-60 237 -233 2575 0
-264 -71 70 2576 0
382 267 -387 2577 0
423 19 263 2578 0
-248 -385 -460 2579 0
-430 393 295 2580 0
-144 299 469 2581 0
380 -135 -30 2582 0
-173 -497 33 2583 0
-441 -107 -201 2584 0
224 -383 453 2585 0
193 386 271 2586 0
270 366 -376 2587 0
111 453 -360 2588 0
478 287 -255 2589 0
-43 242 280 2590 0
153 2 131 2591 0
-215 139 -164 2592 0
-490 -461 -196 2593 0
-37 220 -51 2594 0
72 205 404 2595 0
-438 -26 -475 2596 0
-484 52 387 2597 0
96 -13 -195 2598 0
-206 425 -158 2599 0
-133 419 -113 2600 0
-474 73 355 2601 0
-325 -19 76 2602 0
21 -194 -295 2603 0
299 122 -312 2604 0
-457 -76 -370 2605 0
-255 322 265 2606 0
-111 -203 104 2607 0
241 17 -108 2608 0
-174 -411 357 2609 0
-44 -11 -279 2610 0
470 -241 431 2611 0
182 -270 103 2612 0
-364 134 120 2613 0
-309 278 153 2614 0
-250 16 -236 2615 0
-267 -126 235 2616 0
-5 182 155 2617 0
167 -116 193 2618 0
-267 -70 -390 2619 0
-293 39 -453 2620 0
295 -257 -472 2621 0
-242 171 40 2622 0
-430 433 -18 2623 0
-179 -464 -235 2624 0
291 255 260 2625 0
-343 -460 -31 2626 0
-40 400 -381 2627 0
356 18 -171 2628 0
-78 -417 85 2629 0
-380 -69 468 2630 0
-157 -357 358 2631 0
492 -270 135 2632 0
-131 -195 497 2633 0
-7 -483 295 2634 0
129 -307 272 2635 0
5 -28 313 2636 0
211 259 238 2637 0
181 -28 460 2638 0
-112 -321 -47 2639 0
-161 -230 -87 2640 0
-364 -230 137 2641 0
486 -297 190 2642 0
418 438 496 2643 0
41 25 -167 2644 0
-87 -225 411 2645 0
74 -196 -270 2646 0
-426 92 -397 2647 0
-42 405 -22 2648 0
379 -269 -43 2649 0
-460 342 -217 2650 0
