p cnf 2650 2150
284 -309 -265 501 0
-271 -462 377 502 0
-371 -115 -124 503 0
121 382 -408 504 0
294 -89 -450 505 0
-228 -479 130 506 0
-264 207 17 507 0
-245 31 -86 508 0
221 42 103 509 0
3 437 -224 510 0
142 -312 -438 511 0
426 353 -47 512 0
222 -178 20 513 0
491 -423 -4 514 0
454 104 -326 515 0
37 -86 196 516 0
-442 192 -242 517 0
-406 -106 50 518 0
-94 -329 208 519 0
-493 19 -44 520 0
385 -408 -93 521 0
234 66 150 522 0
100 198 357 523 0
482 -328 307 524 0
-427 -478 121 525 0
139 343 -370 526 0
64 469 289 527 0
-67 -42 -205 528 0
-150 468 -361 529 0
401 165 -361 530 0
377 -172 264 531 0
-62 420 -14 532 0
96 209 217 533 0
-149 -224 218 534 0
-153 -355 -170 535 0
70 -271 256 536 0
-332 247 471 537 0
-270 -277 -299 538 0
361 -465 -390 539 0
-163 -56 -96 540 0
187 27 -181 541 0
-478 -356 310 542 0
-115 5 -416 543 0
121 -125 485 544 0
-26 112 -497 545 0
458 -392 -118 546 0
315 291 -246 547 0
396 53 -180 548 0
199 -135 89 549 0
-449 -498 -440 550 0
408 101 131 551 0
-108 121 -283 552 0
-40 154 44 553 0
209 -344 -347 554 0
-43 -45 448 555 0
-238 -12 51 556 0
152 484 -412 557 0
17 -172 76 558 0
-404 140 -484 559 0
-310 173 469 560 0
397 234 -125 561 0
162 -279 147 562 0
-239 -265 28 563 0
-35 461 424 564 0
-240 -272 373 565 0
31 -452 27 566 0
227 313 43 567 0
-100 278 126 568 0
-446 -248 348 569 0
-97 -141 57 570 0
152 202 168 571 0
311 263 -202 572 0
-148 -220 -116 573 0
299 179 -484 574 0
225 -219 -392 575 0
238 107 -302 576 0
-398 390 29 577 0
401 50 77 578 0
-338 -307 11 579 0
-80 201 -238 580 0
445 -195 23 581 0
-251 -179 -212 582 0
-223 -193 -439 583 0
-240 329 204 584 0
340 -351 87 585 0
411 -356 382 586 0
-90 108 -292 587 0
357 -425 184 588 0
-150 490 237 589 0
190 -297 211 590 0
290 -338 400 591 0
-268 -407 -362 592 0
155 223 481 593 0
451 -464 14 594 0
131 196 -238 595 0
-114 -67 -132 596 0
347 -259 475 597 0
-107 -59 434 598 0
-105 -40 317 599 0
106 315 -287 600 0
-31 -482 -92 601 0
-152 -174 -309 602 0
224 424 308 603 0
485 -54 -131 604 0
434 -472 311 605 0
-61 45 -350 606 0
73 -326 416 607 0
-31 -349 -203 608 0
-466 -330 -345 609 0
-142 202 -204 610 0
103 -332 -414 611 0
-358 230 -419 612 0
58 440 133 613 0
187 -56 34 614 0
217 -446 -461 615 0
411 -185 -304 616 0
-130 -55 -461 617 0
390 143 -282 618 0
124 276 -461 619 0
171 299 -253 620 0
54 -170 -363 621 0
166 -96 80 622 0
71 35 -363 623 0
388 421 427 624 0
-19 249 -478 625 0
-374 199 103 626 0
411 -222 102 627 0
377 19 -327 628 0
200 -95 -158 629 0
-446 441 -395 630 0
-459 241 177 631 0
173 210 -307 632 0
25 453 -459 633 0
-370 481 416 634 0
181 191 -33 635 0
-66 287 237 636 0
-195 -149 407 637 0
-242 375 263 638 0
-465 -332 360 639 0
273 386 -95 640 0
-468 -366 -260 641 0
80 193 431 642 0
-284 176 300 643 0
412 154 495 644 0
-184 -442 420 645 0
384 -83 339 646 0
-233 -90 -317 647 0
449 190 -365 648 0
186 332 487 649 0
-37 -305 -160 650 0
-140 -165 302 651 0
93 421 -349 652 0
-154 199 -170 653 0
-195 33 154 654 0
-30 84 -465 655 0
-177 210 -65 656 0
409 -419 -91 657 0
-50 217 -483 658 0
-494 133 -342 659 0
-56 -185 -254 660 0
424 -474 -40 661 0
255 -500 -181 662 0
-371 -438 10 663 0
332 -320 89 664 0
-286 -119 346 665 0
-456 22 28 666 0
160 288 -208 667 0
392 20 302 668 0
-15 -286 -291 669 0
60 129 -238 670 0
130 394 252 671 0
401 -224 122 672 0
475 48 -353 673 0
-196 434 264 674 0
225 -112 114 675 0
-339 114 432 676 0
-51 170 349 677 0
91 315 -433 678 0
76 286 252 679 0
-130 -294 -363 680 0
74 -368 344 681 0
-106 260 205 682 0
164 373 -119 683 0
-88 313 490 684 0
-205 29 363 685 0
111 458 471 686 0
491 323 161 687 0
-345 305 151 688 0
242 -151 -180 689 0
-274 149 448 690 0
-92 -16 -456 691 0
454 86 -63 692 0
-225 -291 -354 693 0
305 -15 423 694 0
-423 -432 309 695 0
239 189 47 696 0
-55 -168 -417 697 0
-429 499 -232 698 0
-422 28 449 699 0
129 303 -371 700 0
108 -396 35 701 0
496 292 106 702 0
27 151 -460 703 0
-258 43 -31 704 0
269 -172 -413 705 0
-363 40 46 706 0
-75 484 271 707 0
-404 -91 389 708 0
-215 -331 -426 709 0
-446 -345 -371 710 0
172 -6 -153 711 0
306 20 -383 712 0
451 39 -236 713 0
55 283 -333 714 0
183 355 259 715 0
-66 -380 111 716 0
-122 79 -22 717 0
-357 1 -442 718 0
-13 -445 -206 719 0
-106 174 -177 720 0
-14 -94 -355 721 0
-280 415 453 722 0
78 216 284 723 0
-330 -9 343 724 0
339 350 -219 725 0
-492 -303 371 726 0
-88 227 310 727 0
-41 -339 -392 728 0
-125 -276 -122 729 0
498 418 -416 730 0
-172 448 436 731 0
42 -118 -280 732 0
-213 61 350 733 0
-185 -425 -168 734 0
-287 -90 424 735 0
265 180 64 736 0
-24 249 -83 737 0
-445 357 -27 738 0
211 76 251 739 0
-8 55 209 740 0
110 -175 -310 741 0
-132 -159 67 742 0
222 60 68 743 0
-272 -108 266 744 0
60 -119 355 745 0
470 19 -59 746 0
-87 -414 313 747 0
-249 209 377 748 0
266 123 -490 749 0
-329 -146 -305 750 0
-301 214 -72 751 0
-423 -426 450 752 0
-362 -328 470 753 0
181 -27 195 754 0
473 194 -156 755 0
175 -201 -489 756 0
373 251 429 757 0
316 -141 228 758 0
432 313 -254 759 0
272 -24 127 760 0
11 -468 19 761 0
-33 495 -188 762 0
-162 -298 -290 763 0
241 299 -424 764 0
-458 248 -215 765 0
-144 -174 -292 766 0
-479 -301 162 767 0
-436 464 87 768 0
-12 403 -83 769 0
463 -268 -307 770 0
-95 -243 158 771 0
284 -477 471 772 0
-445 -345 143 773 0
486 -11 -52 774 0
-454 465 105 775 0
-154 -331 -60 776 0
-375 -151 26 777 0
325 16 429 778 0
-273 -192 -344 779 0
86 389 463 780 0
-38 -286 139 781 0
-179 264 383 782 0
-155 -37 348 783 0
360 414 -318 784 0
55 310 -361 785 0
-115 385 -334 786 0
286 -310 371 787 0
-104 -485 382 788 0
178 -332 202 789 0
459 37 114 790 0
47 -139 -155 791 0
-329 264 -138 792 0
-234 -297 139 793 0
-382 -202 -148 794 0
350 -185 -362 795 0
388 500 -34 796 0
109 210 107 797 0
205 -119 303 798 0
337 -179 -339 799 0
-105 412 475 800 0
235 345 -69 801 0
357 -196 -467 802 0
75 -66 -132 803 0
-246 -274 -402 804 0
-23 -220 221 805 0
425 339 -198 806 0
-59 190 -386 807 0
25 -71 -348 808 0
-318 -442 -6 809 0
143 348 -437 810 0
-493 224 17 811 0
313 146 -339 812 0
347 -10 258 813 0
-434 -190 325 814 0
354 96 -411 815 0
-459 239 314 816 0
-257 -140 -223 817 0
389 497 -98 818 0
-119 462 266 819 0
6 345 -10 820 0
304 -445 106 821 0
84 -40 -27 822 0
386 -105 213 823 0
-107 -129 213 824 0
-31 -288 -241 825 0
433 356 -68 826 0
-382 112 -376 827 0
226 -322 -370 828 0
370 294 290 829 0
232 -166 -450 830 0
413 245 493 831 0
-288 -185 490 832 0
-305 38 314 833 0
-231 -218 142 834 0
163 395 -324 835 0
383 -305 76 836 0
444 251 -119 837 0
304 463 -402 838 0
-358 -164 82 839 0
-4 -194 -363 840 0
93 483 -299 841 0
375 2 -272 842 0
-137 -401 -138 843 0
119 172 -440 844 0
345 474 414 845 0
380 -401 -197 846 0
300 -213 -452 847 0
66 85 389 848 0
-483 -93 375 849 0
-439 389 326 850 0
174 346 441 851 0
254 -233 -82 852 0
-31 -436 -331 853 0
175 172 -162 854 0
-373 192 -372 855 0
-427 -169 -276 856 0
-438 269 429 857 0
498 262 224 858 0
-265 204 -279 859 0
342 52 344 860 0
168 325 -243 861 0
-40 -93 -33 862 0
-89 -318 98 863 0
133 -485 196 864 0
-55 -315 -186 865 0
-397 422 -52 866 0
-248 -28 294 867 0
-493 199 -135 868 0
308 -39 483 869 0
359 -386 360 870 0
103 146 -257 871 0
238 -206 -288 872 0
-417 138 480 873 0
-322 7 -193 874 0
145 357 345 875 0
-257 -227 358 876 0
-370 46 469 877 0
-86 -69 -40 878 0
360 -211 183 879 0
62 36 -440 880 0
-29 257 -15 881 0
-229 304 -187 882 0
161 174 397 883 0
115 467 258 884 0
-291 -284 289 885 0
354 -21 46 886 0
55 -191 86 887 0
487 74 -426 888 0
442 -407 219 889 0
-44 -328 499 890 0
244 169 384 891 0
14 -317 -476 892 0
169 405 -438 893 0
255 366 425 894 0
-298 -39 -22 895 0
-491 -14 -219 896 0
-62 47 59 897 0
397 352 -283 898 0
216 -174 160 899 0
469 -173 -88 900 0
-205 -246 -182 901 0
119 -479 -29 902 0
237 365 11 903 0
45 399 336 904 0
-422 -284 -490 905 0
-420 80 -458 906 0
367 366 265 907 0
142 55 -495 908 0
-122 90 225 909 0
161 -257 -100 910 0
-451 -213 -112 911 0
346 -287 430 912 0
32 -475 61 913 0
250 457 -161 914 0
-441 229 216 915 0
200 -350 -385 916 0
228 -282 129 917 0
-12 273 160 918 0
-421 -234 386 919 0
-494 -335 -191 920 0
-169 203 -299 921 0
72 -160 -15 922 0
-235 461 435 923 0
263 125 396 924 0
-6 -233 140 925 0
46 -184 -316 926 0
-222 69 -125 927 0
-450 -415 205 928 0
108 204 -18 929 0
1 4 -41 930 0
-189 -95 -387 931 0
434 -338 425 932 0
-243 -448 -370 933 0
252 -193 173 934 0
216 -276 -424 935 0
23 67 -197 936 0
-280 410 99 937 0
-302 -482 120 938 0
-252 -359 40 939 0
-361 129 -22 940 0
67 174 -133 941 0
198 -358 290 942 0
370 68 -283 943 0
219 361 -244 944 0
309 407 179 945 0
466 4 -439 946 0
336 481 235 947 0
279 -476 82 948 0
-192 -407 -109 949 0
-63 -158 -9 950 0
463 -228 210 951 0
-316 -333 -420 952 0
474 494 57 953 0
-26 -288 -452 954 0
476 159 -371 955 0
386 -196 208 956 0
200 28 -321 957 0
254 -446 -248 958 0
110 -33 -490 959 0
-365 -34 -172 960 0
-1 154 -283 961 0
-207 192 34 962 0
-49 415 145 963 0
-145 180 -33 964 0
119 -308 -488 965 0
42 48 282 966 0
-297 485 -356 967 0
-261 246 84 968 0
-443 -337 -461 969 0
385 -282 293 970 0
4 -318 198 971 0
-94 -263 -289 972 0
-140 -110 -356 973 0
-168 279 -419 974 0
-391 -454 -60 975 0
-397 432 -314 976 0
-151 -189 -286 977 0
244 -343 -338 978 0
485 181 -147 979 0
367 -263 42 980 0
410 166 88 981 0
82 397 -28 982 0
-89 283 3 983 0
226 40 -475 984 0
-69 -333 -255 985 0
-109 -16 -336 986 0
-406 -500 447 987 0
465 -356 -312 988 0
440 150 -82 989 0
25 -157 -461 990 0
72 -467 218 991 0
75 205 -38 992 0
45 97 -255 993 0
-443 12 32 994 0
-423 -416 -459 995 0
-363 -195 -62 996 0
-296 -179 153 997 0
-465 -111 277 998 0
-87 -452 73 999 0
39 479 87 1000 0
231 147 301 1001 0
-148 63 220 1002 0
334 426 -256 1003 0
92 325 305 1004 0
403 495 59 1005 0
246 -347 -269 1006 0
-235 62 387 1007 0
478 -477 68 1008 0
172 405 -124 1009 0
218 298 83 1010 0
399 -266 95 1011 0
42 -70 -98 1012 0
-457 29 -31 1013 0
-194 -280 -483 1014 0
-440 206 449 1015 0
-288 204 -74 1016 0
-244 -342 -473 1017 0
-340 -211 33 1018 0
-188 85 468 1019 0
-220 8 -11 1020 0
250 190 76 1021 0
66 45 -161 1022 0
214 -196 426 1023 0
406 -483 389 1024 0
127 -23 -201 1025 0
33 337 198 1026 0
-446 109 -4 1027 0
363 -95 320 1028 0
-481 -149 -398 1029 0
320 -273 62 1030 0
489 210 19 1031 0
-90 -33 335 1032 0
250 -361 408 1033 0
-92 371 340 1034 0
-46 408 -54 1035 0
275 -422 455 1036 0
330 50 -162 1037 0
-32 413 126 1038 0
-116 243 -75 1039 0
248 245 319 1040 0
-121 -321 -489 1041 0
226 -167 309 1042 0
80 197 143 1043 0
175 -67 -257 1044 0
-387 -129 211 1045 0
195 382 154 1046 0
372 -351 235 1047 0
48 -298 -418 1048 0
-256 -128 123 1049 0
172 66 352 1050 0
-272 492 -407 1051 0
422 -354 -192 1052 0
-123 171 -203 1053 0
296 225 224 1054 0
-234 268 -8 1055 0
338 323 149 1056 0
239 240 247 1057 0
-237 386 175 1058 0
-186 -139 499 1059 0
456 -334 -312 1060 0
-108 495 -72 1061 0
436 -196 358 1062 0
-319 -62 -148 1063 0
167 403 -220 1064 0
-171 4 -407 1065 0
97 -161 62 1066 0
67 308 -201 1067 0
127 -345 9 1068 0
206 -185 277 1069 0
-316 195 -60 1070 0
-470 -389 -271 1071 0
118 14 318 1072 0
-144 -119 148 1073 0
436 163 -244 1074 0
419 -143 103 1075 0
-332 -173 -136 1076 0
3 201 -147 1077 0
-222 -239 340 1078 0
-105 478 -458 1079 0
-45 -173 52 1080 0
-161 -300 -181 1081 0
-306 -168 37 1082 0
-309 -151 338 1083 0
306 -455 29 1084 0
-261 -435 423 1085 0
-325 -426 64 1086 0
-27 -341 -85 1087 0
-14 264 334 1088 0
72 138 -349 1089 0
83 40 -23 1090 0
100 -360 -227 1091 0
495 139 18 1092 0
-466 -267 -397 1093 0
-277 214 297 1094 0
-35 -224 154 1095 0
52 389 385 1096 0
238 -170 118 1097 0
-63 238 -342 1098 0
-60 -488 -42 1099 0
-81 -59 -174 1100 0
47 438 206 1101 0
182 -293 -394 1102 0
-18 -290 -221 1103 0
-370 -372 -495 1104 0
239 -372 469 1105 0
-336 475 -107 1106 0
-262 -337 -77 1107 0
14 -288 379 1108 0
51 462 153 1109 0
-176 139 -345 1110 0
310 163 34 1111 0
1 234 247 1112 0
128 187 -129 1113 0
-374 427 429 1114 0
-205 53 -340 1115 0
-343 497 155 1116 0
109 445 -70 1117 0
-233 -299 -487 1118 0
-162 -465 -68 1119 0
-436 38 462 1120 0
163 -149 468 1121 0
-70 -80 -455 1122 0
-267 276 -280 1123 0
-295 -77 -117 1124 0
319 -390 -190 1125 0
113 -165 31 1126 0
410 -91 342 1127 0
130 494 -287 1128 0
403 497 -360 1129 0
500 495 -86 1130 0
470 -345 -412 1131 0
79 -397 -421 1132 0
10 489 -241 1133 0
-411 51 281 1134 0
-184 -176 51 1135 0
482 -187 423 1136 0
14 146 388 1137 0
358 368 7 1138 0
340 420 34 1139 0
363 244 310 1140 0
-196 131 102 1141 0
-189 297 96 1142 0
336 30 198 1143 0
16 31 79 1144 0
-181 210 16 1145 0
-453 -173 212 1146 0
-430 135 173 1147 0
19 -315 -478 1148 0
281 14 21 1149 0
-463 -454 -478 1150 0
379 279 -440 1151 0
-423 -33 496 1152 0
-114 294 -18 1153 0
384 110 408 1154 0
-303 -120 295 1155 0
126 405 -79 1156 0
-261 -400 -175 1157 0
358 301 -52 1158 0
-189 -325 439 1159 0
364 478 62 1160 0
-456 -425 -288 1161 0
255 -347 116 1162 0
-358 -88 156 1163 0
-373 -367 -249 1164 0
188 322 -401 1165 0
353 -403 421 1166 0
145 -39 -294 1167 0
406 -354 117 1168 0
-288 397 -393 1169 0
497 110 -452 1170 0
450 343 -428 1171 0
-273 -288 -413 1172 0
378 279 227 1173 0
420 -235 -253 1174 0
58 -255 304 1175 0
229 -102 459 1176 0
-144 235 -267 1177 0
-112 -451 324 1178 0
145 226 -357 1179 0
332 461 128 1180 0
415 450 411 1181 0
-51 -331 -308 1182 0
-126 254 462 1183 0
-88 -168 405 1184 0
-381 39 336 1185 0
48 -466 -74 1186 0
108 220 178 1187 0
94 -290 218 1188 0
359 -315 210 1189 0
-257 239 309 1190 0
-251 -275 -46 1191 0
-354 304 187 1192 0
46 -97 241 1193 0
-123 -326 230 1194 0
-54 -360 314 1195 0
-162 412 -333 1196 0
163 -487 -17 1197 0
12 390 -374 1198 0
-359 212 133 1199 0
491 -357 337 1200 0
-165 -233 240 1201 0
-384 132 104 1202 0
-274 -405 25 1203 0
469 277 -465 1204 0
12 -190 -13 1205 0
-135 -130 32 1206 0
311 -156 -208 1207 0
-444 116 334 1208 0
347 -459 -449 1209 0
-259 -385 -288 1210 0
16 -426 -74 1211 0
21 427 -229 1212 0
-405 -460 -194 1213 0
-326 347 -388 1214 0
-414 -398 223 1215 0
-339 -298 19 1216 0
-356 416 -20 1217 0
22 -340 5 1218 0
269 74 -377 1219 0
-308 200 -247 1220 0
-222 -260 -363 1221 0
-49 470 -360 1222 0
366 331 8 1223 0
155 288 -267 1224 0
220 -234 305 1225 0
-383 323 -121 1226 0
-21 69 -62 1227 0
-8 31 -335 1228 0
87 500 -219 1229 0
-469 -347 -465 1230 0
267 -137 -192 1231 0
58 258 191 1232 0
311 -56 207 1233 0
268 -486 -124 1234 0
-434 237 215 1235 0
110 -5 352 1236 0
197 -117 -338 1237 0
-434 277 -294 1238 0
125 276 71 1239 0
-17 152 342 1240 0
-216 -302 -456 1241 0
-437 -345 187 1242 0
96 131 421 1243 0
-286 449 474 1244 0
-467 439 -70 1245 0
272 -14 277 1246 0
-83 237 352 1247 0
433 463 142 1248 0
462 355 -398 1249 0
349 89 403 1250 0
292 -327 -173 1251 0
-157 -244 371 1252 0
-67 10 -423 1253 0
170 -37 -354 1254 0
-197 -258 324 1255 0
-238 498 488 1256 0
-469 233 179 1257 0
466 134 -164 1258 0
400 228 475 1259 0
-418 28 -80 1260 0
-430 327 191 1261 0
-186 -222 116 1262 0
-87 -314 202 1263 0
229 148 -449 1264 0
-474 402 -363 1265 0
62 -84 -470 1266 0
-265 240 178 1267 0
254 -116 383 1268 0
36 -366 83 1269 0
340 -348 -462 1270 0
110 348 -30 1271 0
-155 -31 -14 1272 0
-437 -483 -162 1273 0
-88 353 -113 1274 0
-496 327 -187 1275 0
-367 -216 -134 1276 0
70 411 -39 1277 0
-236 36 -78 1278 0
19 -92 -165 1279 0
222 237 -409 1280 0
117 -319 145 1281 0
-225 284 -429 1282 0
-255 -13 385 1283 0
369 -344 -307 1284 0
-50 -360 187 1285 0
44 288 -281 1286 0
296 263 -278 1287 0
41 254 78 1288 0
305 449 -356 1289 0
82 -262 -173 1290 0
-438 -417 91 1291 0
161 -77 -72 1292 0
-249 293 -42 1293 0
-301 -174 342 1294 0
203 -494 200 1295 0
207 -61 -235 1296 0
-192 70 -145 1297 0
205 461 392 1298 0
-156 201 -446 1299 0
-222 -488 260 1300 0
445 434 341 1301 0
337 -115 428 1302 0
-263 341 -170 1303 0
-478 -250 38 1304 0
496 205 172 1305 0
91 141 -53 1306 0
-16 376 481 1307 0
-369 314 -44 1308 0
299 290 -103 1309 0
326 -134 -287 1310 0
482 238 -166 1311 0
-71 -210 -235 1312 0
400 -161 409 1313 0
-492 318 282 1314 0
-185 162 235 1315 0
18 456 253 1316 0
-71 479 433 1317 0
-46 446 -63 1318 0
-414 304 -223 1319 0
-194 152 -229 1320 0
114 427 100 1321 0
-360 311 500 1322 0
-22 298 -347 1323 0
260 420 197 1324 0
-457 -315 -169 1325 0
-372 -84 -344 1326 0
-412 352 -325 1327 0
494 212 -303 1328 0
22 126 -368 1329 0
-48 -401 470 1330 0
-125 302 32 1331 0
389 47 474 1332 0
-265 246 372 1333 0
252 -102 -387 1334 0
-458 -431 -96 1335 0
240 -108 473 1336 0
248 438 270 1337 0
-192 114 -489 1338 0
8 -270 203 1339 0
-395 -206 129 1340 0
-490 383 -171 1341 0
72 239 -324 1342 0
369 413 -316 1343 0
-19 -467 389 1344 0
282 398 457 1345 0
407 -90 -473 1346 0
379 -391 -330 1347 0
-499 -438 416 1348 0
-180 260 -373 1349 0
341 -397 -433 1350 0
-305 6 -279 1351 0
270 -137 -323 1352 0
348 -54 356 1353 0
-222 -415 -94 1354 0
-287 -310 -117 1355 0
335 -30 393 1356 0
407 469 247 1357 0
-243 -45 -353 1358 0
-27 126 265 1359 0
-378 -138 -282 1360 0
-428 -275 486 1361 0
-121 159 -137 1362 0
-81 -177 135 1363 0
344 -446 -81 1364 0
-321 -275 -149 1365 0
335 170 279 1366 0
348 -372 -389 1367 0
-493 290 -377 1368 0
-160 -391 -109 1369 0
-419 -354 -38 1370 0
447 95 60 1371 0
414 -206 -350 1372 0
-328 -203 -298 1373 0
335 225 143 1374 0
276 -161 -283 1375 0
131 138 414 1376 0
-146 333 127 1377 0
83 -141 361 1378 0
452 127 -112 1379 0
496 233 328 1380 0
451 -331 454 1381 0
-293 429 -460 1382 0
34 159 -405 1383 0
-379 118 277 1384 0
-308 23 463 1385 0
182 -172 426 1386 0
300 479 77 1387 0
-69 281 -204 1388 0
63 364 -318 1389 0
-65 -450 -411 1390 0
252 216 -350 1391 0
330 -29 -480 1392 0
303 -485 -7 1393 0
228 303 -406 1394 0
447 -462 -240 1395 0
-430 -173 -271 1396 0
-16 49 70 1397 0
69 -353 165 1398 0
-469 -286 -475 1399 0
-103 309 -45 1400 0
141 192 68 1401 0
341 -245 -480 1402 0
-173 -332 181 1403 0
-388 155 -497 1404 0
-97 -387 -77 1405 0
-497 22 407 1406 0
-313 288 -118 1407 0
-121 86 -319 1408 0
-341 359 458 1409 0
-276 345 -43 1410 0
466 -46 -241 1411 0
-497 -148 -236 1412 0
195 306 -447 1413 0
54 -374 -74 1414 0
133 -273 -170 1415 0
-369 412 58 1416 0
253 113 168 1417 0
57 -417 295 1418 0
97 -343 -474 1419 0
189 -500 57 1420 0
193 -62 -164 1421 0
-111 312 -238 1422 0
226 -82 -417 1423 0
-476 423 -328 1424 0
233 265 -237 1425 0
345 369 150 1426 0
-241 -269 141 1427 0
-78 299 -115 1428 0
-465 411 -388 1429 0
-190 -85 278 1430 0
-233 -488 432 1431 0
153 233 -33 1432 0
-418 41 -314 1433 0
-393 -22 156 1434 0
149 -188 303 1435 0
-249 -88 -179 1436 0
-346 -5 -429 1437 0
-2 290 -275 1438 0
-485 344 304 1439 0
-231 358 433 1440 0
57 306 257 1441 0
-279 -120 237 1442 0
-397 -56 489 1443 0
325 413 -278 1444 0
-320 -390 -42 1445 0
-165 -291 321 1446 0
329 418 -478 1447 0
-167 467 -364 1448 0
279 291 -162 1449 0
444 -363 301 1450 0
203 -268 260 1451 0
488 394 193 1452 0
-476 -166 -52 1453 0
-181 -270 176 1454 0
-272 398 486 1455 0
-332 491 448 1456 0
342 406 -311 1457 0
89 111 452 1458 0
305 279 307 1459 0
384 417 -289 1460 0
-226 351 174 1461 0
111 -491 63 1462 0
-392 130 77 1463 0
373 331 78 1464 0
-135 -83 111 1465 0
-447 194 53 1466 0
150 -264 42 1467 0
-24 -235 -475 1468 0
-354 186 -44 1469 0
-282 -279 -319 1470 0
306 338 -78 1471 0
-391 -190 188 1472 0
-76 -360 -296 1473 0
-263 -308 -480 1474 0
63 -453 -234 1475 0
-455 -130 -300 1476 0
-419 492 423 1477 0
186 -226 -4 1478 0
442 -189 -202 1479 0
-418 -262 278 1480 0
394 -200 -440 1481 0
193 -97 64 1482 0
-30 360 317 1483 0
-325 -327 -419 1484 0
208 6 -175 1485 0
79 -460 197 1486 0
-90 -240 98 1487 0
437 446 39 1488 0
-437 -462 294 1489 0
352 -292 432 1490 0
213 -152 -203 1491 0
-77 -487 479 1492 0
-327 -181 257 1493 0
300 34 -39 1494 0
-125 111 179 1495 0
-245 -58 129 1496 0
480 6 -315 1497 0
-184 208 422 1498 0
-173 -11 -456 1499 0
266 465 105 1500 0
-21 160 -364 1501 0
-430 455 153 1502 0
496 467 -391 1503 0
-264 -473 97 1504 0
56 -344 -279 1505 0
12 56 440 1506 0
372 -106 416 1507 0
-178 248 -106 1508 0
-477 -226 22 1509 0
313 16 -323 1510 0
-357 125 -121 1511 0
241 90 293 1512 0
-373 -338 -171 1513 0
-72 -129 240 1514 0
467 295 192 1515 0
-87 422 69 1516 0
256 -80 -358 1517 0
302 -356 50 1518 0
162 -454 60 1519 0
-293 -141 -382 1520 0
-147 466 179 1521 0
-377 431 -430 1522 0
30 306 149 1523 0
-39 436 440 1524 0
6 8 -111 1525 0
454 -315 429 1526 0
100 353 449 1527 0
-188 -19 -58 1528 0
-60 312 -356 1529 0
257 426 303 1530 0
149 -2 116 1531 0
-3 136 -442 1532 0
372 -299 -492 1533 0
216 101 -191 1534 0
12 31 -241 1535 0
-106 16 292 1536 0
93 -228 89 1537 0
365 -320 -377 1538 0
208 -345 -379 1539 0
-444 -166 -216 1540 0
-81 -373 -404 1541 0
479 204 -277 1542 0
-189 428 -187 1543 0
481 44 -118 1544 0
-363 -65 -294 1545 0
378 -375 -436 1546 0
-185 -303 -262 1547 0
199 71 66 1548 0
342 437 -115 1549 0
-238 137 336 1550 0
250 435 69 1551 0
280 309 -404 1552 0
161 -286 220 1553 0
-415 -292 433 1554 0
-334 -328 210 1555 0
459 -84 -80 1556 0
-287 -36 -242 1557 0
-206 95 177 1558 0
-132 187 -106 1559 0
-468 -374 -185 1560 0
-389 329 459 1561 0
420 303 285 1562 0
-426 80 217 1563 0
-423 -53 38 1564 0
-228 28 -257 1565 0
261 -144 -113 1566 0
375 -461 -56 1567 0
-489 -235 -49 1568 0
-385 32 365 1569 0
-227 306 -493 1570 0
-177 -138 -288 1571 0
495 -151 -276 1572 0
370 -254 -1 1573 0
-145 159 253 1574 0
-99 -342 360 1575 0
203 110 263 1576 0
498 345 -111 1577 0
479 -424 242 1578 0
-174 -49 274 1579 0
129 -472 215 1580 0
-260 357 177 1581 0
-265 -478 -254 1582 0
314 -115 -348 1583 0
-1 342 49 1584 0
-450 -140 -33 1585 0
-351 -496 -54 1586 0
397 499 416 1587 0
112 68 170 1588 0
327 359 -372 1589 0
-217 -371 130 1590 0
3 72 162 1591 0
386 -121 467 1592 0
335 146 68 1593 0
-122 362 -407 1594 0
-462 176 181 1595 0
-290 483 -237 1596 0
156 282 -381 1597 0
-457 -126 -154 1598 0
-42 -122 -95 1599 0
-156 -426 -220 1600 0
482 130 162 1601 0
456 88 300 1602 0
265 -84 -145 1603 0
335 88 396 1604 0
-177 459 135 1605 0
456 -292 -126 1606 0
463 67 -268 1607 0
-235 -133 273 1608 0
64 -21 -312 1609 0
440 -84 -297 1610 0
-381 20 425 1611 0
-120 -333 -288 1612 0
-463 -334 -97 1613 0
-460 142 353 1614 0
-38 -159 -88 1615 0
138 164 404 1616 0
-474 -392 443 1617 0
6 431 229 1618 0
-71 478 55 1619 0
286 -108 352 1620 0
-485 434 -212 1621 0
-237 286 303 1622 0
122 299 -272 1623 0
-433 328 404 1624 0
38 -89 310 1625 0
325 -382 -1 1626 0
-436 387 118 1627 0
-111 161 473 1628 0
-145 -321 -375 1629 0
302 -366 304 1630 0
-395 88 302 1631 0
109 493 169 1632 0
113 -487 166 1633 0
216 470 -11 1634 0
87 272 -294 1635 0
-436 -8 -179 1636 0
179 -450 -158 1637 0
-266 -135 474 1638 0
219 210 -443 1639 0
189 352 -119 1640 0
97 241 -50 1641 0
-73 304 -208 1642 0
-244 -452 154 1643 0
98 327 181 1644 0
23 -220 4 1645 0
117 127 176 1646 0
7 -298 -311 1647 0
-353 -106 439 1648 0
-441 -429 -100 1649 0
238 184 456 1650 0
488 332 -105 1651 0
278 302 140 1652 0
-463 73 -118 1653 0
265 -187 132 1654 0
-243 -346 -5 1655 0
-476 450 47 1656 0
114 -226 499 1657 0
-488 -334 181 1658 0
-142 -112 -462 1659 0
-97 -124 -173 1660 0
-402 -304 202 1661 0
320 -477 -226 1662 0
-406 66 104 1663 0
110 314 -174 1664 0
-361 193 371 1665 0
-291 157 -175 1666 0
-487 -90 -10 1667 0
-26 -318 -151 1668 0
4 200 207 1669 0
-312 146 109 1670 0
72 -76 -322 1671 0
-381 248 -371 1672 0
-99 -382 -331 1673 0
-453 149 353 1674 0
-222 211 -479 1675 0
-340 -8 -453 1676 0
-342 425 -424 1677 0
-493 148 324 1678 0
-97 -13 -398 1679 0
-129 221 -121 1680 0
408 -385 217 1681 0
222 261 191 1682 0
31 33 -392 1683 0
-175 -312 80 1684 0
-103 102 448 1685 0
-265 -178 -233 1686 0
-493 110 44 1687 0
346 239 -88 1688 0
162 78 -227 1689 0
269 -273 49 1690 0
-263 475 255 1691 0
190 -322 -461 1692 0
-245 -141 -252 1693 0
470 408 447 1694 0
427 320 -203 1695 0
-237 -222 402 1696 0
353 88 -382 1697 0
-423 384 -13 1698 0
-94 200 -293 1699 0
404 -145 258 1700 0
-171 -181 -164 1701 0
251 13 341 1702 0
372 297 128 1703 0
-323 -44 154 1704 0
-60 -89 -353 1705 0
257 -397 -108 1706 0
355 -221 308 1707 0
94 145 -342 1708 0
-302 224 -10 1709 0
-113 265 316 1710 0
-253 -476 228 1711 0
-190 47 -306 1712 0
-349 155 355 1713 0
-54 -227 242 1714 0
257 -320 -495 1715 0
-139 -460 196 1716 0
309 -10 184 1717 0
-360 -197 -439 1718 0
-176 -209 -407 1719 0
-404 -168 444 1720 0
-427 -155 -100 1721 0
-46 -493 -79 1722 0
-236 414 -207 1723 0
120 -132 333 1724 0
-213 -75 -209 1725 0
235 -401 -82 1726 0
-48 332 362 1727 0
-262 -389 108 1728 0
77 121 328 1729 0
264 -422 397 1730 0
-251 31 436 1731 0
248 420 276 1732 0
126 -70 277 1733 0
-107 -214 -257 1734 0
-242 220 85 1735 0
339 57 -277 1736 0
282 -70 404 1737 0
-231 248 217 1738 0
307 320 -225 1739 0
124 286 -496 1740 0
-204 308 -476 1741 0
338 473 433 1742 0
-223 285 -216 1743 0
192 172 39 1744 0
463 -118 -235 1745 0
149 -48 230 1746 0
-173 113 72 1747 0
21 127 -29 1748 0
77 -69 -99 1749 0
-287 117 107 1750 0
84 407 134 1751 0
-132 24 -107 1752 0
-352 75 217 1753 0
-421 500 437 1754 0
201 15 -394 1755 0
-493 111 399 1756 0
-422 169 430 1757 0
-219 -175 -161 1758 0
-336 -107 492 1759 0
2 -201 -147 1760 0
312 62 -8 1761 0
467 -254 -463 1762 0
417 410 -371 1763 0
207 35 -469 1764 0
470 465 53 1765 0
-73 17 220 1766 0
154 -237 92 1767 0
-266 -26 -36 1768 0
443 402 -244 1769 0
-310 223 -193 1770 0
318 -250 -180 1771 0
17 355 -209 1772 0
407 421 12 1773 0
18 452 -451 1774 0
-248 -307 -468 1775 0
26 239 113 1776 0
173 -317 -257 1777 0
180 15 270 1778 0
-365 -160 -175 1779 0
186 88 153 1780 0
313 181 -392 1781 0
-396 -331 378 1782 0
-168 414 -213 1783 0
-6 -477 200 1784 0
254 -351 -119 1785 0
221 -301 445 1786 0
-75 178 444 1787 0
-218 194 -257 1788 0
202 25 -362 1789 0
-287 100 -145 1790 0
-196 54 424 1791 0
169 -174 -85 1792 0
93 -431 -388 1793 0
312 -423 94 1794 0
-130 -479 -165 1795 0
-116 165 -185 1796 0
-194 316 -110 1797 0
408 -350 -384 1798 0
-247 -498 -50 1799 0
150 -488 265 1800 0
-267 43 142 1801 0
375 -268 232 1802 0
200 -15 357 1803 0
-354 341 -60 1804 0
487 341 -447 1805 0
-423 -264 -143 1806 0
139 -398 -421 1807 0
169 -344 127 1808 0
-306 -295 -420 1809 0
-400 25 -17 1810 0
364 100 148 1811 0
358 498 461 1812 0
-61 -262 343 1813 0
-479 -415 -328 1814 0
-156 452 -371 1815 0
-410 95 -67 1816 0
79 -298 -339 1817 0
-355 -322 -133 1818 0
394 60 -388 1819 0
-451 161 -376 1820 0
78 417 202 1821 0
-321 354 153 1822 0
-31 -473 268 1823 0
417 -36 -418 1824 0
207 302 95 1825 0
61 -104 -355 1826 0
-250 -437 144 1827 0
40 -307 407 1828 0
240 -90 168 1829 0
271 -493 -120 1830 0
139 161 -316 1831 0
423 186 -399 1832 0
113 -365 -177 1833 0
301 172 375 1834 0
-173 -256 -410 1835 0
385 166 -318 1836 0
-270 14 320 1837 0
-214 -187 -351 1838 0
99 -98 153 1839 0
-44 -322 299 1840 0
293 362 138 1841 0
496 234 47 1842 0
174 -179 240 1843 0
95 -446 -222 1844 0
-410 28 -75 1845 0
148 63 52 1846 0
335 -322 -225 1847 0
408 376 -437 1848 0
-386 6 136 1849 0
256 342 25 1850 0
15 -171 354 1851 0
192 499 -137 1852 0
-6 -316 402 1853 0
345 40 -276 1854 0
208 276 -295 1855 0
383 226 -234 1856 0
329 413 -53 1857 0
379 303 -482 1858 0
364 419 -422 1859 0
319 -286 442 1860 0
425 177 15 1861 0
320 -276 230 1862 0
394 120 150 1863 0
-223 203 -123 1864 0
-43 -141 -351 1865 0
264 58 416 1866 0
-165 414 122 1867 0
-440 -94 -333 1868 0
423 203 63 1869 0
-395 198 94 1870 0
-410 216 26 1871 0
442 -405 -165 1872 0
-191 249 394 1873 0
-376 256 129 1874 0
251 99 -396 1875 0
70 -132 -462 1876 0
402 68 292 1877 0
-181 -296 474 1878 0
463 -378 394 1879 0
-85 -59 -323 1880 0
281 21 225 1881 0
-326 -432 282 1882 0
-168 -359 -440 1883 0
-499 -410 244 1884 0
238 -53 27 1885 0
-310 -12 125 1886 0
468 -388 -305 1887 0
-286 3 471 1888 0
-335 137 -81 1889 0
35 103 288 1890 0
-267 -480 -71 1891 0
-272 446 -249 1892 0
491 364 441 1893 0
307 331 -257 1894 0
56 206 248 1895 0
191 265 -309 1896 0
-226 -294 403 1897 0
-87 -291 -489 1898 0
-142 8 -333 1899 0
-79 481 228 1900 0
374 -286 -314 1901 0
60 -40 254 1902 0
-483 -322 -239 1903 0
-176 104 282 1904 0
-372 -425 -407 1905 0
-339 -474 -369 1906 0
-347 130 -92 1907 0
172 363 281 1908 0
-476 69 452 1909 0
-247 482 45 1910 0
252 -468 -290 1911 0
-32 -186 -54 1912 0
283 -278 390 1913 0
-276 -334 270 1914 0
-401 -183 46 1915 0
-178 99 -449 1916 0
-358 223 460 1917 0
478 -340 -347 1918 0
-357 -267 -165 1919 0
-427 -244 -168 1920 0
388 330 344 1921 0
111 287 162 1922 0
-183 -135 335 1923 0
368 -392 -421 1924 0
70 -473 186 1925 0
18 302 -383 1926 0
190 -268 -28 1927 0
-368 -93 -333 1928 0
-18 -250 -305 1929 0
110 439 176 1930 0
-465 -339 441 1931 0
-490 381 325 1932 0
-55 -476 -311 1933 0
-54 376 151 1934 0
493 -265 -1 1935 0
-39 177 -86 1936 0
98 51 -413 1937 0
-9 33 -225 1938 0
487 429 333 1939 0
264 -200 216 1940 0
-313 402 -337 1941 0
-271 489 -160 1942 0
-457 -235 -401 1943 0
343 -227 -297 1944 0
-131 67 -290 1945 0
-417 -484 278 1946 0
456 -346 230 1947 0
266 -396 -157 1948 0
-70 -129 198 1949 0
98 150 -482 1950 0
-52 -9 -227 1951 0
-151 249 328 1952 0
59 258 -129 1953 0
276 312 -47 1954 0
296 14 205 1955 0
69 -137 82 1956 0
-325 -94 -279 1957 0
488 -101 43 1958 0
492 99 120 1959 0
477 173 -71 1960 0
-280 -174 91 1961 0
-351 315 -333 1962 0
-371 -89 -119 1963 0
-437 275 443 1964 0
-173 347 -423 1965 0
172 243 -321 1966 0
498 190 151 1967 0
-52 -130 261 1968 0
-353 -352 399 1969 0
-442 498 -255 1970 0
287 -61 -314 1971 0
33 -15 -386 1972 0
-55 42 -54 1973 0
-211 415 -281 1974 0
132 -466 -14 1975 0
34 -50 -217 1976 0
244 161 390 1977 0
-402 -429 -303 1978 0
290 72 121 1979 0
-475 -3 203 1980 0
149 -301 -288 1981 0
-61 454 22 1982 0
110 -100 -344 1983 0
-102 -440 -174 1984 0
-491 49 377 1985 0
184 232 208 1986 0
-390 -146 187 1987 0
-173 155 -204 1988 0
245 -27 77 1989 0
109 249 -86 1990 0
-478 -117 -166 1991 0
176 -63 70 1992 0
-114 61 177 1993 0
271 53 -447 1994 0
18 131 493 1995 0
18 -427 -426 1996 0
-263 191 -18 1997 0
-456 -232 -102 1998 0
177 -114 157 1999 0
28 -312 -444 2000 0
-438 465 117 2001 0
478 20 -495 2002 0
22 417 15 2003 0
-88 199 235 2004 0
339 127 -422 2005 0
457 48 387 2006 0
-428 -354 45 2007 0
-78 -174 206 2008 0
-188 398 -478 2009 0
-5 -431 -140 2010 0
63 365 464 2011 0
247 500 5 2012 0
-277 349 390 2013 0
119 127 352 2014 0
347 403 196 2015 0
-86 -309 -405 2016 0
-177 -10 -461 2017 0
-67 116 -288 2018 0
204 287 -17 2019 0
-471 -132 -76 2020 0
-443 118 -276 2021 0
-423 -164 -208 2022 0
-409 -250 -352 2023 0
488 404 -414 2024 0
406 -434 431 2025 0
-336 160 -464 2026 0
-305 -46 137 2027 0
-312 39 127 2028 0
-128 125 417 2029 0
113 -284 464 2030 0
-274 -299 -22 2031 0
-362 -238 -144 2032 0
-445 -428 -55 2033 0
-80 -110 -236 2034 0
-97 -308 56 2035 0
-397 -190 -388 2036 0
293 -473 335 2037 0
-132 -334 236 2038 0
-309 -319 -9 2039 0
-156 19 -49 2040 0
-472 -304 -114 2041 0
41 -378 -380 2042 0
213 -15 -50 2043 0
-274 -199 362 2044 0
49 22 66 2045 0
415 -49 -123 2046 0
348 -489 471 2047 0
-110 -414 21 2048 0
-446 -315 369 2049 0
96 342 -211 2050 0
-21 -7 405 2051 0
-349 67 -289 2052 0
-492 189 -469 2053 0
-66 138 -74 2054 0
387 -384 289 2055 0
-105 47 -372 2056 0
353 70 -325 2057 0
-110 42 34 2058 0
-164 489 -239 2059 0
355 119 249 2060 0
-79 248 -217 2061 0
205 260 318 2062 0
-214 -344 -473 2063 0
310 -62 187 2064 0
-6 405 -358 2065 0
366 437 -188 2066 0
-40 146 253 2067 0
339 76 -79 2068 0
-476 388 190 2069 0
274 80 469 2070 0
-132 -342 -41 2071 0
74 -389 167 2072 0
-31 -133 18 2073 0
-386 19 -125 2074 0
416 -367 -393 2075 0
-497 159 -117 2076 0
224 223 326 2077 0
-336 -300 279 2078 0
-103 129 -357 2079 0
31 -232 -382 2080 0
265 -187 -101 2081 0
342 248 139 2082 0
336 195 128 2083 0
-172 -247 385 2084 0
266 -282 -399 2085 0
-39 479 -135 2086 0
-35 314 270 2087 0
112 189 31 2088 0
-158 -343 -192 2089 0
368 443 -486 2090 0
185 -196 499 2091 0
-304 -375 -39 2092 0
161 -69 -367 2093 0
-259 -56 424 2094 0
-237 -448 -110 2095 0
-12 -172 -321 2096 0
304 -497 -21 2097 0
355 -155 -60 2098 0
296 455 308 2099 0
169 289 445 2100 0
-405 75 154 2101 0
-28 -434 381 2102 0
473 166 260 2103 0
-442 281 -287 2104 0
335 -13 83 2105 0
85 -212 287 2106 0
153 -341 -255 2107 0
-313 248 -419 2108 0
-174 124 478 2109 0
-334 -470 -13 2110 0
-177 -344 -187 2111 0
206 480 368 2112 0
-153 -472 451 2113 0
89 446 -360 2114 0
500 190 -427 2115 0
465 -427 -208 2116 0
-159 -16 352 2117 0
51 296 -467 2118 0
126 465 -112 2119 0
-216 90 193 2120 0
202 -399 -117 2121 0
-14 -227 424 2122 0
-455 -314 -17 2123 0
-154 98 80 2124 0
-135 -100 273 2125 0
152 313 21 2126 0
170 -96 93 2127 0
-31 402 -194 2128 0
-302 74 -27 2129 0
437 -201 -436 2130 0
-383 121 -281 2131 0
149 158 -496 2132 0
425 -137 -262 2133 0
-459 -57 -36 2134 0
-382 -133 -350 2135 0
96 -433 -220 2136 0
-133 104 315 2137 0
189 331 -112 2138 0
3 8 -75 2139 0
-371 -376 210 2140 0
333 -322 94 2141 0
-87 -498 -234 2142 0
342 -9 -466 2143 0
-473 -323 -162 2144 0
-93 18 495 2145 0
-56 438 -241 2146 0
234 -385 129 2147 0
-23 117 43 2148 0
68 53 292 2149 0
114 6 75 2150 0
162 -230 -340 2151 0
-39 89 281 2152 0
-286 296 201 2153 0
174 -14 -41 2154 0
72 -239 -321 2155 0
-128 -435 -159 2156 0
-256 -17 -370 2157 0
258 -288 -321 2158 0
221 -135 -200 2159 0
-429 -337 343 2160 0
-349 -213 -325 2161 0
137 -151 -194 2162 0
-173 -107 232 2163 0
383 -407 -388 2164 0
342 -257 -283 2165 0
384 -167 -469 2166 0
178 257 -164 2167 0
134 234 115 2168 0
-112 418 -419 2169 0
-397 470 192 2170 0
-27 375 362 2171 0
11 92 -208 2172 0
-312 -387 106 2173 0
289 140 32 2174 0
-188 -105 2 2175 0
-69 5 -153 2176 0
-354 436 272 2177 0
231 -499 370 2178 0
148 -205 -489 2179 0
-486 466 -186 2180 0
209 -347 -249 2181 0
-93 -347 -22 2182 0
383 473 -216 2183 0
7 -219 -467 2184 0
-37 221 -358 2185 0
362 -326 450 2186 0
-209 394 59 2187 0
448 -269 -500 2188 0
-63 -270 -45 2189 0
377 54 283 2190 0
367 83 275 2191 0
-316 -417 -118 2192 0
-481 76 -5 2193 0
457 218 -329 2194 0
-478 -251 -29 2195 0
-146 30 321 2196 0
387 434 389 2197 0
423 -278 -53 2198 0
355 134 140 2199 0
248 -134 -152 2200 0
-53 371 410 2201 0
-342 -227 -251 2202 0
-488 51 -237 2203 0
226 -138 -351 2204 0
380 79 161 2205 0
-436 -89 -185 2206 0
-193 -152 -32 2207 0
274 -488 215 2208 0
-403 285 18 2209 0
-405 -452 -110 2210 0
44 -416 -440 2211 0
41 24 177 2212 0
21 113 302 2213 0
332 -321 -155 2214 0
-108 -11 67 2215 0
157 463 -391 2216 0
280 -325 418 2217 0
485 -295 -106 2218 0
-241 -28 -104 2219 0
87 311 289 2220 0
128 156 -369 2221 0
-218 260 392 2222 0
-199 275 117 2223 0
255 46 -280 2224 0
-376 -261 489 2225 0
286 -370 -223 2226 0
462 412 303 2227 0
-78 -303 -267 2228 0
-479 -139 -250 2229 0
94 -329 -183 2230 0
-249 -243 -394 2231 0
51 -75 245 2232 0
-346 390 -339 2233 0
-420 105 -243 2234 0
444 -282 254 2235 0
-370 66 -296 2236 0
15 205 431 2237 0
312 -275 -169 2238 0
-475 447 228 2239 0
15 -63 196 2240 0
-307 108 438 2241 0
133 294 -7 2242 0
-85 52 263 2243 0
-198 -119 -79 2244 0
122 -259 -211 2245 0
-482 -293 439 2246 0
-192 206 -106 2247 0
-86 385 -321 2248 0
-308 156 211 2249 0
87 219 -24 2250 0
231 -245 -312 2251 0
256 115 -58 2252 0
-255 2 142 2253 0
395 357 125 2254 0
-31 -7 -11 2255 0
59 -235 246 2256 0
218 -124 235 2257 0
177 -82 485 2258 0
499 -24 -32 2259 0
-475 -283 -487 2260 0
11 292 -254 2261 0
-364 153 -17 2262 0
244 -339 126 2263 0
498 6 458 2264 0
217 -3 254 2265 0
-101 412 -113 2266 0
381 -12 33 2267 0
-113 -40 -477 2268 0
497 29 -81 2269 0
68 -105 106 2270 0
-269 -252 -376 2271 0
-162 -215 -466 2272 0
56 406 -426 2273 0
425 281 331 2274 0
-149 194 412 2275 0
468 341 224 2276 0
313 -303 197 2277 0
-451 -401 -212 2278 0
-476 -177 268 2279 0
183 -216 -279 2280 0
-495 368 -150 2281 0
349 -486 -402 2282 0
-403 -479 -79 2283 0
-247 -439 302 2284 0
464 -477 93 2285 0
-234 -28 290 2286 0
-372 -46 -138 2287 0
-306 -444 420 2288 0
476 -378 -104 2289 0
-304 254 214 2290 0
-370 -322 -439 2291 0
410 -289 167 2292 0
153 -98 -365 2293 0
-159 -195 -325 2294 0
-239 -499 -61 2295 0
302 380 235 2296 0
-29 347 -31 2297 0
-268 312 7 2298 0
-178 246 446 2299 0
303 171 -279 2300 0
388 336 -399 2301 0
363 -492 385 2302 0
-187 -373 163 2303 0
-249 241 -250 2304 0
-444 481 123 2305 0
-101 275 -374 2306 0
72 428 -381 2307 0
283 -198 -446 2308 0
33 466 361 2309 0
80 219 103 2310 0
-445 -222 -38 2311 0
-259 103 -182 2312 0
-442 407 -175 2313 0
-423 -229 196 2314 0
485 -208 -489 2315 0
265 255 450 2316 0
96 -255 -72 2317 0
20 -350 363 2318 0
-341 427 80 2319 0
206 230 380 2320 0
-59 142 19 2321 0
-452 -80 -218 2322 0
-29 -224 -261 2323 0
-486 -125 -305 2324 0
176 118 -389 2325 0
-89 -53 187 2326 0
-259 45 -57 2327 0
168 261 212 2328 0
435 -434 21 2329 0
-113 339 -493 2330 0
-304 79 -373 2331 0
156 -81 -108 2332 0
-23 -202 -470 2333 0
-73 43 -377 2334 0
-442 339 361 2335 0
-10 227 455 2336 0
-13 -166 -158 2337 0
-68 242 -282 2338 0
-453 28 3 2339 0
180 -337 -445 2340 0
-336 -217 -43 2341 0
-436 91 168 2342 0
-218 422 -489 2343 0
-324 -26 -481 2344 0
-113 109 -489 2345 0
30 -450 33 2346 0
-285 53 31 2347 0
-191 -138 435 2348 0
-370 91 461 2349 0
-307 10 158 2350 0
-47 125 398 2351 0
63 423 91 2352 0
412 -45 437 2353 0
-70 -109 -495 2354 0
-267 -114 -69 2355 0
64 382 -14 2356 0
5 369 -313 2357 0
164 -377 -396 2358 0
-462 392 -35 2359 0
281 145 -223 2360 0
46 158 113 2361 0
177 454 457 2362 0
190 119 -8 2363 0
-332 -86 -373 2364 0
-175 164 265 2365 0
409 193 25 2366 0
310 -388 -301 2367 0
428 202 -229 2368 0
-358 -191 175 2369 0
-483 -307 462 2370 0
-427 -282 -339 2371 0
-327 148 146 2372 0
-18 -448 -91 2373 0
-32 -288 309 2374 0
433 134 -11 2375 0
196 353 -74 2376 0
-334 392 435 2377 0
257 -137 84 2378 0
-385 -55 -158 2379 0
16 160 332 2380 0
-474 31 -477 2381 0
467 158 -336 2382 0
107 164 93 2383 0
229 -168 460 2384 0
-98 -448 -281 2385 0
22 -5 -280 2386 0
-160 363 -49 2387 0
-476 -305 102 2388 0
-337 453 -1 2389 0
-294 290 -191 2390 0
231 150 485 2391 0
435 -488 186 2392 0
428 291 -161 2393 0
-45 81 -195 2394 0
-271 -117 6 2395 0
-115 -161 -191 2396 0
-16 330 -434 2397 0
-353 -159 111 2398 0
281 361 -41 2399 0
-444 70 433 2400 0
-444 -483 -93 2401 0
5 -296 -129 2402 0
182 -269 -280 2403 0
-296 115 107 2404 0
-422 -19 -479 2405 0
387 142 477 2406 0
61 121 495 2407 0
-291 402 -124 2408 0
151 463 -164 2409 0
-300 -249 294 2410 0
91 -310 -488 2411 0
-471 -188 52 2412 0
241 -79 479 2413 0
-16 383 31 2414 0
-388 -413 454 2415 0
-147 244 118 2416 0
-212 -61 36 2417 0
-227 466 -84 2418 0
452 -72 -293 2419 0
-208 469 -152 2420 0
-71 356 377 2421 0
-246 263 498 2422 0
391 -139 443 2423 0
135 -492 238 2424 0
197 186 211 2425 0
-282 78 480 2426 0
158 -447 300 2427 0
-124 21 -125 2428 0
-136 -154 100 2429 0
365 140 -53 2430 0
-279 -397 -377 2431 0
-369 204 146 2432 0
-121 178 371 2433 0
-492 283 466 2434 0
-308 -356 -125 2435 0
-22 322 -90 2436 0
16 -164 -305 2437 0
268 91 352 2438 0
96 -38 269 2439 0
-123 -58 -154 2440 0
456 425 -29 2441 0
-337 107 -278 2442 0
48 113 -202 2443 0
-42 459 371 2444 0
449 265 123 2445 0
-422 377 -356 2446 0
-218 253 -24 2447 0
231 -107 -71 2448 0
-464 -79 -381 2449 0
408 360 302 2450 0
-160 -116 101 2451 0
359 37 -326 2452 0
173 84 -348 2453 0
177 279 364 2454 0
270 -7 -482 2455 0
340 24 177 2456 0
69 -106 -453 2457 0
58 375 -81 2458 0
-250 481 143 2459 0
303 -117 95 2460 0
454 -411 155 2461 0
-354 194 316 2462 0
-145 -371 461 2463 0
-22 411 167 2464 0
-326 73 426 2465 0
81 -343 -489 2466 0
215 -389 487 2467 0
-211 256 -165 2468 0
-166 227 368 2469 0
-225 -90 -296 2470 0
-298 344 221 2471 0
-24 223 -431 2472 0
-62 -409 23 2473 0
-88 280 -46 2474 0
154 -243 408 2475 0
385 -9 -458 2476 0
392 214 -181 2477 0
484 -315 -233 2478 0
32 309 -45 2479 0
423 -286 -239 2480 0
-216 -334 -424 2481 0
285 -96 139 2482 0
-158 441 -498 2483 0
129 261 -147 2484 0
191 -257 -187 2485 0
205 186 464 2486 0
-58 9 334 2487 0
52 -153 303 2488 0
455 459 -18 2489 0
105 367 185 2490 0
-471 -488 -305 2491 0
85 68 161 2492 0
325 274 435 2493 0
283 -308 -36 2494 0
328 -247 294 2495 0
23 148 268 2496 0
-377 -299 111 2497 0
184 429 346 2498 0
-65 302 187 2499 0
-343 -300 497 2500 0
199 285 -270 2501 0
-63 -98 -455 2502 0
313 220 -284 2503 0
-499 432 -177 2504 0
126 13 264 2505 0
473 -402 -177 2506 0
-119 332 301 2507 0
-384 496 -7 2508 0
-402 -244 -350 2509 0
-347 18 -275 2510 0
145 420 277 2511 0
-492 -369 -68 2512 0
22 -465 -370 2513 0
-330 -287 -253 2514 0
206 -52 -379 2515 0
278 145 80 2516 0
207 156 -148 2517 0
-423 145 429 2518 0
420 364 401 2519 0
-338 -228 415 2520 0
60 123 462 2521 0
-301 -54 -469 2522 0
358 233 361 2523 0
-30 -336 9 2524 0
-55 237 160 2525 0
-407 -213 -408 2526 0
-450 -313 -164 2527 0
-239 -5 -116 2528 0
-95 404 -486 2529 0
46 -60 -412 2530 0
-285 -249 77 2531 0
-215 411 -61 2532 0
-442 437 331 2533 0
-199 459 -277 2534 0
-120 147 -107 2535 0
-228 -76 -251 2536 0
-288 -305 -428 2537 0
-399 216 141 2538 0
358 -52 422 2539 0
381 280 483 2540 0
-29 227 286 2541 0
-470 -457 -89 2542 0
-224 397 -353 2543 0
-400 -59 231 2544 0
479 221 -200 2545 0
151 -341 143 2546 0
5 -387 184 2547 0
195 104 -75 2548 0
445 102 274 2549 0
-238 86 199 2550 0
-348 435 203 2551 0
-370 1 326 2552 0
-218 -262 -144 2553 0
10 -136 166 2554 0
197 122 -270 2555 0
-297 418 -150 2556 0
256 -242 371 2557 0
60 -97 352 2558 0
247 -435 -104 2559 0
-289 140 463 2560 0
-421 4 -497 2561 0
-496 -150 306 2562 0
-448 477 -329 2563 0
98 486 360 2564 0
-311 50 -169 2565 0
189 55 -488 2566 0
87 -276 -475 2567 0
-31 -413 297 2568 0
-165 -243 265 2569 0
-307 -331 390 2570 0
448 486 -411 2571 0
298 -256 -358 2572 0
400 398 372 2573 0
377 -463 -45 2574 0
74 -215 -140 2575 0
-253 175 -482 2576 0
-76 265 490 2577 0
206 -138 -378 2578 0
397 -318 261 2579 0
235 309 -105 2580 0
184 -8 -463 2581 0
-34 -376 -449 2582 0
-495 305 268 2583 0
-217 127 -158 2584 0
284 66 131 2585 0
349 -197 199 2586 0
-292 -177 127 2587 0
421 260 -117 2588 0
43 234 -65 2589 0
-281 -48 -304 2590 0
-232 467 -199 2591 0
241 -385 -467 2592 0
-175 74 -112 2593 0
239 191 137 2594 0
-126 -371 -367 2595 0
-456 54 -164 2596 0
93 -423 236 2597 0
-359 256 281 2598 0
-303 388 -483 2599 0
24 198 43 2600 0
353 -294 -141 2601 0
242 -180 -186 2602 0
-427 -332 -408 2603 0
-468 -67 -86 2604 0
-197 -178 -270 2605 0
-214 -125 -494 2606 0
-202 455 424 2607 0
289 -168 88 2608 0
-324 -191 -92 2609 0
16 277 -354 2610 0
-343 -85 -483 2611 0
-422 -232 471 2612 0
356 -162 -32 2613 0
324 351 -39 2614 0
-458 21 -420 2615 0
487 417 -252 2616 0
-376 292 -26 2617 0
409 259 377 2618 0
495 73 -454 2619 0
188 137 -170 2620 0
129 -285 -133 2621 0
302 -384 -41 2622 0
-173 498 105 2623 0
-91 12 195 2624 0
204 105 182 2625 0
264 -399 13 2626 0
402 288 -169 2627 0
-124 256 -324 2628 0
-124 -51 384 2629 0
-250 -474 367 2630 0
126 -421 -222 2631 0
-2 64 479 2632 0
-299 495 108 2633 0
94 -63 147 2634 0
445 -477 350 2635 0
12 154 -171 2636 0
126 -411 412 2637 0
208 -180 12 2638 0
196 -255 403 2639 0
467 390 -477 2640 0
-423 -172 -27 2641 0
-491 360 -52 2642 0
-45 273 -10 2643 0
90 -190 -213 2644 0
154 -43 -392 2645 0
-142 421 457 2646 0
383 -153 -202 2647 0
-349 43 -95 2648 0
312 -458 -16 2649 0
255 -62 439 2650 0
