p cnf 2650 2150
500 -391 132 501 0
31 359 173 502 0
-141 33 -34 503 0
-487 285 158 504 0
-496 462 -278 505 0
193 -458 183 506 0
-95 347 -52 507 0
326 -91 442 508 0
497 -386 322 509 0
-463 -433 5 510 0
3 -404 134 511 0
-476 -253 -284 512 0
-153 81 421 513 0
102 174 -38 514 0
-341 289 253 515 0
37 393 243 516 0
179 400 -3 517 0
51 355 455 518 0
267 -56 -55 519 0
-456 201 481 520 0
31 -152 341 521 0
181 260 159 522 0
314 -493 69 523 0
-21 -217 -495 524 0
-152 -209 -243 525 0
36 140 175 526 0
-431 487 -480 527 0
-293 223 374 528 0
477 -345 308 529 0
331 -250 48 530 0
494 305 -245 531 0
400 -248 240 532 0
-188 -246 -400 533 0
206 -36 136 534 0
345 153 185 535 0
388 447 -471 536 0
-380 170 -441 537 0
-362 139 -191 538 0
150 -47 -195 539 0
17 45 -388 540 0
-390 11 99 541 0
-234 368 -168 542 0
439 198 -271 543 0
75 -193 -293 544 0
-245 -35 -428 545 0
-454 -79 477 546 0
313 63 227 547 0
-227 441 -478 548 0
-137 -71 34 549 0
-372 165 137 550 0
-78 -392 -25 551 0
384 -451 -203 552 0
-453 -62 108 553 0
-179 325 -78 554 0
109 112 -263 555 0
-253 -432 -16 556 0
345 -491 -171 557 0
223 -191 275 558 0
266 -488 295 559 0
-180 27 -78 560 0
171 -402 213 561 0
-90 -266 -393 562 0
-256 -321 195 563 0
109 -48 -12 564 0
-3 168 139 565 0
-291 422 -391 566 0
322 372 -87 567 0
-438 364 454 568 0
52 -465 -486 569 0
-192 -410 -217 570 0
-475 94 238 571 0
-404 -251 -410 572 0
403 -120 -446 573 0
-151 33 228 574 0
347 7 489 575 0
-217 -209 -91 576 0
-362 -413 -39 577 0
-404 386 74 578 0
17 -248 -44 579 0
-331 -290 183 580 0
349 -335 -320 581 0
383 473 276 582 0
-127 -459 -83 583 0
-30 -483 218 584 0
445 278 -161 585 0
-392 391 94 586 0
163 -455 -283 587 0
14 426 -25 588 0
-182 -353 -136 589 0
-257 370 183 590 0
-462 176 -128 591 0
-147 321 252 592 0
486 -410 47 593 0
109 -13 168 594 0
452 -151 360 595 0
39 -58 -241 596 0
323 -67 228 597 0
233 -407 80 598 0
-462 -141 -173 599 0
-69 -305 -173 600 0
-234 215 -339 601 0
-30 -295 44 602 0
-372 -431 443 603 0
202 -431 153 604 0
-95 112 -176 605 0
-498 -400 -173 606 0
-249 -383 -230 607 0
-77 171 266 608 0
-193 -101 3 609 0
82 116 290 610 0
342 -348 -259 611 0
328 -56 155 612 0
-401 376 241 613 0
135 -107 -66 614 0
176 279 -14 615 0
-424 13 -127 616 0
-215 164 395 617 0
-495 174 466 618 0
-469 -237 -291 619 0
493 104 -352 620 0
261 117 465 621 0
-364 -451 -180 622 0
424 21 466 623 0
254 -248 403 624 0
98 44 -93 625 0
261 -462 -127 626 0
79 -65 192 627 0
-281 256 333 628 0
-36 -311 179 629 0
-103 253 -77 630 0
65 -184 253 631 0
111 208 -269 632 0
172 -279 336 633 0
110 -379 -470 634 0
458 -118 -192 635 0
411 480 142 636 0
80 -220 -282 637 0
169 427 78 638 0
150 -85 -170 639 0
45 139 62 640 0
-450 -497 255 641 0
-401 450 -251 642 0
-353 -37 387 643 0
498 -295 -474 644 0
364 235 95 645 0
-151 -304 34 646 0
-118 -321 201 647 0
457 -119 -376 648 0
-438 -76 164 649 0
99 42 -18 650 0
351 -213 60 651 0
180 330 33 652 0
153 -491 394 653 0
40 223 -257 654 0
-224 176 221 655 0
489 -43 -345 656 0
416 -75 -276 657 0
15 99 -453 658 0
-267 -273 199 659 0
109 19 -495 660 0
-480 140 -211 661 0
-25 -226 223 662 0
-448 59 110 663 0
119 160 -430 664 0
-10 387 78 665 0
-313 -149 457 666 0
-408 -340 67 667 0
-177 111 495 668 0
483 207 -181 669 0
-34 -21 -18 670 0
208 -358 -391 671 0
415 -145 339 672 0
-145 392 291 673 0
175 -237 78 674 0
298 480 14 675 0
366 446 -469 676 0
499 294 265 677 0
-439 233 139 678 0
321 -249 419 679 0
-100 266 -78 680 0
-357 220 29 681 0
372 81 -229 682 0
174 360 418 683 0
-123 92 -13 684 0
-362 367 17 685 0
141 -247 -450 686 0
-336 -55 112 687 0
-141 -234 210 688 0
213 -162 -66 689 0
12 -116 217 690 0
-46 -217 400 691 0
261 -147 143 692 0
-406 -351 62 693 0
-447 486 -418 694 0
260 -415 -94 695 0
90 -473 -369 696 0
-402 412 -15 697 0
338 -321 -238 698 0
-296 -83 -216 699 0
-35 303 -242 700 0
444 -95 429 701 0
-177 405 -274 702 0
291 121 -433 703 0
78 -118 -404 704 0
306 -441 286 705 0
136 -316 -328 706 0
422 -238 176 707 0
-338 207 126 708 0
238 472 407 709 0
-330 363 -286 710 0
327 430 347 711 0
160 -110 -364 712 0
177 -92 244 713 0
392 -177 416 714 0
-257 -85 59 715 0
-196 -87 -57 716 0
-72 93 -119 717 0
171 -200 475 718 0
94 273 -474 719 0
-38 -101 306 720 0
-51 316 -368 721 0
217 -383 43 722 0
-432 -470 -440 723 0
-341 477 193 724 0
477 -293 -276 725 0
423 473 92 726 0
-319 -174 87 727 0
93 -345 315 728 0
218 -289 52 729 0
40 301 -94 730 0
-371 175 -188 731 0
141 -240 -123 732 0
204 -168 377 733 0
-330 361 -33 734 0
-7 -432 175 735 0
326 402 445 736 0
-61 207 -459 737 0
-471 107 -220 738 0
452 -288 125 739 0
296 106 164 740 0
-96 25 -437 741 0
236 278 -19 742 0
-483 -170 465 743 0
-66 333 -368 744 0
341 -269 -393 745 0
260 -399 32 746 0
378 414 -73 747 0
356 -270 102 748 0
-79 -104 -58 749 0
-58 162 144 750 0
-461 -300 269 751 0
79 368 -442 752 0
397 -480 -169 753 0
-407 -128 -260 754 0
304 -163 -81 755 0
-347 -252 -392 756 0
487 -45 -166 757 0
-40 274 7 758 0
122 383 260 759 0
437 -466 399 760 0
-383 380 111 761 0
-384 -139 469 762 0
-314 493 -229 763 0
32 472 -364 764 0
-47 -167 -101 765 0
-310 -371 472 766 0
165 -110 -174 767 0
-299 167 13 768 0
-222 -302 -439 769 0
-276 -272 -58 770 0
393 -280 -183 771 0
434 174 -143 772 0
-262 -150 -55 773 0
400 -280 470 774 0
499 -67 -177 775 0
-105 -402 72 776 0
47 441 -115 777 0
388 411 -207 778 0
-312 -15 -220 779 0
-217 379 176 780 0
-463 366 44 781 0
-389 245 474 782 0
-427 278 117 783 0
153 248 -249 784 0
19 407 -77 785 0
-159 287 423 786 0
153 306 -343 787 0
345 -207 -92 788 0
238 76 155 789 0
60 -45 -112 790 0
-294 388 286 791 0
-388 -30 -170 792 0
-441 -232 -400 793 0
318 -288 -455 794 0
-64 -194 -336 795 0
-305 -195 158 796 0
-382 -430 104 797 0
30 -27 231 798 0
106 80 207 799 0
86 219 -81 800 0
-144 -239 332 801 0
-476 292 -154 802 0
284 -5 60 803 0
390 469 -371 804 0
-8 -169 -490 805 0
173 -497 -118 806 0
130 -5 -330 807 0
64 92 -432 808 0
-328 -370 -443 809 0
490 247 328 810 0
-359 166 -490 811 0
189 88 299 812 0
294 -327 42 813 0
-219 -258 105 814 0
-409 267 -205 815 0
-202 485 -32 816 0
399 -225 -243 817 0
389 -108 -416 818 0
235 -265 363 819 0
368 -447 303 820 0
-270 -319 345 821 0
234 -256 232 822 0
133 -455 155 823 0
-418 307 -481 824 0
-300 -93 -21 825 0
-180 290 -38 826 0
151 359 -368 827 0
-93 404 260 828 0
-58 297 -57 829 0
421 -350 121 830 0
-445 2 34 831 0
104 289 -494 832 0
-451 -23 -497 833 0
-11 410 422 834 0
-178 -162 -31 835 0
-482 -310 -63 836 0
-86 262 343 837 0
169 -278 -450 838 0
-452 -261 318 839 0
277 369 -239 840 0
239 488 2 841 0
-417 -206 -429 842 0
98 -167 217 843 0
-258 -345 76 844 0
68 -405 314 845 0
-348 441 416 846 0
324 -290 363 847 0
-99 243 -403 848 0
-325 -399 168 849 0
-53 -147 412 850 0
-270 438 -322 851 0
454 -209 182 852 0
-318 200 159 853 0
-144 -457 183 854 0
288 485 231 855 0
-111 -298 235 856 0
-457 418 -35 857 0
484 465 87 858 0
114 -195 180 859 0
-191 -284 -301 860 0
293 -76 -359 861 0
286 236 -136 862 0
-4 -421 317 863 0
439 265 236 864 0
-60 -362 261 865 0
-193 -323 409 866 0
430 142 180 867 0
183 -114 -303 868 0
-92 392 -75 869 0
414 434 -276 870 0
-379 -201 -140 871 0
123 -71 -427 872 0
-210 -447 11 873 0
-407 -46 134 874 0
-20 79 -199 875 0
444 487 5 876 0
499 -121 -389 877 0
91 204 17 878 0
-453 -34 -32 879 0
151 222 436 880 0
-199 216 -197 881 0
-111 376 -398 882 0
292 362 15 883 0
30 -429 344 884 0
306 -132 -425 885 0
-297 -65 484 886 0
289 -98 468 887 0
283 -173 372 888 0
494 312 239 889 0
-332 290 -395 890 0
194 -258 -379 891 0
403 52 307 892 0
438 -5 -341 893 0
299 -103 -329 894 0
194 -56 335 895 0
449 415 -357 896 0
-38 147 410 897 0
-244 -474 -152 898 0
-116 -335 -280 899 0
-73 -37 -190 900 0
-107 -208 -27 901 0
225 -421 -229 902 0
7 -53 8 903 0
-331 -359 -316 904 0
-101 449 -95 905 0
471 -344 -258 906 0
144 -5 -137 907 0
356 -286 -491 908 0
77 -17 65 909 0
164 463 432 910 0
3 -381 -172 911 0
-75 208 11 912 0
-170 376 -240 913 0
-326 6 49 914 0
-76 -257 -64 915 0
155 -57 27 916 0
184 -389 -394 917 0
39 270 321 918 0
179 129 21 919 0
-224 -211 -366 920 0
-391 -374 436 921 0
127 -439 -254 922 0
-128 326 -361 923 0
133 381 -17 924 0
286 -22 497 925 0
372 -439 419 926 0
-212 389 -296 927 0
283 476 -154 928 0
-198 129 -411 929 0
-300 50 -374 930 0
-93 -422 -492 931 0
286 226 -446 932 0
472 196 345 933 0
263 -480 -308 934 0
493 331 283 935 0
398 372 -68 936 0
376 6 322 937 0
169 -333 465 938 0
325 357 -40 939 0
-392 268 474 940 0
-406 368 363 941 0
255 58 122 942 0
-290 -123 -270 943 0
146 24 134 944 0
-94 -4 190 945 0
-333 -129 -246 946 0
-456 -386 424 947 0
369 32 339 948 0
1 -310 49 949 0
-387 -144 116 950 0
-446 142 -132 951 0
77 462 474 952 0
154 -94 -412 953 0
23 75 -478 954 0
399 -206 155 955 0
-273 -220 340 956 0
-258 99 -256 957 0
324 9 37 958 0
-296 -343 422 959 0
-355 442 -30 960 0
209 -355 -333 961 0
-497 81 -230 962 0
427 18 141 963 0
-54 -159 -165 964 0
325 180 -177 965 0
-79 387 465 966 0
480 -23 266 967 0
-161 -239 -499 968 0
227 -134 176 969 0
-494 295 -69 970 0
-401 -351 -178 971 0
-170 131 90 972 0
135 -53 44 973 0
409 -455 472 974 0
-130 -11 437 975 0
186 205 435 976 0
317 258 -340 977 0
249 282 136 978 0
335 -142 66 979 0
-139 -277 491 980 0
-220 88 -215 981 0
-331 70 -461 982 0
-119 -440 493 983 0
-399 246 196 984 0
8 184 -402 985 0
78 -448 397 986 0
-321 -109 -333 987 0
133 39 202 988 0
189 177 -106 989 0
-292 -329 459 990 0
-314 180 251 991 0
154 344 -301 992 0
-196 -195 -19 993 0
-325 -428 -279 994 0
-206 307 395 995 0
-278 -202 178 996 0
-116 -446 404 997 0
-179 163 429 998 0
435 -28 -42 999 0
79 -325 -265 1000 0
70 292 229 1001 0
385 -250 -67 1002 0
485 382 350 1003 0
5 -261 -484 1004 0
-26 47 -78 1005 0
-146 398 -483 1006 0
461 -491 -322 1007 0
345 163 -431 1008 0
132 -327 -238 1009 0
40 252 340 1010 0
392 179 73 1011 0
423 -142 -439 1012 0
-383 -308 -123 1013 0
-290 381 167 1014 0
77 -478 -107 1015 0
-194 -480 -5 1016 0
166 408 -205 1017 0
279 360 -84 1018 0
-279 -241 -321 1019 0
431 -453 358 1020 0
-23 -13 14 1021 0
-223 441 -366 1022 0
-313 -416 -101 1023 0
182 231 -263 1024 0
-25 57 83 1025 0
-285 270 118 1026 0
-500 -313 448 1027 0
4 65 -305 1028 0
-309 -428 -443 1029 0
-59 360 482 1030 0
388 339 -462 1031 0
-216 265 -266 1032 0
-458 481 168 1033 0
-440 56 454 1034 0
-86 -202 272 1035 0
436 -457 168 1036 0
-62 -114 -1 1037 0
477 150 385 1038 0
340 -396 458 1039 0
237 117 -267 1040 0
-360 134 -12 1041 0
499 -46 87 1042 0
196 44 458 1043 0
-365 -225 105 1044 0
117 317 264 1045 0
-12 -386 -62 1046 0
338 -500 88 1047 0
-37 -105 -268 1048 0
306 -127 -152 1049 0
468 133 47 1050 0
-401 -330 421 1051 0
31 273 -307 1052 0
499 55 284 1053 0
355 -364 -396 1054 0
-66 94 -407 1055 0
274 282 -163 1056 0
-467 -93 236 1057 0
-377 162 5 1058 0
-64 -209 139 1059 0
-426 -392 268 1060 0
17 65 305 1061 0
-75 211 -85 1062 0
-298 -496 25 1063 0
-335 -332 -17 1064 0
-52 292 -486 1065 0
292 -279 -56 1066 0
366 -318 195 1067 0
400 -381 384 1068 0
-429 -253 -271 1069 0
-2 295 68 1070 0
302 156 -471 1071 0
-77 41 29 1072 0
-273 -479 -272 1073 0
-101 338 -83 1074 0
-216 -231 280 1075 0
-334 18 208 1076 0
263 -121 -182 1077 0
187 -401 500 1078 0
244 -386 128 1079 0
390 -35 154 1080 0
-246 -269 -266 1081 0
70 -281 -292 1082 0
-90 170 208 1083 0
-128 295 108 1084 0
394 -322 384 1085 0
228 245 296 1086 0
130 -210 -265 1087 0
-410 -335 280 1088 0
-220 -244 337 1089 0
-90 74 -262 1090 0
-480 444 -2 1091 0
-101 51 478 1092 0
-202 285 28 1093 0
32 -478 163 1094 0
239 41 -406 1095 0
225 298 -162 1096 0
-499 -379 -343 1097 0
70 74 -486 1098 0
279 44 463 1099 0
334 -473 -340 1100 0
456 415 288 1101 0
-303 349 -404 1102 0
462 -119 -376 1103 0
-488 355 -442 1104 0
252 -145 215 1105 0
118 452 -2 1106 0
210 11 -438 1107 0
411 -243 197 1108 0
-101 284 276 1109 0
-444 -94 341 1110 0
-150 -329 142 1111 0
138 261 -422 1112 0
164 328 459 1113 0
364 12 115 1114 0
-451 404 -489 1115 0
-201 -179 -302 1116 0
53 -141 -281 1117 0
-54 74 210 1118 0
-174 -468 -196 1119 0
45 -311 403 1120 0
-468 289 -239 1121 0
-442 356 218 1122 0
-1 219 323 1123 0
435 -492 112 1124 0
82 160 -323 1125 0
-30 -301 361 1126 0
73 195 -354 1127 0
-183 -7 -429 1128 0
486 186 221 1129 0
285 -231 -5 1130 0
215 258 -420 1131 0
265 -28 57 1132 0
-150 55 248 1133 0
101 28 223 1134 0
75 -248 64 1135 0
331 -10 -458 1136 0
225 261 -289 1137 0
70 -206 -279 1138 0
262 491 -237 1139 0
264 147 11 1140 0
-170 -221 464 1141 0
160 278 120 1142 0
-256 -422 120 1143 0
415 429 -351 1144 0
-360 163 308 1145 0
-456 -261 -164 1146 0
442 -127 -262 1147 0
356 105 -191 1148 0
472 61 -445 1149 0
-418 -275 444 1150 0
249 423 327 1151 0
256 -54 217 1152 0
-22 -78 -421 1153 0
-86 -275 333 1154 0
495 373 -50 1155 0
67 462 184 1156 0
-402 -331 355 1157 0
286 466 -351 1158 0
-443 -452 -265 1159 0
-133 419 237 1160 0
-3 -164 -15 1161 0
-151 219 -165 1162 0
-425 229 -22 1163 0
302 476 -76 1164 0
164 285 -217 1165 0
-247 272 -270 1166 0
-371 98 -480 1167 0
-17 -196 -157 1168 0
66 -280 -301 1169 0
-116 147 -205 1170 0
79 412 -435 1171 0
251 305 168 1172 0
-405 -4 323 1173 0
-458 -44 260 1174 0
410 122 -472 1175 0
67 459 3 1176 0
184 5 339 1177 0
-425 -295 -102 1178 0
58 -203 83 1179 0
-195 -283 -15 1180 0
415 -84 -92 1181 0
108 -13 -159 1182 0
312 313 -285 1183 0
-470 102 -79 1184 0
-272 365 450 1185 0
-4 298 7 1186 0
-39 -17 494 1187 0
-55 115 139 1188 0
329 361 455 1189 0
147 -287 402 1190 0
414 -39 -217 1191 0
-83 359 383 1192 0
-126 462 280 1193 0
-269 -130 -308 1194 0
46 -231 -406 1195 0
-275 92 -414 1196 0
326 -56 -483 1197 0
-67 91 7 1198 0
-173 -288 238 1199 0
-285 64 471 1200 0
-88 47 497 1201 0
419 -139 -75 1202 0
-470 -66 -216 1203 0
-199 -68 -107 1204 0
-92 -42 101 1205 0
448 238 -404 1206 0
-447 -30 -406 1207 0
275 24 -360 1208 0
204 77 17 1209 0
241 -97 183 1210 0
431 59 -24 1211 0
-432 -444 334 1212 0
486 -349 217 1213 0
244 -137 416 1214 0
366 -149 113 1215 0
121 119 -476 1216 0
-142 -148 262 1217 0
49 -316 -477 1218 0
-1 147 330 1219 0
-304 262 376 1220 0
-245 91 -64 1221 0
187 273 416 1222 0
-397 54 -347 1223 0
486 -347 77 1224 0
-137 -469 327 1225 0
68 201 -164 1226 0
-269 90 -306 1227 0
-434 -15 -437 1228 0
-424 -50 -151 1229 0
365 331 335 1230 0
-17 -3 7 1231 0
334 -374 323 1232 0
288 -393 427 1233 0
467 -29 422 1234 0
-369 251 -18 1235 0
-1 341 -210 1236 0
82 291 400 1237 0
-2 71 -271 1238 0
-406 -177 44 1239 0
-48 -371 392 1240 0
-279 296 468 1241 0
414 -191 -189 1242 0
-174 54 158 1243 0
110 308 -69 1244 0
-279 155 -131 1245 0
-50 486 -418 1246 0
375 484 199 1247 0
30 424 -407 1248 0
283 139 285 1249 0
-406 434 291 1250 0
30 -426 425 1251 0
88 -254 230 1252 0
162 230 444 1253 0
122 -285 150 1254 0
-447 -109 -79 1255 0
30 479 -207 1256 0
166 139 134 1257 0
-2 -116 10 1258 0
399 117 220 1259 0
-163 234 -231 1260 0
-338 322 -34 1261 0
397 53 -151 1262 0
-434 394 417 1263 0
-155 451 -376 1264 0
-76 143 266 1265 0
413 -307 -489 1266 0
-489 123 139 1267 0
-488 317 51 1268 0
234 -392 299 1269 0
414 312 5 1270 0
-319 -45 391 1271 0
-473 46 -106 1272 0
196 -2 294 1273 0
456 36 -344 1274 0
-440 -477 173 1275 0
77 122 -82 1276 0
410 41 -145 1277 0
252 227 -199 1278 0
493 -315 -471 1279 0
103 413 -254 1280 0
-181 -230 -7 1281 0
325 158 -484 1282 0
-398 171 -280 1283 0
-305 32 496 1284 0
-155 80 -204 1285 0
-348 486 -100 1286 0
148 -398 239 1287 0
279 178 -306 1288 0
-483 301 -410 1289 0
-163 351 -287 1290 0
338 -279 299 1291 0
-259 395 289 1292 0
198 152 207 1293 0
257 -65 91 1294 0
357 -114 407 1295 0
-239 85 132 1296 0
152 268 -283 1297 0
307 -456 413 1298 0
-72 494 128 1299 0
284 224 -262 1300 0
407 438 171 1301 0
-193 -103 455 1302 0
-292 -161 234 1303 0
-33 -483 309 1304 0
57 418 412 1305 0
91 103 -181 1306 0
-398 146 -408 1307 0
285 -22 -72 1308 0
-213 -323 -495 1309 0
-169 468 302 1310 0
426 -102 146 1311 0
342 162 165 1312 0
416 -142 479 1313 0
399 119 210 1314 0
-118 432 108 1315 0
115 -358 -65 1316 0
-99 255 125 1317 0
480 -349 -365 1318 0
-80 -309 115 1319 0
-399 -181 205 1320 0
7 -289 118 1321 0
-128 59 -437 1322 0
115 418 1 1323 0
23 -112 33 1324 0
-90 249 377 1325 0
314 -287 -231 1326 0
-426 442 479 1327 0
198 -327 -440 1328 0
-6 230 -463 1329 0
-440 23 -254 1330 0
307 351 -455 1331 0
-148 -242 488 1332 0
58 184 33 1333 0
-296 259 409 1334 0
-332 -492 399 1335 0
-417 175 425 1336 0
-185 25 -387 1337 0
-352 64 -467 1338 0
281 -453 78 1339 0
27 347 -63 1340 0
175 -187 94 1341 0
306 -107 93 1342 0
243 20 82 1343 0
336 458 -460 1344 0
-343 -186 -468 1345 0
233 -471 441 1346 0
162 107 171 1347 0
-319 -158 -59 1348 0
-233 -95 138 1349 0
65 136 462 1350 0
489 -126 -180 1351 0
-15 -92 -477 1352 0
-395 302 374 1353 0
-25 -418 265 1354 0
114 243 -25 1355 0
-161 103 -142 1356 0
478 -123 -461 1357 0
-247 -114 -412 1358 0
478 -337 383 1359 0
394 -237 -228 1360 0
-69 -39 -85 1361 0
-429 330 343 1362 0
-420 -208 -88 1363 0
-120 113 -93 1364 0
-363 -428 178 1365 0
66 52 424 1366 0
435 -178 480 1367 0
184 470 -447 1368 0
-193 -189 -351 1369 0
153 398 475 1370 0
-77 434 484 1371 0
-161 494 214 1372 0
46 486 398 1373 0
-338 -30 234 1374 0
154 -354 -89 1375 0
-26 120 272 1376 0
-4 439 -379 1377 0
161 386 -145 1378 0
14 -124 140 1379 0
-44 -215 -201 1380 0
-350 -102 228 1381 0
487 493 -219 1382 0
10 -132 213 1383 0
-428 -146 -100 1384 0
-93 465 -61 1385 0
-205 309 329 1386 0
427 71 305 1387 0
133 246 178 1388 0
364 51 342 1389 0
197 224 -73 1390 0
17 243 -259 1391 0
421 220 483 1392 0
180 362 396 1393 0
-51 17 465 1394 0
-338 25 -469 1395 0
495 397 -256 1396 0
350 67 301 1397 0
432 -91 368 1398 0
203 64 -25 1399 0
-239 -180 6 1400 0
255 -458 471 1401 0
489 -497 -62 1402 0
457 221 -395 1403 0
369 -264 -165 1404 0
-190 -193 -1 1405 0
321 -25 -113 1406 0
-294 227 -295 1407 0
-99 466 -495 1408 0
-91 -15 190 1409 0
467 285 -476 1410 0
435 309 103 1411 0
-46 20 370 1412 0
-336 46 -43 1413 0
-353 -289 -290 1414 0
236 185 303 1415 0
297 117 397 1416 0
244 495 447 1417 0
-136 -307 101 1418 0
-489 -482 -253 1419 0
18 9 55 1420 0
-469 140 -303 1421 0
-225 267 -312 1422 0
481 71 -424 1423 0
-284 -461 -320 1424 0
304 -210 63 1425 0
101 -145 -434 1426 0
88 480 -26 1427 0
172 -78 -66 1428 0
334 85 260 1429 0
-494 18 -424 1430 0
299 -450 -212 1431 0
464 -85 59 1432 0
485 -112 -172 1433 0
-199 -403 -201 1434 0
-418 453 169 1435 0
340 459 -381 1436 0
-20 -204 -232 1437 0
-405 354 -446 1438 0
-67 -83 18 1439 0
-224 -339 -340 1440 0
454 313 488 1441 0
467 167 -224 1442 0
353 178 130 1443 0
-377 280 -83 1444 0
253 130 456 1445 0
-132 199 443 1446 0
-164 -204 -407 1447 0
156 -248 243 1448 0
184 132 246 1449 0
-352 -158 -117 1450 0
-316 -217 384 1451 0
44 -224 179 1452 0
-71 -12 322 1453 0
165 473 271 1454 0
-174 -17 -89 1455 0
288 -402 477 1456 0
-280 -287 -188 1457 0
68 64 -396 1458 0
139 -494 -314 1459 0
127 -255 -359 1460 0
-413 294 25 1461 0
393 -270 -407 1462 0
-433 -5 -47 1463 0
-435 81 496 1464 0
-72 -99 4 1465 0
-383 388 322 1466 0
-136 50 287 1467 0
443 72 11 1468 0
-106 -4 -205 1469 0
-286 -243 -452 1470 0
227 85 -168 1471 0
100 -477 110 1472 0
405 -11 57 1473 0
401 -387 -327 1474 0
94 319 318 1475 0
-38 -477 -420 1476 0
-331 356 -423 1477 0
297 -7 -387 1478 0
279 -409 232 1479 0
-112 -184 -291 1480 0
-18 64 42 1481 0
25 274 455 1482 0
225 214 369 1483 0
74 -260 172 1484 0
-4 -73 -217 1485 0
-33 -206 -321 1486 0
177 52 -68 1487 0
230 -279 -84 1488 0
229 265 -232 1489 0
448 23 -18 1490 0
-105 449 183 1491 0
45 -354 319 1492 0
267 42 304 1493 0
-358 -306 -123 1494 0
-302 -450 260 1495 0
213 -169 -325 1496 0
-491 189 -287 1497 0
68 -367 45 1498 0
-390 150 11 1499 0
-326 380 193 1500 0
423 490 -145 1501 0
-500 267 329 1502 0
-313 23 -222 1503 0
61 -104 -39 1504 0
-95 42 -279 1505 0
-196 -234 270 1506 0
-157 499 238 1507 0
-13 -165 -171 1508 0
475 -70 -140 1509 0
284 -65 -455 1510 0
452 262 -446 1511 0
-235 304 -419 1512 0
461 58 466 1513 0
11 65 -164 1514 0
172 -62 -298 1515 0
54 187 388 1516 0
-206 280 245 1517 0
209 99 341 1518 0
7 199 -182 1519 0
-270 307 18 1520 0
416 179 75 1521 0
-399 -196 -27 1522 0
142 -280 -49 1523 0
-41 323 -424 1524 0
-88 -311 -249 1525 0
399 -393 251 1526 0
-336 -237 252 1527 0
-488 467 144 1528 0
-253 73 -277 1529 0
250 423 319 1530 0
92 -191 252 1531 0
-3 -208 1 1532 0
-429 59 -393 1533 0
-61 -195 156 1534 0
245 -351 14 1535 0
299 230 -135 1536 0
253 162 -439 1537 0
379 31 146 1538 0
6 174 -22 1539 0
204 146 -253 1540 0
63 -23 -276 1541 0
100 264 -45 1542 0
476 -62 -297 1543 0
-53 -133 243 1544 0
-18 377 333 1545 0
43 273 -257 1546 0
70 -337 330 1547 0
-186 -340 -173 1548 0
-122 -276 -446 1549 0
-143 -208 -113 1550 0
30 -252 371 1551 0
-155 -99 -48 1552 0
325 -27 404 1553 0
465 -331 370 1554 0
249 186 -126 1555 0
99 -409 -171 1556 0
170 -338 -272 1557 0
-139 199 -87 1558 0
-232 -60 -449 1559 0
321 -442 96 1560 0
-151 -76 447 1561 0
224 -438 -107 1562 0
114 444 422 1563 0
-429 -483 347 1564 0
48 385 93 1565 0
-103 425 254 1566 0
-242 240 -488 1567 0
-14 -143 -77 1568 0
439 299 -100 1569 0
-310 -392 449 1570 0
338 329 -404 1571 0
-497 -359 -211 1572 0
-235 220 383 1573 0
-457 -287 -285 1574 0
-362 -449 -53 1575 0
-376 -246 -301 1576 0
163 -457 217 1577 0
-152 496 -259 1578 0
71 198 195 1579 0
97 422 -298 1580 0
-329 -218 182 1581 0
494 -8 40 1582 0
-79 -256 12 1583 0
3 -222 -255 1584 0
-115 -485 175 1585 0
139 130 282 1586 0
-163 20 -311 1587 0
261 410 290 1588 0
412 -399 411 1589 0
363 90 141 1590 0
108 -268 454 1591 0
373 223 380 1592 0
-384 143 -432 1593 0
-180 244 -110 1594 0
152 53 -87 1595 0
75 245 11 1596 0
347 -477 469 1597 0
-374 290 43 1598 0
483 305 -81 1599 0
-175 456 -176 1600 0
-167 -78 382 1601 0
235 193 345 1602 0
199 257 304 1603 0
13 -379 147 1604 0
423 439 -291 1605 0
486 -280 -426 1606 0
-270 -401 302 1607 0
67 -330 336 1608 0
40 64 146 1609 0
76 -287 2 1610 0
130 -83 170 1611 0
239 -443 -325 1612 0
-224 457 -121 1613 0
-267 -95 -270 1614 0
162 -125 -401 1615 0
230 -27 -461 1616 0
-394 -393 -425 1617 0
-94 495 -181 1618 0
-143 94 -265 1619 0
-147 187 -324 1620 0
456 -260 -359 1621 0
-208 68 -488 1622 0
499 437 277 1623 0
-214 207 -460 1624 0
-13 -350 -147 1625 0
348 375 339 1626 0
-460 361 -140 1627 0
419 -200 488 1628 0
391 413 310 1629 0
-2 1 -387 1630 0
-454 -223 -420 1631 0
237 -432 -264 1632 0
88 -114 442 1633 0
206 89 -411 1634 0
494 -107 120 1635 0
-269 30 -152 1636 0
468 409 66 1637 0
140 270 461 1638 0
-149 219 127 1639 0
372 144 -295 1640 0
-10 210 432 1641 0
487 -49 -88 1642 0
-438 74 94 1643 0
-65 473 -262 1644 0
252 -448 483 1645 0
-476 480 251 1646 0
-260 371 408 1647 0
-166 -206 -100 1648 0
-102 -338 13 1649 0
-220 328 179 1650 0
71 426 -188 1651 0
342 254 398 1652 0
-322 268 -443 1653 0
-125 -206 -55 1654 0
291 258 -33 1655 0
376 -149 429 1656 0
-344 101 418 1657 0
-369 247 279 1658 0
-225 83 38 1659 0
-489 432 101 1660 0
475 -13 486 1661 0
497 -63 220 1662 0
-288 290 485 1663 0
482 79 -275 1664 0
-300 -44 354 1665 0
-479 133 -496 1666 0
-350 223 -130 1667 0
-340 -415 -238 1668 0
277 217 -289 1669 0
-38 433 -13 1670 0
387 -388 431 1671 0
-491 60 -157 1672 0
-111 162 -357 1673 0
-331 228 473 1674 0
142 348 219 1675 0
-331 205 -499 1676 0
21 244 -295 1677 0
-269 413 -189 1678 0
-226 321 -341 1679 0
-232 -376 452 1680 0
237 182 288 1681 0
92 -88 447 1682 0
72 212 -348 1683 0
320 -397 482 1684 0
-243 -146 -390 1685 0
-11 156 290 1686 0
-461 -264 -167 1687 0
264 461 -33 1688 0
-272 70 -94 1689 0
485 248 -440 1690 0
468 -455 390 1691 0
-279 -190 -137 1692 0
230 413 388 1693 0
428 -253 500 1694 0
-95 291 79 1695 0
122 390 -205 1696 0
236 312 -366 1697 0
-170 328 -467 1698 0
-202 -282 288 1699 0
-226 264 -67 1700 0
-50 451 -398 1701 0
-480 85 194 1702 0
65 170 82 1703 0
-372 188 -354 1704 0
-211 -124 483 1705 0
258 431 -277 1706 0
213 71 327 1707 0
-416 -468 257 1708 0
-218 -347 -261 1709 0
-136 -19 -393 1710 0
225 -243 197 1711 0
-287 460 142 1712 0
-421 -428 466 1713 0
373 267 -288 1714 0
321 -116 -125 1715 0
409 161 19 1716 0
139 -85 -413 1717 0
-353 409 178 1718 0
259 -14 -231 1719 0
-305 -384 -491 1720 0
-334 453 -150 1721 0
-275 -469 340 1722 0
-360 301 -402 1723 0
-371 -214 -270 1724 0
-194 147 -447 1725 0
73 -183 -461 1726 0
93 -87 -40 1727 0
274 -127 499 1728 0
-455 255 26 1729 0
294 -257 110 1730 0
-172 174 284 1731 0
109 350 273 1732 0
-356 93 440 1733 0
84 247 440 1734 0
29 -153 -85 1735 0
122 -138 132 1736 0
164 -401 -366 1737 0
25 428 -418 1738 0
215 333 481 1739 0
484 161 108 1740 0
488 -192 -360 1741 0
-342 435 108 1742 0
6 364 -265 1743 0
38 377 128 1744 0
-61 185 344 1745 0
298 132 -9 1746 0
43 -97 -262 1747 0
21 -19 289 1748 0
435 135 133 1749 0
22 -104 28 1750 0
-74 391 -436 1751 0
142 231 458 1752 0
491 -32 208 1753 0
-7 -19 -67 1754 0
-384 -146 487 1755 0
-481 -458 -359 1756 0
58 94 273 1757 0
331 -175 -434 1758 0
481 -25 -335 1759 0
431 395 -161 1760 0
-119 -486 460 1761 0
408 297 -355 1762 0
256 -108 -237 1763 0
246 -83 -323 1764 0
-368 -31 373 1765 0
24 -10 -30 1766 0
-289 240 -360 1767 0
145 -117 -301 1768 0
281 -440 -367 1769 0
39 338 -231 1770 0
-236 -370 -89 1771 0
182 -467 -116 1772 0
160 -405 -97 1773 0
458 25 34 1774 0
-47 -396 -416 1775 0
-388 -393 350 1776 0
394 161 11 1777 0
-40 -439 86 1778 0
409 -123 -270 1779 0
-223 218 261 1780 0
-320 250 322 1781 0
-109 -17 212 1782 0
183 -15 -152 1783 0
448 147 159 1784 0
86 136 -424 1785 0
-469 -259 273 1786 0
274 159 -18 1787 0
424 -468 76 1788 0
192 -468 240 1789 0
335 433 -38 1790 0
385 -369 390 1791 0
160 168 154 1792 0
-363 -70 -409 1793 0
61 -345 68 1794 0
192 -35 -306 1795 0
-53 -382 -454 1796 0
-51 451 -257 1797 0
276 367 -90 1798 0
271 401 318 1799 0
295 -447 -159 1800 0
287 -381 232 1801 0
-292 328 -434 1802 0
-36 -145 411 1803 0
120 -73 22 1804 0
216 211 152 1805 0
-69 410 -350 1806 0
-336 411 -202 1807 0
353 217 -311 1808 0
200 -201 257 1809 0
-494 275 -238 1810 0
16 -413 -194 1811 0
-417 294 78 1812 0
82 160 270 1813 0
317 412 478 1814 0
-493 -10 -350 1815 0
447 388 418 1816 0
142 299 -250 1817 0
-157 33 -72 1818 0
-362 336 -408 1819 0
161 315 15 1820 0
-199 71 -345 1821 0
-397 -47 425 1822 0
-247 33 -305 1823 0
236 -413 -388 1824 0
-123 266 -187 1825 0
284 271 74 1826 0
230 241 133 1827 0
440 -367 145 1828 0
204 -112 34 1829 0
-115 252 487 1830 0
362 349 237 1831 0
456 -245 186 1832 0
208 310 -380 1833 0
45 -363 479 1834 0
-285 158 51 1835 0
-341 158 -177 1836 0
-414 -84 -132 1837 0
408 256 -64 1838 0
333 -263 8 1839 0
66 -178 -202 1840 0
275 -76 -428 1841 0
138 -382 213 1842 0
450 372 -123 1843 0
-207 6 247 1844 0
-86 392 295 1845 0
406 -197 177 1846 0
49 203 -129 1847 0
3 -207 364 1848 0
119 -30 79 1849 0
156 -157 23 1850 0
-240 392 -68 1851 0
-124 408 144 1852 0
34 -466 428 1853 0
37 -427 39 1854 0
-63 41 -171 1855 0
-81 -433 -271 1856 0
-92 -387 479 1857 0
-10 -15 467 1858 0
435 -372 329 1859 0
-72 -297 151 1860 0
-248 414 253 1861 0
263 -294 69 1862 0
404 21 -260 1863 0
-203 -209 364 1864 0
-28 -366 -290 1865 0
209 -251 91 1866 0
-210 110 -305 1867 0
-122 -304 -54 1868 0
360 -457 -318 1869 0
120 -334 -86 1870 0
-161 300 478 1871 0
444 -239 -129 1872 0
-24 469 309 1873 0
-28 -349 51 1874 0
-54 153 -151 1875 0
338 65 -118 1876 0
-252 498 138 1877 0
275 463 -171 1878 0
179 193 423 1879 0
200 -462 362 1880 0
377 -7 -407 1881 0
88 -135 -283 1882 0
237 250 -132 1883 0
-240 162 225 1884 0
347 432 -278 1885 0
38 177 2 1886 0
273 -356 215 1887 0
-439 122 26 1888 0
471 -497 -143 1889 0
-351 491 304 1890 0
410 418 -324 1891 0
461 -130 -368 1892 0
72 467 -404 1893 0
-37 252 338 1894 0
-117 -281 220 1895 0
-472 429 -374 1896 0
-430 -187 214 1897 0
378 -166 -177 1898 0
-129 246 47 1899 0
325 -329 -149 1900 0
488 404 463 1901 0
-153 421 -456 1902 0
214 483 -158 1903 0
251 380 -408 1904 0
-218 -404 -268 1905 0
-308 -306 68 1906 0
-382 98 -122 1907 0
294 290 -448 1908 0
-345 -475 -462 1909 0
-217 125 -119 1910 0
-282 -396 -359 1911 0
277 -74 -300 1912 0
161 134 382 1913 0
182 -84 352 1914 0
-430 12 -445 1915 0
71 32 -243 1916 0
-237 -486 396 1917 0
406 -403 263 1918 0
340 119 -336 1919 0
326 -44 175 1920 0
341 -450 266 1921 0
408 -438 -307 1922 0
317 151 -142 1923 0
360 280 -184 1924 0
-459 -340 221 1925 0
-381 -123 -449 1926 0
-469 453 265 1927 0
-82 -26 -105 1928 0
382 93 -244 1929 0
-500 13 5 1930 0
-468 -263 398 1931 0
-365 498 176 1932 0
61 78 -366 1933 0
-488 -448 81 1934 0
262 459 103 1935 0
132 -156 -314 1936 0
-274 372 355 1937 0
368 -401 13 1938 0
230 229 191 1939 0
473 -493 -402 1940 0
45 -47 -351 1941 0
306 176 288 1942 0
315 -2 -345 1943 0
-31 -202 -72 1944 0
-357 66 345 1945 0
152 366 -384 1946 0
190 70 -99 1947 0
-220 360 -237 1948 0
-408 406 9 1949 0
-259 276 -372 1950 0
-60 -262 374 1951 0
-22 319 298 1952 0
-149 253 -265 1953 0
-435 -399 -195 1954 0
-277 51 380 1955 0
402 -47 -4 1956 0
-281 -208 -293 1957 0
27 -200 -398 1958 0
387 441 60 1959 0
-491 -32 123 1960 0
349 19 443 1961 0
-249 223 -6 1962 0
-314 58 -500 1963 0
-53 351 -83 1964 0
301 494 -85 1965 0
-333 -192 -486 1966 0
-232 372 228 1967 0
62 83 104 1968 0
-239 486 313 1969 0
-455 498 -319 1970 0
66 378 178 1971 0
-131 183 -139 1972 0
-219 277 38 1973 0
89 -396 499 1974 0
336 315 -487 1975 0
-370 261 -247 1976 0
239 219 494 1977 0
195 85 270 1978 0
201 20 -16 1979 0
-407 -469 474 1980 0
37 21 421 1981 0
-373 339 -46 1982 0
-62 -462 201 1983 0
409 -71 -374 1984 0
345 -346 369 1985 0
-366 -2 122 1986 0
37 -486 -221 1987 0
430 281 -238 1988 0
-100 466 333 1989 0
-498 -155 175 1990 0
165 -65 9 1991 0
-94 242 -376 1992 0
391 446 397 1993 0
67 9 -239 1994 0
-400 -368 268 1995 0
-76 -343 -492 1996 0
364 -466 303 1997 0
214 321 -372 1998 0
-182 -50 53 1999 0
430 466 -464 2000 0
-455 309 -281 2001 0
367 136 -297 2002 0
-494 -322 201 2003 0
258 -48 -142 2004 0
387 137 -40 2005 0
324 -152 -61 2006 0
397 -391 307 2007 0
-58 261 97 2008 0
273 -351 -279 2009 0
-414 -244 -280 2010 0
-274 -310 289 2011 0
-320 -337 -176 2012 0
-373 -193 269 2013 0
-323 -476 203 2014 0
405 -360 -44 2015 0
449 11 -50 2016 0
-167 -244 255 2017 0
426 -224 147 2018 0
-165 62 -188 2019 0
-308 385 -51 2020 0
-97 399 465 2021 0
-444 -164 -281 2022 0
-6 -193 -16 2023 0
-302 350 268 2024 0
-311 -128 -429 2025 0
285 78 183 2026 0
118 138 -151 2027 0
-48 362 -22 2028 0
-396 -426 -290 2029 0
449 168 -351 2030 0
-18 -30 -196 2031 0
364 416 -94 2032 0
204 251 182 2033 0
-257 415 -148 2034 0
-363 402 -77 2035 0
-5 486 81 2036 0
94 133 -186 2037 0
-275 -249 -461 2038 0
-482 32 261 2039 0
-158 -236 60 2040 0
221 -12 -136 2041 0
87 196 174 2042 0
8 4 -2 2043 0
-278 -457 421 2044 0
-148 -467 275 2045 0
384 -67 -346 2046 0
-359 20 -358 2047 0
420 57 -284 2048 0
-179 262 -369 2049 0
17 -301 335 2050 0
-46 -157 223 2051 0
-266 -117 303 2052 0
497 -94 -464 2053 0
-53 -163 -445 2054 0
221 402 435 2055 0
-411 55 -321 2056 0
352 237 -86 2057 0
488 -299 219 2058 0
436 -170 -44 2059 0
-2 -454 -463 2060 0
-110 -105 -122 2061 0
-269 403 288 2062 0
59 268 -459 2063 0
45 -386 -432 2064 0
-430 -394 -180 2065 0
-88 -94 -351 2066 0
-473 -363 -315 2067 0
34 -285 331 2068 0
312 498 -31 2069 0
-320 -402 -245 2070 0
382 236 -34 2071 0
-17 431 234 2072 0
-46 -124 -457 2073 0
-45 -230 97 2074 0
427 316 -112 2075 0
-21 464 -190 2076 0
-96 113 -99 2077 0
-293 -137 -338 2078 0
-496 303 -79 2079 0
49 -355 -344 2080 0
-247 -345 -158 2081 0
-364 57 -255 2082 0
-194 187 -198 2083 0
188 327 367 2084 0
318 453 -412 2085 0
201 339 53 2086 0
-363 -346 221 2087 0
492 120 -209 2088 0
123 -150 -319 2089 0
-355 -365 -76 2090 0
-461 79 -475 2091 0
-174 487 344 2092 0
359 52 -246 2093 0
-125 -493 397 2094 0
355 399 100 2095 0
229 -131 493 2096 0
195 4 -270 2097 0
-173 -341 443 2098 0
-357 110 -323 2099 0
322 300 442 2100 0
36 234 305 2101 0
498 -257 -158 2102 0
-224 -314 -16 2103 0
263 308 -188 2104 0
117 -154 429 2105 0
-111 213 19 2106 0
-366 140 328 2107 0
-406 324 301 2108 0
-241 287 -234 2109 0
347 -128 138 2110 0
-466 -445 -455 2111 0
129 208 84 2112 0
447 -262 123 2113 0
104 -92 461 2114 0
-163 -401 99 2115 0
360 243 -149 2116 0
1 36 88 2117 0
-219 -194 271 2118 0
413 -333 143 2119 0
215 -104 415 2120 0
-417 -53 -141 2121 0
89 -483 -363 2122 0
-348 287 -47 2123 0
439 500 -261 2124 0
54 -309 152 2125 0
337 -256 197 2126 0
73 138 168 2127 0
-392 220 -409 2128 0
47 -286 134 2129 0
-27 412 177 2130 0
493 256 278 2131 0
284 -456 -348 2132 0
-172 -301 -351 2133 0
-388 -194 -183 2134 0
99 -441 244 2135 0
446 341 481 2136 0
395 45 402 2137 0
311 -140 352 2138 0
-36 93 -453 2139 0
123 255 453 2140 0
273 293 -142 2141 0
215 9 350 2142 0
-231 25 -481 2143 0
299 281 274 2144 0
100 -60 -289 2145 0
-83 -412 -410 2146 0
-111 162 -96 2147 0
-255 -480 272 2148 0
-67 391 476 2149 0
-188 492 -290 2150 0
-25 -202 494 2151 0
315 490 102 2152 0
299 52 -87 2153 0
73 -327 407 2154 0
95 367 7 2155 0
-424 -372 -436 2156 0
445 -101 291 2157 0
-453 -307 91 2158 0
138 -213 58 2159 0
261 364 313 2160 0
63 -301 125 2161 0
369 -495 103 2162 0
-178 240 -472 2163 0
-368 269 -270 2164 0
-368 460 3 2165 0
410 -173 194 2166 0
173 -26 428 2167 0
-291 458 136 2168 0
-22 326 175 2169 0
-87 -207 117 2170 0
-405 236 -166 2171 0
452 362 -335 2172 0
-327 -335 174 2173 0
216 -204 -12 2174 0
-11 500 -330 2175 0
126 373 438 2176 0
-59 183 85 2177 0
438 270 440 2178 0
-463 43 -353 2179 0
335 -14 291 2180 0
166 66 -173 2181 0
341 495 155 2182 0
-96 102 -168 2183 0
33 -390 73 2184 0
323 490 -136 2185 0
-121 422 178 2186 0
-32 169 -485 2187 0
-65 -149 -213 2188 0
22 -310 50 2189 0
327 -165 413 2190 0
-162 -387 -342 2191 0
145 -111 -192 2192 0
477 -306 319 2193 0
-380 174 222 2194 0
16 -414 -256 2195 0
480 -31 -179 2196 0
-499 -471 267 2197 0
-272 -102 -363 2198 0
141 -444 -186 2199 0
394 -483 -461 2200 0
191 187 -266 2201 0
-237 194 494 2202 0
-27 73 -396 2203 0
253 272 35 2204 0
-244 -50 250 2205 0
-109 -482 297 2206 0
129 -385 75 2207 0
497 -36 -126 2208 0
-252 -196 -465 2209 0
-97 -253 -432 2210 0
-123 168 -377 2211 0
-344 -384 422 2212 0
-337 -195 -487 2213 0
-175 334 -393 2214 0
-323 489 -64 2215 0
-410 498 87 2216 0
-123 120 76 2217 0
161 172 35 2218 0
41 138 -156 2219 0
66 272 298 2220 0
82 49 481 2221 0
-2 -248 34 2222 0
227 -212 21 2223 0
-61 -419 10 2224 0
204 -74 -161 2225 0
286 55 -433 2226 0
448 79 52 2227 0
-352 -180 -241 2228 0
286 -8 -307 2229 0
109 320 -347 2230 0
-310 -270 -59 2231 0
418 -96 360 2232 0
121 244 413 2233 0
-147 -155 -74 2234 0
419 82 457 2235 0
-23 69 -298 2236 0
373 62 -104 2237 0
178 -125 -369 2238 0
-323 -303 65 2239 0
-475 -385 267 2240 0
482 -83 25 2241 0
355 -337 95 2242 0
149 -271 69 2243 0
232 -327 -409 2244 0
-377 451 -70 2245 0
-235 -99 -349 2246 0
-462 416 -216 2247 0
-157 -287 257 2248 0
7 -190 -391 2249 0
-308 304 -185 2250 0
157 -275 97 2251 0
-295 -15 334 2252 0
395 -355 -192 2253 0
-365 283 -254 2254 0
420 -444 358 2255 0
500 -160 -211 2256 0
-370 296 78 2257 0
20 241 -386 2258 0
-209 -150 -196 2259 0
95 177 391 2260 0
-464 -293 -492 2261 0
-99 308 142 2262 0
-130 -120 -129 2263 0
-10 463 -93 2264 0
264 -430 -201 2265 0
-41 309 -316 2266 0
370 266 406 2267 0
-310 414 331 2268 0
-244 -473 127 2269 0
46 -102 -443 2270 0
-456 279 178 2271 0
-63 422 -479 2272 0
117 -426 -133 2273 0
-392 18 -287 2274 0
-20 -21 354 2275 0
-94 225 306 2276 0
275 216 -455 2277 0
-253 477 -258 2278 0
261 200 -445 2279 0
-443 -45 -393 2280 0
-129 -339 371 2281 0
-358 -360 -303 2282 0
264 -443 382 2283 0
-141 -186 412 2284 0
355 423 -454 2285 0
294 -426 -118 2286 0
-114 -355 461 2287 0
-485 41 -350 2288 0
-251 317 10 2289 0
-234 446 -184 2290 0
204 -81 60 2291 0
-322 -159 -195 2292 0
387 -257 367 2293 0
-332 211 -381 2294 0
308 98 -316 2295 0
167 -470 -179 2296 0
-19 339 -209 2297 0
185 412 -54 2298 0
-193 472 390 2299 0
140 44 287 2300 0
323 135 134 2301 0
296 203 -113 2302 0
105 269 448 2303 0
496 433 397 2304 0
-19 -158 -156 2305 0
-339 -362 256 2306 0
-427 42 -54 2307 0
-474 55 343 2308 0
454 -428 478 2309 0
262 -46 -184 2310 0
-60 18 132 2311 0
118 134 234 2312 0
-407 -418 -371 2313 0
300 -196 208 2314 0
314 -312 -211 2315 0
334 293 -203 2316 0
-139 18 -274 2317 0
-107 464 -181 2318 0
-11 28 162 2319 0
-409 108 114 2320 0
-486 -415 475 2321 0
477 72 -193 2322 0
-212 -103 354 2323 0
-150 -77 112 2324 0
-10 50 -491 2325 0
-249 497 324 2326 0
448 -224 -435 2327 0
349 10 9 2328 0
390 -186 -355 2329 0
-41 164 447 2330 0
215 -391 137 2331 0
-476 -240 -386 2332 0
480 19 343 2333 0
-498 -52 -383 2334 0
385 -292 308 2335 0
-101 56 309 2336 0
-254 -396 -472 2337 0
251 303 -356 2338 0
421 -139 -396 2339 0
146 165 306 2340 0
231 -216 -320 2341 0
-255 146 -456 2342 0
442 261 -295 2343 0
-17 -298 234 2344 0
-200 301 233 2345 0
111 -327 53 2346 0
-247 410 38 2347 0
-301 316 -410 2348 0
266 -204 -495 2349 0
-73 231 99 2350 0
-86 -3 311 2351 0
-370 263 84 2352 0
123 -100 -126 2353 0
42 209 -362 2354 0
285 -116 -209 2355 0
-196 356 176 2356 0
297 14 254 2357 0
222 -192 -476 2358 0
83 -485 -50 2359 0
17 -247 -457 2360 0
-401 403 83 2361 0
103 -470 111 2362 0
-51 -303 -457 2363 0
224 280 431 2364 0
-226 330 310 2365 0
73 -9 -34 2366 0
-65 242 -447 2367 0
-151 -466 303 2368 0
493 -270 363 2369 0
-296 70 -152 2370 0
-236 41 -69 2371 0
-77 330 -362 2372 0
79 457 320 2373 0
345 -23 -261 2374 0
-249 483 344 2375 0
314 -233 479 2376 0
477 200 -327 2377 0
457 -195 -470 2378 0
74 -414 322 2379 0
-198 -88 -419 2380 0
183 -408 53 2381 0
57 -5 -101 2382 0
-54 410 470 2383 0
361 -95 -277 2384 0
-117 -14 320 2385 0
-58 -156 -57 2386 0
482 -459 64 2387 0
-415 -13 123 2388 0
347 -101 -333 2389 0
21 337 -193 2390 0
-136 -179 352 2391 0
-343 495 342 2392 0
-11 134 -358 2393 0
322 223 251 2394 0
-352 -463 -91 2395 0
-325 346 106 2396 0
26 490 -138 2397 0
161 -204 294 2398 0
76 31 173 2399 0
-258 54 -159 2400 0
-195 -47 312 2401 0
-155 -68 178 2402 0
-236 -150 280 2403 0
-10 -52 -217 2404 0
221 293 -303 2405 0
405 -165 -239 2406 0
105 -422 -32 2407 0
-319 434 197 2408 0
409 -443 167 2409 0
18 379 -214 2410 0
161 -224 488 2411 0
-316 -424 421 2412 0
183 299 426 2413 0
-197 -203 451 2414 0
-343 29 -136 2415 0
150 -363 202 2416 0
-193 195 -79 2417 0
58 -54 -208 2418 0
268 -15 399 2419 0
151 360 101 2420 0
-234 219 429 2421 0
67 -292 -32 2422 0
203 400 -280 2423 0
-487 -162 -76 2424 0
-188 -100 61 2425 0
-278 279 37 2426 0
106 326 409 2427 0
-60 -122 65 2428 0
229 -406 -66 2429 0
328 -34 -362 2430 0
-462 70 -355 2431 0
-334 -125 88 2432 0
196 188 159 2433 0
-46 -168 -405 2434 0
-392 186 283 2435 0
100 349 -104 2436 0
-396 -458 -475 2437 0
-167 28 254 2438 0
365 232 -142 2439 0
178 -204 306 2440 0
93 -267 102 2441 0
132 -188 253 2442 0
-71 -258 -164 2443 0
-129 169 349 2444 0
-260 212 258 2445 0
-446 -249 -454 2446 0
223 481 135 2447 0
260 -204 -475 2448 0
-203 -436 204 2449 0
92 -481 -403 2450 0
-439 95 -244 2451 0
302 -410 419 2452 0
-101 479 25 2453 0
417 200 -432 2454 0
-245 -182 334 2455 0
352 -29 488 2456 0
-234 -455 304 2457 0
154 -267 439 2458 0
-435 131 -113 2459 0
25 -371 -279 2460 0
-185 -243 -208 2461 0
369 -242 -35 2462 0
-457 -69 446 2463 0
82 130 309 2464 0
-208 -462 186 2465 0
-246 -488 1 2466 0
479 -394 267 2467 0
-6 427 84 2468 0
-99 259 350 2469 0
114 -288 -485 2470 0
-310 29 -224 2471 0
463 -201 -264 2472 0
-181 96 -436 2473 0
19 210 425 2474 0
-320 -424 362 2475 0
-308 -387 229 2476 0
142 293 -408 2477 0
282 -58 226 2478 0
-380 312 -392 2479 0
483 -142 293 2480 0
-79 -249 -50 2481 0
423 395 104 2482 0
-69 -369 -192 2483 0
-131 -182 -477 2484 0
-437 -115 -93 2485 0
47 420 361 2486 0
-208 256 213 2487 0
-327 415 -79 2488 0
251 -107 279 2489 0
137 -466 408 2490 0
4 -467 -274 2491 0
396 -347 -274 2492 0
-408 -271 -221 2493 0
-257 106 -386 2494 0
-331 -289 -52 2495 0
-49 216 443 2496 0
74 -147 -224 2497 0
-297 -435 -257 2498 0
88 33 120 2499 0
-134 406 456 2500 0
241 -220 119 2501 0
348 -414 474 2502 0
112 -132 185 2503 0
-289 -150 -22 2504 0
-442 393 187 2505 0
485 313 335 2506 0
292 -472 -500 2507 0
223 356 -257 2508 0
418 282 -96 2509 0
485 -49 143 2510 0
405 15 -358 2511 0
34 287 6 2512 0
255 -431 186 2513 0
-95 330 172 2514 0
-244 -361 54 2515 0
282 -441 -283 2516 0
470 86 350 2517 0
-235 -461 292 2518 0
-429 -337 241 2519 0
-240 -199 483 2520 0
199 -345 194 2521 0
-200 373 495 2522 0
-106 265 31 2523 0
90 -401 480 2524 0
-17 317 195 2525 0
-419 -459 -75 2526 0
325 -57 329 2527 0
-60 130 9 2528 0
104 -335 -49 2529 0
-427 -392 -203 2530 0
398 334 492 2531 0
163 493 -113 2532 0
233 -317 -156 2533 0
243 -37 92 2534 0
-53 402 -376 2535 0
351 86 74 2536 0
-349 162 183 2537 0
260 242 -123 2538 0
-329 -90 -215 2539 0
386 85 214 2540 0
-267 -31 421 2541 0
222 356 231 2542 0
405 435 195 2543 0
491 295 -238 2544 0
-131 -469 233 2545 0
-491 479 279 2546 0
-380 31 -254 2547 0
416 419 -55 2548 0
103 -404 -466 2549 0
-416 -76 102 2550 0
-144 -465 -397 2551 0
158 42 281 2552 0
-250 -355 -353 2553 0
398 -318 -29 2554 0
320 -440 172 2555 0
-202 -104 -383 2556 0
499 126 365 2557 0
-470 -469 266 2558 0
-103 -15 -119 2559 0
67 392 472 2560 0
267 -189 -100 2561 0
-330 488 81 2562 0
-254 290 -158 2563 0
-164 319 -300 2564 0
-90 107 -157 2565 0
-14 413 267 2566 0
475 322 -80 2567 0
-198 -278 -21 2568 0
144 385 -191 2569 0
443 -40 370 2570 0
413 132 -325 2571 0
87 -252 402 2572 0
-427 127 178 2573 0
-489 311 -396 2574 0
-291 -218 404 2575 0
300 -42 -416 2576 0
-115 262 303 2577 0
-201 -150 189 2578 0
-66 -137 175 2579 0
-114 -188 301 2580 0
239 183 139 2581 0
271 -7 338 2582 0
324 179 2 2583 0
255 -386 359 2584 0
-109 370 -418 2585 0
-309 -4 -479 2586 0
-216 -386 -336 2587 0
-27 189 157 2588 0
74 -158 -264 2589 0
-499 -444 231 2590 0
-200 -437 -184 2591 0
251 190 475 2592 0
-375 -271 -16 2593 0
343 -141 -311 2594 0
204 259 -188 2595 0
-455 -313 56 2596 0
494 -332 -269 2597 0
304 161 -160 2598 0
422 296 -442 2599 0
150 157 445 2600 0
-265 279 -115 2601 0
-49 262 -410 2602 0
363 -452 494 2603 0
64 166 -230 2604 0
29 -263 -356 2605 0
-114 326 -374 2606 0
307 -28 -277 2607 0
342 375 -305 2608 0
-472 -134 153 2609 0
-94 -309 358 2610 0
-267 -361 -213 2611 0
-77 -18 -191 2612 0
219 184 439 2613 0
-319 144 -188 2614 0
162 271 495 2615 0
-112 -78 -261 2616 0
-217 275 301 2617 0
-318 -141 271 2618 0
-351 97 -9 2619 0
-187 377 358 2620 0
241 470 -317 2621 0
-441 -399 -337 2622 0
-192 -92 -246 2623 0
170 180 -391 2624 0
-491 443 487 2625 0
-380 -499 485 2626 0
-183 258 234 2627 0
498 331 134 2628 0
349 -8 -150 2629 0
-473 -286 414 2630 0
-415 -441 438 2631 0
-146 -83 -399 2632 0
-425 -82 31 2633 0
461 -124 -368 2634 0
182 23 422 2635 0
-39 -167 -156 2636 0
297 -263 11 2637 0
-271 -35 494 2638 0
266 363 -57 2639 0
-287 444 124 2640 0
33 -399 -476 2641 0
82 143 -244 2642 0
96 -464 -219 2643 0
-315 -483 414 2644 0
463 398 -456 2645 0
80 244 -36 2646 0
-134 -9 -321 2647 0
462 75 140 2648 0
39 198 247 2649 0
15 321 306 2650 0
