p cnf 2650 2150
-205 -453 263 501 0
-71 -221 366 502 0
87 -435 14 503 0
102 397 -458 504 0
407 426 265 505 0
152 438 485 506 0
231 -240 375 507 0
-233 -363 8 508 0
387 -496 439 509 0
-163 213 -67 510 0
448 275 188 511 0
319 -23 389 512 0
396 -454 -137 513 0
-431 186 399 514 0
-207 277 333 515 0
168 -355 341 516 0
17 35 -292 517 0
262 287 435 518 0
-369 82 -472 519 0
20 358 -140 520 0
156 382 149 521 0
483 -259 69 522 0
168 -373 -150 523 0
-494 -358 -413 524 0
456 -173 335 525 0
-293 -377 308 526 0
134 258 -443 527 0
-457 71 183 528 0
387 159 309 529 0
486 231 359 530 0
-253 -98 -358 531 0
256 -31 -415 532 0
-439 -275 22 533 0
-307 -324 -80 534 0
320 -317 -230 535 0
433 -478 114 536 0
-429 -51 -277 537 0
219 -408 451 538 0
-99 -379 294 539 0
494 -48 -294 540 0
488 200 -442 541 0
-159 -464 -311 542 0
195 -281 117 543 0
175 -365 464 544 0
116 446 91 545 0
-433 481 -349 546 0
-273 245 47 547 0
11 -129 -99 548 0
146 243 -377 549 0
-193 439 -263 550 0
-233 -473 -44 551 0
92 -136 -55 552 0
-356 -11 -36 553 0
-166 5 442 554 0
-387 203 348 555 0
366 -279 -83 556 0
-346 -179 -164 557 0
-294 224 -448 558 0
127 437 191 559 0
280 -374 -153 560 0
395 110 10 561 0
-454 -43 -309 562 0
66 -248 485 563 0
10 -74 -213 564 0
-10 385 -195 565 0
276 -186 367 566 0
299 98 368 567 0
387 222 96 568 0
356 312 -443 569 0
-384 -496 307 570 0
-440 361 -222 571 0
-256 -442 -322 572 0
469 479 -337 573 0
345 -385 -214 574 0
-386 163 -119 575 0
-493 20 -402 576 0
266 -352 75 577 0
-309 394 -314 578 0
193 -400 -199 579 0
407 -109 396 580 0
77 176 -128 581 0
456 492 247 582 0
43 -202 499 583 0
-161 392 241 584 0
-357 3 -80 585 0
388 -116 -289 586 0
413 325 147 587 0
-97 -205 -453 588 0
334 204 321 589 0
-352 -255 -386 590 0
-11 -377 -260 591 0
428 72 174 592 0
376 -11 -42 593 0
21 -198 237 594 0
82 413 334 595 0
-285 -212 -15 596 0
115 170 495 597 0
208 -105 401 598 0
-264 393 -210 599 0
375 287 -470 600 0
-312 -26 -184 601 0
-423 -408 220 602 0
-355 -459 458 603 0
108 -356 -176 604 0
480 -29 -71 605 0
-463 433 -303 606 0
-432 475 379 607 0
390 -485 -374 608 0
-191 -231 -271 609 0
229 266 12 610 0
-86 485 465 611 0
-74 289 -300 612 0
132 -322 337 613 0
25 -160 119 614 0
281 348 46 615 0
-300 309 136 616 0
-60 262 -321 617 0
367 -490 -387 618 0
63 -177 -33 619 0
70 -424 274 620 0
471 -200 466 621 0
261 438 298 622 0
308 278 395 623 0
459 -9 390 624 0
-170 4 276 625 0
-155 41 -230 626 0
226 126 -368 627 0
-471 -143 -458 628 0
-402 162 -185 629 0
-225 70 -125 630 0
381 187 -461 631 0
356 368 456 632 0
-428 -5 289 633 0
123 268 -66 634 0
-244 88 -263 635 0
-301 470 255 636 0
-158 225 -352 637 0
493 116 349 638 0
-130 88 -271 639 0
106 -17 274 640 0
424 -316 46 641 0
180 -359 190 642 0
72 121 -51 643 0
-176 -177 138 644 0
-344 -368 -277 645 0
-184 209 227 646 0
469 -191 355 647 0
-321 61 390 648 0
-229 -275 -438 649 0
218 -104 308 650 0
483 -18 -445 651 0
447 250 249 652 0
81 419 313 653 0
180 -250 -243 654 0
-183 -433 -178 655 0
-190 -58 -364 656 0
249 29 -56 657 0
117 490 152 658 0
-273 -45 261 659 0
446 -311 478 660 0
-144 98 302 661 0
-251 -257 -163 662 0
57 -217 -478 663 0
61 236 -232 664 0
-49 177 188 665 0
-435 395 252 666 0
172 -452 372 667 0
-330 -74 -286 668 0
500 167 1 669 0
115 251 -33 670 0
31 -271 454 671 0
-148 88 500 672 0
-167 -289 -190 673 0
-131 109 429 674 0
487 -196 32 675 0
-491 -273 230 676 0
-430 -334 -457 677 0
-130 -102 107 678 0
130 -321 390 679 0
450 429 232 680 0
339 -11 -452 681 0
125 -192 49 682 0
-379 309 -3 683 0
353 255 437 684 0
210 -433 425 685 0
338 -10 348 686 0
-335 195 -33 687 0
-228 -97 382 688 0
-4 54 481 689 0
-371 -467 -100 690 0
-253 -421 -405 691 0
-288 28 -490 692 0
-483 202 179 693 0
-68 -46 -99 694 0
-24 -34 212 695 0
72 276 174 696 0
-410 -249 -398 697 0
-21 -217 448 698 0
-18 -299 224 699 0
390 417 -193 700 0
382 -191 497 701 0
-89 441 -56 702 0
-194 468 79 703 0
-32 -142 273 704 0
353 -401 449 705 0
-253 -160 446 706 0
-253 -178 -82 707 0
-480 -132 -465 708 0
147 275 -29 709 0
-202 283 240 710 0
281 -405 -445 711 0
158 -372 242 712 0
450 -381 -318 713 0
-66 -397 -366 714 0
-249 92 258 715 0
50 -49 19 716 0
-217 -338 19 717 0
-38 -264 -311 718 0
193 -308 485 719 0
84 126 -469 720 0
-99 -328 419 721 0
-435 105 -206 722 0
227 9 75 723 0
122 222 -143 724 0
-194 316 113 725 0
-199 -403 119 726 0
-44 77 196 727 0
-259 -373 -288 728 0
250 224 104 729 0
291 442 322 730 0
-396 274 -78 731 0
196 -358 497 732 0
37 380 -305 733 0
411 46 -238 734 0
210 119 442 735 0
418 173 446 736 0
-34 92 160 737 0
221 299 477 738 0
-145 -186 255 739 0
187 445 -380 740 0
-381 439 -456 741 0
178 12 297 742 0
446 441 -420 743 0
-426 151 373 744 0
-221 110 77 745 0
409 -71 11 746 0
255 -293 351 747 0
-281 -131 -324 748 0
313 -370 343 749 0
-5 83 -444 750 0
24 439 207 751 0
-266 -60 -43 752 0
253 -314 270 753 0
337 -23 118 754 0
117 -390 323 755 0
370 -423 247 756 0
150 -18 77 757 0
314 488 475 758 0
469 2 -383 759 0
-346 58 257 760 0
297 -203 -378 761 0
-33 -401 206 762 0
-257 278 41 763 0
-24 -128 -228 764 0
-384 265 -230 765 0
-25 3 255 766 0
124 197 -200 767 0
31 -377 2 768 0
-451 -218 -382 769 0
-184 144 470 770 0
57 -360 -111 771 0
-351 146 -37 772 0
-442 400 168 773 0
-158 -174 -144 774 0
-352 417 317 775 0
-201 -176 203 776 0
272 -239 39 777 0
440 23 299 778 0
-342 14 160 779 0
-255 -336 86 780 0
48 448 242 781 0
-372 -373 292 782 0
413 126 462 783 0
416 481 319 784 0
-350 396 -190 785 0
121 324 368 786 0
-259 413 -146 787 0
-332 99 -197 788 0
103 -405 -478 789 0
450 375 -251 790 0
-426 -70 7 791 0
-125 263 -375 792 0
-88 -188 -53 793 0
440 -297 215 794 0
160 -324 -484 795 0
-494 -388 -338 796 0
-36 -302 414 797 0
373 -204 -237 798 0
-417 -9 472 799 0
-90 6 -7 800 0
114 172 490 801 0
-89 -115 37 802 0
-325 -87 -226 803 0
-231 415 308 804 0
-283 -172 -276 805 0
-474 39 408 806 0
61 -232 -317 807 0
-227 -70 -384 808 0
19 -460 111 809 0
318 -396 -496 810 0
365 -80 440 811 0
230 -49 262 812 0
477 -177 195 813 0
232 176 334 814 0
119 342 -488 815 0
-497 -265 -426 816 0
-231 129 341 817 0
-246 249 66 818 0
49 82 -55 819 0
164 -420 365 820 0
490 137 -102 821 0
142 -487 60 822 0
-423 267 -472 823 0
226 -184 -109 824 0
425 363 398 825 0
-360 329 462 826 0
412 152 88 827 0
172 346 6 828 0
-81 -73 -314 829 0
218 479 -148 830 0
89 -425 4 831 0
119 -393 496 832 0
-139 -268 6 833 0
335 196 -391 834 0
-474 81 471 835 0
101 494 -165 836 0
485 411 38 837 0
-444 -275 13 838 0
97 14 188 839 0
408 -473 62 840 0
333 -417 172 841 0
-477 -112 126 842 0
89 -315 -13 843 0
111 102 433 844 0
-351 21 -312 845 0
173 326 302 846 0
224 -413 278 847 0
138 290 -491 848 0
-165 -78 -379 849 0
113 183 143 850 0
375 -346 -235 851 0
-469 291 281 852 0
-486 -204 -402 853 0
217 -196 -403 854 0
-117 107 153 855 0
496 162 -6 856 0
365 -459 304 857 0
-356 62 -152 858 0
136 -142 -377 859 0
404 213 158 860 0
120 396 419 861 0
225 -466 12 862 0
385 -395 32 863 0
-56 145 185 864 0
4 -257 410 865 0
290 6 48 866 0
27 76 23 867 0
-389 200 169 868 0
402 -485 -439 869 0
472 385 -367 870 0
-114 -350 -478 871 0
-312 -104 -122 872 0
-18 95 226 873 0
-224 -203 292 874 0
-413 -84 -412 875 0
-35 76 471 876 0
-104 153 -122 877 0
483 366 478 878 0
333 372 213 879 0
-375 216 235 880 0
434 396 -443 881 0
5 467 -490 882 0
33 199 296 883 0
-415 -199 29 884 0
-34 -198 -90 885 0
-413 -111 -4 886 0
-495 -55 -391 887 0
168 45 339 888 0
-313 456 -487 889 0
164 -219 441 890 0
140 417 245 891 0
-392 222 138 892 0
-202 378 312 893 0
53 142 -210 894 0
347 -32 -303 895 0
-446 -50 -449 896 0
7 268 -95 897 0
-187 115 -449 898 0
-47 -214 -137 899 0
-258 484 -365 900 0
-218 130 153 901 0
158 -102 386 902 0
40 171 188 903 0
-46 -355 -334 904 0
-183 492 495 905 0
179 -103 333 906 0
-201 -453 360 907 0
404 -447 366 908 0
-74 -89 90 909 0
78 356 -216 910 0
207 374 156 911 0
-320 300 -437 912 0
-176 -294 -434 913 0
-448 -258 -363 914 0
-444 184 206 915 0
-289 -332 -103 916 0
298 -266 307 917 0
234 392 -192 918 0
-453 266 -127 919 0
39 238 25 920 0
-73 -361 388 921 0
384 284 451 922 0
-460 -422 -17 923 0
34 261 444 924 0
-246 133 -222 925 0
449 -320 -383 926 0
-437 357 -259 927 0
442 112 404 928 0
248 -12 -27 929 0
46 -491 -478 930 0
-400 -333 -373 931 0
454 -373 -259 932 0
-408 143 410 933 0
-105 351 114 934 0
479 -442 -197 935 0
92 -200 351 936 0
253 -428 -298 937 0
-395 -321 499 938 0
-401 253 381 939 0
467 31 -177 940 0
433 -40 -459 941 0
-393 102 -84 942 0
119 470 -420 943 0
272 302 -29 944 0
331 -336 -399 945 0
383 251 -120 946 0
41 276 269 947 0
277 -437 295 948 0
483 277 136 949 0
-90 -131 214 950 0
-35 371 183 951 0
-291 -249 -424 952 0
456 -208 210 953 0
-496 -373 122 954 0
-73 -319 155 955 0
331 -424 452 956 0
-310 272 93 957 0
-192 -359 -214 958 0
298 205 -67 959 0
-427 -14 -432 960 0
366 86 449 961 0
375 16 -109 962 0
-426 -346 -199 963 0
195 -456 -89 964 0
-208 -68 318 965 0
53 118 95 966 0
-75 -142 405 967 0
-448 -369 -437 968 0
377 -93 -9 969 0
201 259 361 970 0
232 491 188 971 0
422 -30 -327 972 0
413 436 440 973 0
-179 -194 -302 974 0
360 85 -211 975 0
-494 234 419 976 0
500 164 -266 977 0
345 -208 -218 978 0
299 -140 182 979 0
-18 321 -218 980 0
456 -421 51 981 0
52 -140 291 982 0
-435 -209 115 983 0
-421 -165 -446 984 0
112 273 -359 985 0
-157 176 64 986 0
33 -499 169 987 0
-48 362 -103 988 0
-224 478 -490 989 0
-112 47 -143 990 0
385 486 -317 991 0
-170 177 -240 992 0
300 -118 94 993 0
-422 -309 -4 994 0
-286 436 -117 995 0
245 -95 85 996 0
324 -36 39 997 0
-108 428 -112 998 0
473 144 372 999 0
-130 416 -73 1000 0
-36 413 -410 1001 0
-435 -378 -328 1002 0
-190 -404 347 1003 0
304 -426 263 1004 0
-370 209 276 1005 0
451 -206 -238 1006 0
159 406 -106 1007 0
431 173 -338 1008 0
190 -89 -442 1009 0
444 215 -298 1010 0
346 -257 -310 1011 0
104 139 250 1012 0
-184 -388 252 1013 0
-126 -98 -338 1014 0
-422 -346 -343 1015 0
-218 180 -406 1016 0
3 -135 -2 1017 0
-316 -217 123 1018 0
-125 -456 -378 1019 0
453 -294 295 1020 0
-372 432 434 1021 0
-449 45 -92 1022 0
248 -489 -261 1023 0
-457 -220 -346 1024 0
-27 48 415 1025 0
375 355 153 1026 0
169 96 -233 1027 0
437 498 269 1028 0
-187 152 -182 1029 0
461 46 -171 1030 0
-149 264 199 1031 0
299 198 -366 1032 0
-294 308 -173 1033 0
499 -140 229 1034 0
-140 318 -156 1035 0
74 -351 -269 1036 0
334 425 97 1037 0
-386 103 255 1038 0
257 -328 -471 1039 0
-126 19 -415 1040 0
17 377 -39 1041 0
264 8 -110 1042 0
350 27 238 1043 0
-486 44 -73 1044 0
-412 -496 71 1045 0
98 349 -129 1046 0
-366 70 -236 1047 0
402 -441 -248 1048 0
-330 419 368 1049 0
127 433 -476 1050 0
-357 -454 387 1051 0
-439 350 -244 1052 0
-325 151 95 1053 0
-195 -174 -385 1054 0
320 44 -112 1055 0
-473 39 224 1056 0
59 187 -446 1057 0
-12 -328 212 1058 0
245 146 151 1059 0
-201 -240 -481 1060 0
-331 377 -245 1061 0
-334 196 289 1062 0
-162 -449 -110 1063 0
474 -207 32 1064 0
-216 441 145 1065 0
-202 415 -216 1066 0
373 -493 -378 1067 0
-264 254 -119 1068 0
-325 -127 -172 1069 0
-260 -478 -499 1070 0
391 341 -206 1071 0
2 299 -373 1072 0
426 -76 -465 1073 0
5 67 55 1074 0
464 491 -398 1075 0
269 -371 391 1076 0
-277 -358 166 1077 0
263 -290 -343 1078 0
-27 -128 468 1079 0
-56 328 432 1080 0
-56 161 253 1081 0
215 -406 331 1082 0
118 -434 -167 1083 0
1 159 441 1084 0
59 -197 -294 1085 0
18 292 -123 1086 0
-376 132 72 1087 0
440 494 29 1088 0
159 367 -401 1089 0
-36 -263 361 1090 0
-447 -375 204 1091 0
16 374 -423 1092 0
-400 436 95 1093 0
192 -63 11 1094 0
259 133 401 1095 0
-409 174 -383 1096 0
-187 127 -22 1097 0
141 -264 57 1098 0
-281 -450 299 1099 0
32 -285 -177 1100 0
266 280 253 1101 0
-382 -400 108 1102 0
252 411 -175 1103 0
492 -81 -155 1104 0
-184 -225 116 1105 0
-402 -431 430 1106 0
115 414 258 1107 0
303 470 -185 1108 0
-95 104 364 1109 0
402 410 -475 1110 0
67 -11 309 1111 0
186 140 -139 1112 0
-23 -22 320 1113 0
-88 -148 226 1114 0
475 -477 149 1115 0
-288 -387 420 1116 0
120 -205 390 1117 0
391 84 -238 1118 0
-262 428 446 1119 0
314 494 -164 1120 0
37 204 395 1121 0
-177 128 -239 1122 0
40 -84 -462 1123 0
485 -59 364 1124 0
-377 -284 311 1125 0
464 -452 -375 1126 0
387 71 142 1127 0
-94 234 307 1128 0
334 291 416 1129 0
280 445 -95 1130 0
148 -385 415 1131 0
-193 93 447 1132 0
-431 362 383 1133 0
167 386 -154 1134 0
29 465 195 1135 0
11 -7 -223 1136 0
-152 246 223 1137 0
232 -246 211 1138 0
-264 -472 -108 1139 0
268 -457 491 1140 0
161 -196 79 1141 0
41 -460 368 1142 0
406 -28 160 1143 0
192 434 474 1144 0
275 -17 204 1145 0
456 196 313 1146 0
385 22 -64 1147 0
73 170 151 1148 0
-348 328 -177 1149 0
427 -479 -178 1150 0
237 -176 -450 1151 0
-93 18 235 1152 0
153 -249 62 1153 0
-68 -496 -225 1154 0
32 270 415 1155 0
86 -204 -154 1156 0
314 -58 291 1157 0
-139 -342 104 1158 0
177 -395 201 1159 0
309 -394 -125 1160 0
-129 -433 383 1161 0
-435 -220 -482 1162 0
8 237 22 1163 0
350 -342 11 1164 0
63 -208 210 1165 0
-376 55 448 1166 0
303 -337 -90 1167 0
347 38 230 1168 0
-430 339 -250 1169 0
248 285 -238 1170 0
-491 465 462 1171 0
359 162 -158 1172 0
327 391 267 1173 0
-20 -129 -342 1174 0
-125 313 -453 1175 0
445 134 -263 1176 0
-340 174 197 1177 0
-180 -163 -135 1178 0
77 -67 -395 1179 0
-64 -311 236 1180 0
397 -414 -191 1181 0
-233 -393 -214 1182 0
-127 91 179 1183 0
223 411 -290 1184 0
-388 -358 70 1185 0
362 -287 -121 1186 0
-347 -291 -97 1187 0
-495 22 359 1188 0
449 -308 285 1189 0
182 -65 -403 1190 0
-222 -52 -372 1191 0
70 -311 -81 1192 0
-337 51 -373 1193 0
118 -206 411 1194 0
174 131 -397 1195 0
-396 294 498 1196 0
163 325 224 1197 0
46 194 303 1198 0
365 397 -370 1199 0
99 477 376 1200 0
-309 416 260 1201 0
239 14 -400 1202 0
141 192 -313 1203 0
356 293 422 1204 0
-382 -128 169 1205 0
39 26 362 1206 0
56 -261 278 1207 0
311 111 466 1208 0
-29 352 -58 1209 0
-361 -390 128 1210 0
-371 -479 -321 1211 0
429 203 -190 1212 0
367 293 -436 1213 0
-14 -394 449 1214 0
348 -73 355 1215 0
4 -163 -183 1216 0
371 251 -291 1217 0
-247 174 279 1218 0
279 -246 -216 1219 0
266 -353 -165 1220 0
-169 -64 -367 1221 0
310 329 -157 1222 0
-51 198 -500 1223 0
-181 258 142 1224 0
-234 -197 50 1225 0
74 -9 -92 1226 0
-461 72 483 1227 0
-388 362 -109 1228 0
285 117 272 1229 0
-91 -205 274 1230 0
-493 -280 460 1231 0
257 -174 -117 1232 0
128 251 110 1233 0
438 172 309 1234 0
244 -424 377 1235 0
-137 -426 -462 1236 0
-269 -238 443 1237 0
-323 168 373 1238 0
442 -500 -240 1239 0
256 -273 -289 1240 0
-390 9 -432 1241 0
361 -482 76 1242 0
368 488 -17 1243 0
-357 499 -402 1244 0
-226 320 -366 1245 0
-398 132 -7 1246 0
159 -302 163 1247 0
277 -282 123 1248 0
-482 -188 151 1249 0
-128 -340 -42 1250 0
-390 -224 -461 1251 0
-82 254 -498 1252 0
497 35 392 1253 0
114 -157 25 1254 0
-132 -432 88 1255 0
-369 311 284 1256 0
-106 -111 415 1257 0
52 -388 64 1258 0
149 367 115 1259 0
339 478 300 1260 0
210 161 484 1261 0
474 175 -127 1262 0
-342 -109 304 1263 0
-178 -191 -442 1264 0
-355 24 -269 1265 0
297 291 -222 1266 0
279 399 282 1267 0
-193 123 -20 1268 0
226 -418 -103 1269 0
-99 456 219 1270 0
-327 116 491 1271 0
-364 -342 448 1272 0
-143 150 83 1273 0
286 -12 241 1274 0
-202 179 321 1275 0
-349 -34 272 1276 0
-416 320 -127 1277 0
-211 254 163 1278 0
406 237 -274 1279 0
-195 -40 -198 1280 0
-355 -112 11 1281 0
179 34 -157 1282 0
-140 75 320 1283 0
188 -401 141 1284 0
304 -268 409 1285 0
277 -150 -62 1286 0
486 233 280 1287 0
-37 350 -111 1288 0
138 -17 -80 1289 0
47 -8 98 1290 0
-454 -497 315 1291 0
-105 -401 472 1292 0
-241 157 482 1293 0
391 216 -363 1294 0
249 -29 17 1295 0
-122 -458 497 1296 0
-228 127 -61 1297 0
306 199 -485 1298 0
-333 60 422 1299 0
384 -438 -463 1300 0
-141 291 2 1301 0
356 3 329 1302 0
-238 492 -466 1303 0
487 -61 154 1304 0
176 30 -230 1305 0
118 103 308 1306 0
289 117 -71 1307 0
385 -155 233 1308 0
409 177 67 1309 0
-278 -377 -283 1310 0
26 117 449 1311 0
-281 -339 42 1312 0
258 463 414 1313 0
-333 372 -275 1314 0
209 -162 -219 1315 0
208 173 341 1316 0
-448 241 -223 1317 0
445 459 -105 1318 0
-209 74 274 1319 0
279 464 305 1320 0
-423 263 470 1321 0
-216 -172 90 1322 0
92 124 -165 1323 0
278 26 -236 1324 0
110 -4 -271 1325 0
-431 -421 333 1326 0
-163 -498 370 1327 0
262 273 -214 1328 0
-470 13 -426 1329 0
-155 322 484 1330 0
-302 15 383 1331 0
-164 -182 -268 1332 0
-286 -304 470 1333 0
97 -192 431 1334 0
-405 172 183 1335 0
103 -213 -456 1336 0
-128 -115 -203 1337 0
395 225 194 1338 0
-422 107 72 1339 0
301 358 369 1340 0
-220 348 444 1341 0
-21 -390 -203 1342 0
321 255 256 1343 0
396 403 29 1344 0
-359 -427 492 1345 0
-279 464 98 1346 0
76 -214 -46 1347 0
125 -66 -355 1348 0
-348 217 153 1349 0
88 -417 334 1350 0
-49 494 -451 1351 0
-447 -138 64 1352 0
99 -317 92 1353 0
-26 -244 133 1354 0
-141 134 130 1355 0
-40 -441 -493 1356 0
-73 -29 300 1357 0
496 -440 -180 1358 0
-123 385 215 1359 0
-92 -193 265 1360 0
189 5 166 1361 0
-130 458 60 1362 0
-117 334 88 1363 0
480 195 329 1364 0
46 -248 187 1365 0
270 357 -434 1366 0
313 -328 131 1367 0
270 -484 376 1368 0
110 147 -217 1369 0
241 245 -300 1370 0
397 -451 -85 1371 0
146 194 -331 1372 0
284 -388 460 1373 0
-469 -148 -111 1374 0
-331 130 -185 1375 0
-299 -330 401 1376 0
381 45 41 1377 0
349 -385 -297 1378 0
286 129 -495 1379 0
256 -212 271 1380 0
432 141 309 1381 0
150 444 -394 1382 0
64 394 99 1383 0
197 17 -411 1384 0
-493 150 -422 1385 0
-256 22 73 1386 0
268 -56 12 1387 0
-316 -411 -243 1388 0
353 -399 -234 1389 0
282 412 -59 1390 0
428 -228 236 1391 0
-457 -265 -351 1392 0
392 -102 -315 1393 0
-421 431 -292 1394 0
-374 332 -256 1395 0
141 -148 147 1396 0
394 97 359 1397 0
-392 -49 -121 1398 0
-386 -35 289 1399 0
394 34 14 1400 0
-100 4 -214 1401 0
241 -459 -449 1402 0
-11 163 -272 1403 0
-49 343 -66 1404 0
256 -326 190 1405 0
244 -68 -287 1406 0
-50 408 -329 1407 0
-86 388 16 1408 0
136 -104 -356 1409 0
-265 422 330 1410 0
475 293 479 1411 0
-489 239 -5 1412 0
-356 -274 -109 1413 0
376 232 -449 1414 0
345 482 477 1415 0
-332 -465 -146 1416 0
491 -42 406 1417 0
17 -127 339 1418 0
-31 -207 -247 1419 0
-75 -73 -311 1420 0
195 352 111 1421 0
266 -344 267 1422 0
-496 149 -445 1423 0
-475 -320 109 1424 0
-177 299 -170 1425 0
81 -5 311 1426 0
400 456 107 1427 0
156 -496 135 1428 0
-75 344 -144 1429 0
-432 365 -331 1430 0
373 451 356 1431 0
341 71 330 1432 0
-103 -125 398 1433 0
-55 28 -295 1434 0
133 -338 139 1435 0
-186 115 -304 1436 0
-77 94 290 1437 0
-161 180 -496 1438 0
406 -367 259 1439 0
178 223 -236 1440 0
-189 54 -387 1441 0
-258 198 -395 1442 0
-28 -41 419 1443 0
-285 206 216 1444 0
-50 -397 250 1445 0
396 -11 -448 1446 0
287 -243 399 1447 0
222 -412 122 1448 0
-443 -71 105 1449 0
-210 34 218 1450 0
150 188 63 1451 0
-240 76 -327 1452 0
-400 225 -344 1453 0
-481 374 -470 1454 0
244 -406 355 1455 0
257 118 496 1456 0
-301 406 -172 1457 0
-219 94 -421 1458 0
-448 219 87 1459 0
-212 52 237 1460 0
-162 -92 146 1461 0
-360 491 -395 1462 0
270 464 76 1463 0
-221 -462 77 1464 0
99 425 -317 1465 0
147 371 270 1466 0
315 218 137 1467 0
178 -1 372 1468 0
-275 -128 -395 1469 0
-158 -152 -250 1470 0
-187 313 -331 1471 0
53 -359 76 1472 0
6 -422 465 1473 0
102 28 316 1474 0
-21 305 144 1475 0
-458 -253 385 1476 0
61 -104 186 1477 0
-45 -138 -146 1478 0
-429 312 -190 1479 0
351 136 429 1480 0
284 291 -246 1481 0
-372 -425 -144 1482 0
61 337 -124 1483 0
-95 -226 134 1484 0
-60 -347 100 1485 0
-377 161 442 1486 0
98 -261 -489 1487 0
-403 -16 342 1488 0
-463 294 25 1489 0
154 175 427 1490 0
184 -41 250 1491 0
-89 -95 -495 1492 0
364 -257 -149 1493 0
63 154 -197 1494 0
298 -333 448 1495 0
485 436 -438 1496 0
100 232 242 1497 0
22 268 1 1498 0
147 224 -155 1499 0
255 -429 110 1500 0
81 -280 -468 1501 0
-497 214 481 1502 0
-429 85 231 1503 0
-158 -479 -326 1504 0
-65 -105 -242 1505 0
-205 63 76 1506 0
155 -273 330 1507 0
74 326 -153 1508 0
358 455 -464 1509 0
-78 199 -371 1510 0
262 -72 -426 1511 0
-334 -344 -25 1512 0
84 -204 407 1513 0
470 -330 5 1514 0
-417 209 60 1515 0
353 -402 -311 1516 0
-356 463 133 1517 0
230 6 420 1518 0
-137 254 -29 1519 0
-9 -484 472 1520 0
142 -492 -439 1521 0
253 244 -466 1522 0
479 486 -244 1523 0
-20 -475 -362 1524 0
-344 -495 130 1525 0
241 169 161 1526 0
-306 99 466 1527 0
-387 237 191 1528 0
392 -18 272 1529 0
255 -304 -109 1530 0
133 19 -110 1531 0
-213 194 322 1532 0
-469 237 -422 1533 0
-276 337 -369 1534 0
-252 -382 -282 1535 0
102 -219 420 1536 0
-1 -70 -261 1537 0
-206 41 421 1538 0
-378 -270 250 1539 0
110 389 72 1540 0
84 -434 41 1541 0
-267 163 46 1542 0
-73 327 -212 1543 0
115 202 315 1544 0
-459 257 -35 1545 0
-115 -181 -326 1546 0
-96 166 -454 1547 0
299 468 334 1548 0
497 -292 -164 1549 0
34 139 228 1550 0
-17 -209 -156 1551 0
-446 -260 -143 1552 0
438 223 8 1553 0
-10 -283 346 1554 0
447 -5 53 1555 0
-252 -433 -244 1556 0
-103 -345 -82 1557 0
-479 -246 -133 1558 0
-248 -285 459 1559 0
416 -300 188 1560 0
-277 102 15 1561 0
482 344 258 1562 0
-309 208 -52 1563 0
-454 8 149 1564 0
-316 -338 -365 1565 0
376 -321 324 1566 0
-482 476 -31 1567 0
316 377 354 1568 0
228 -275 122 1569 0
-249 -133 302 1570 0
-22 -419 132 1571 0
-229 167 181 1572 0
-374 -491 -386 1573 0
-73 -356 -477 1574 0
457 -418 -6 1575 0
-408 346 -18 1576 0
257 -187 -408 1577 0
-227 -13 260 1578 0
494 255 166 1579 0
-374 -320 -324 1580 0
-91 -456 -169 1581 0
233 -293 395 1582 0
306 -101 -495 1583 0
435 209 -346 1584 0
-115 -412 -71 1585 0
24 -417 46 1586 0
-440 -138 325 1587 0
-388 -375 110 1588 0
416 -239 4 1589 0
-479 -323 -17 1590 0
-408 -263 -207 1591 0
21 -60 404 1592 0
492 284 489 1593 0
315 371 78 1594 0
-84 20 168 1595 0
213 -493 -346 1596 0
110 10 354 1597 0
217 -470 -205 1598 0
-93 244 61 1599 0
54 -427 109 1600 0
104 -492 43 1601 0
486 -401 -293 1602 0
384 292 -100 1603 0
403 260 -210 1604 0
-194 419 496 1605 0
-24 -202 -149 1606 0
-343 -467 -241 1607 0
407 -160 206 1608 0
11 -180 -198 1609 0
-56 230 -424 1610 0
-125 -359 -479 1611 0
-472 410 12 1612 0
-484 152 -329 1613 0
-333 -46 -254 1614 0
208 408 65 1615 0
-159 341 269 1616 0
342 462 -160 1617 0
-111 -47 243 1618 0
135 242 -437 1619 0
257 -471 -126 1620 0
-16 -424 66 1621 0
305 90 -291 1622 0
325 -322 314 1623 0
-330 -166 197 1624 0
56 -92 -287 1625 0
191 474 -460 1626 0
432 -242 439 1627 0
-480 -468 449 1628 0
178 -284 50 1629 0
162 -266 -50 1630 0
-146 318 -201 1631 0
-291 -440 66 1632 0
295 -357 2 1633 0
-128 113 -123 1634 0
-352 27 -162 1635 0
16 -333 -412 1636 0
210 350 -310 1637 0
366 -65 -78 1638 0
139 -442 -343 1639 0
254 -489 311 1640 0
-259 -351 141 1641 0
14 392 140 1642 0
390 326 433 1643 0
36 222 473 1644 0
439 423 294 1645 0
-490 368 -392 1646 0
293 -201 35 1647 0
431 135 341 1648 0
111 -47 49 1649 0
277 -57 -430 1650 0
479 21 -102 1651 0
-358 -51 -23 1652 0
145 72 -164 1653 0
-132 -448 150 1654 0
52 450 -46 1655 0
-127 -20 100 1656 0
-370 -218 293 1657 0
-198 431 41 1658 0
-202 -32 -380 1659 0
-225 -451 -175 1660 0
-468 95 492 1661 0
196 156 173 1662 0
-27 -270 -196 1663 0
-174 139 310 1664 0
15 -51 74 1665 0
-393 231 -480 1666 0
-120 178 -158 1667 0
211 133 -181 1668 0
215 -207 -142 1669 0
-306 -490 -456 1670 0
-121 -209 233 1671 0
309 244 433 1672 0
480 388 -54 1673 0
144 -60 -412 1674 0
136 -413 248 1675 0
63 -135 -388 1676 0
-255 -315 -263 1677 0
-442 182 87 1678 0
114 196 -351 1679 0
254 -218 -424 1680 0
46 200 -74 1681 0
359 317 179 1682 0
-148 -441 101 1683 0
-404 -156 365 1684 0
-169 -285 -88 1685 0
249 50 107 1686 0
-257 487 -133 1687 0
499 336 -298 1688 0
-462 114 224 1689 0
113 360 449 1690 0
-393 385 366 1691 0
-485 115 375 1692 0
-17 60 474 1693 0
-201 -51 -222 1694 0
188 -104 -164 1695 0
396 427 252 1696 0
346 158 498 1697 0
243 -398 455 1698 0
345 -350 -29 1699 0
459 -170 234 1700 0
-331 -236 120 1701 0
382 -378 -453 1702 0
472 -266 -191 1703 0
314 -342 392 1704 0
18 354 -34 1705 0
273 -79 485 1706 0
-259 424 -122 1707 0
-446 -201 -291 1708 0
389 -170 463 1709 0
-32 325 -251 1710 0
-408 -185 103 1711 0
-401 202 267 1712 0
-78 71 27 1713 0
-269 148 450 1714 0
478 -398 244 1715 0
-423 -100 -225 1716 0
101 -162 499 1717 0
-367 -36 -113 1718 0
9 160 388 1719 0
-234 -218 -44 1720 0
389 316 -363 1721 0
-65 -273 -349 1722 0
242 293 -45 1723 0
-112 10 -423 1724 0
-413 -233 -28 1725 0
81 -440 422 1726 0
-425 350 -268 1727 0
-54 -477 -197 1728 0
263 -360 -181 1729 0
-40 -17 338 1730 0
-381 -484 -70 1731 0
-89 272 -113 1732 0
-1 -360 -423 1733 0
207 -369 -177 1734 0
90 363 127 1735 0
212 73 12 1736 0
98 -301 -228 1737 0
221 113 -217 1738 0
-69 -457 -288 1739 0
-327 -271 497 1740 0
87 369 -228 1741 0
217 -169 377 1742 0
412 -315 111 1743 0
-417 -408 1 1744 0
-172 -146 397 1745 0
-31 -289 -494 1746 0
489 333 -316 1747 0
-287 34 -404 1748 0
-452 -224 223 1749 0
-135 249 364 1750 0
-109 446 -246 1751 0
496 195 -7 1752 0
12 134 -498 1753 0
-496 331 32 1754 0
-157 10 -319 1755 0
84 -258 -286 1756 0
1 -226 245 1757 0
229 -304 -382 1758 0
50 -227 -279 1759 0
-143 53 197 1760 0
208 -187 120 1761 0
-222 436 -286 1762 0
-341 -286 -85 1763 0
260 -456 493 1764 0
468 197 -187 1765 0
130 60 -359 1766 0
484 186 184 1767 0
-179 187 287 1768 0
459 260 143 1769 0
127 296 -208 1770 0
297 7 405 1771 0
493 -434 -412 1772 0
-110 -175 195 1773 0
-29 -320 358 1774 0
178 479 192 1775 0
438 217 -324 1776 0
-462 12 -235 1777 0
376 -448 259 1778 0
-276 -187 -66 1779 0
-325 -283 63 1780 0
134 244 -377 1781 0
309 358 -8 1782 0
330 -20 256 1783 0
147 -254 -56 1784 0
-223 -281 487 1785 0
-277 224 -38 1786 0
-96 482 219 1787 0
-186 471 -250 1788 0
132 262 140 1789 0
66 206 -428 1790 0
435 265 31 1791 0
2 -231 -315 1792 0
48 406 363 1793 0
-403 -27 -125 1794 0
447 -51 464 1795 0
152 337 455 1796 0
-479 404 -367 1797 0
15 -432 23 1798 0
204 12 89 1799 0
465 -69 361 1800 0
183 -339 360 1801 0
120 -380 -147 1802 0
-50 -182 3 1803 0
-300 129 459 1804 0
193 -239 -356 1805 0
-183 -180 -354 1806 0
-380 -488 469 1807 0
-402 -12 209 1808 0
-4 325 -248 1809 0
-156 -455 -199 1810 0
330 -280 15 1811 0
51 -267 -122 1812 0
-144 -81 125 1813 0
-479 481 312 1814 0
-418 129 156 1815 0
-355 125 -323 1816 0
170 438 -414 1817 0
-433 -441 215 1818 0
423 -63 11 1819 0
-365 24 -232 1820 0
-302 -145 -489 1821 0
-356 163 -47 1822 0
-37 -102 49 1823 0
-68 -324 452 1824 0
342 -429 184 1825 0
396 189 184 1826 0
371 364 6 1827 0
-451 370 154 1828 0
487 261 -483 1829 0
-398 -128 -363 1830 0
-411 -105 -262 1831 0
493 28 274 1832 0
-444 -68 -191 1833 0
204 -318 -134 1834 0
-72 234 -13 1835 0
150 -266 -95 1836 0
-338 26 -375 1837 0
268 224 -317 1838 0
428 -165 38 1839 0
-85 203 328 1840 0
107 10 -29 1841 0
-184 -281 128 1842 0
347 -411 -36 1843 0
239 -56 212 1844 0
142 -316 -429 1845 0
-150 184 467 1846 0
395 -286 -188 1847 0
42 -500 -145 1848 0
330 -399 -340 1849 0
303 122 -189 1850 0
170 -414 -257 1851 0
-272 347 -475 1852 0
-132 -99 -179 1853 0
-261 -13 -222 1854 0
-50 -218 -350 1855 0
285 39 442 1856 0
-210 -371 -73 1857 0
216 288 327 1858 0
173 -494 -30 1859 0
35 -285 -120 1860 0
-333 249 302 1861 0
85 -325 -321 1862 0
-80 147 313 1863 0
-486 -45 262 1864 0
-79 -292 -12 1865 0
415 493 423 1866 0
-462 -73 107 1867 0
263 324 -320 1868 0
-497 406 431 1869 0
297 -344 137 1870 0
-345 65 399 1871 0
-15 -401 -93 1872 0
-164 -183 352 1873 0
-273 -227 -480 1874 0
-459 -137 406 1875 0
-379 319 276 1876 0
162 409 -223 1877 0
455 77 171 1878 0
450 -418 457 1879 0
424 -333 -28 1880 0
458 497 391 1881 0
-446 491 -129 1882 0
-19 -34 -16 1883 0
357 -322 -175 1884 0
-57 59 383 1885 0
205 -29 -116 1886 0
380 268 -56 1887 0
-299 286 297 1888 0
120 198 363 1889 0
489 464 430 1890 0
-79 109 384 1891 0
-398 -390 -160 1892 0
-428 -392 -59 1893 0
-433 -247 -74 1894 0
-487 -214 -115 1895 0
-130 -315 -283 1896 0
279 -490 131 1897 0
-16 449 -155 1898 0
469 -451 -443 1899 0
-267 -42 463 1900 0
-370 -180 168 1901 0
341 416 -350 1902 0
210 413 322 1903 0
-56 492 -343 1904 0
-64 -41 -93 1905 0
-313 -252 422 1906 0
309 -145 -240 1907 0
160 319 399 1908 0
-19 116 -286 1909 0
-294 -147 -402 1910 0
220 308 396 1911 0
124 215 176 1912 0
319 -336 -39 1913 0
-364 196 -232 1914 0
-160 -107 -413 1915 0
-215 -383 -32 1916 0
391 -217 -235 1917 0
-13 169 -199 1918 0
-256 -305 -418 1919 0
-111 33 -131 1920 0
-233 468 402 1921 0
-119 -177 495 1922 0
82 -18 -315 1923 0
-83 230 -286 1924 0
301 -167 -457 1925 0
-16 -193 360 1926 0
-40 -324 18 1927 0
-238 -119 -32 1928 0
141 477 -132 1929 0
-419 124 470 1930 0
-256 423 -126 1931 0
-428 -195 -485 1932 0
273 -350 -497 1933 0
-417 -484 406 1934 0
43 241 366 1935 0
-274 140 76 1936 0
484 -93 361 1937 0
330 -38 -364 1938 0
-402 -485 -324 1939 0
206 274 402 1940 0
-293 -435 -130 1941 0
226 -259 420 1942 0
-255 -256 -112 1943 0
220 -190 -38 1944 0
68 480 -178 1945 0
-411 448 385 1946 0
419 -149 189 1947 0
-334 -362 -387 1948 0
-455 442 -369 1949 0
-304 -87 288 1950 0
426 -174 71 1951 0
318 83 -302 1952 0
-190 375 22 1953 0
115 365 -453 1954 0
348 -51 249 1955 0
488 -113 -156 1956 0
-464 178 229 1957 0
194 -217 209 1958 0
-74 -475 -142 1959 0
-423 -258 82 1960 0
-363 371 176 1961 0
32 466 -427 1962 0
-489 -448 -468 1963 0
-419 -181 -138 1964 0
-158 257 -61 1965 0
463 211 -3 1966 0
94 -392 -321 1967 0
463 62 -417 1968 0
-113 325 355 1969 0
-145 -107 407 1970 0
115 140 296 1971 0
-313 -423 44 1972 0
126 466 236 1973 0
297 -68 92 1974 0
438 -381 -420 1975 0
-499 47 -123 1976 0
-181 398 -382 1977 0
-70 -333 284 1978 0
-478 227 373 1979 0
116 -459 123 1980 0
-252 -141 -305 1981 0
259 12 496 1982 0
-393 -323 -211 1983 0
-323 -461 382 1984 0
326 -173 344 1985 0
420 -372 -118 1986 0
300 281 -406 1987 0
219 186 104 1988 0
496 -483 317 1989 0
253 231 419 1990 0
22 475 196 1991 0
-129 -8 32 1992 0
-277 -358 -156 1993 0
328 39 -478 1994 0
73 366 -452 1995 0
39 -377 83 1996 0
-182 26 -4 1997 0
-361 118 -364 1998 0
471 -492 498 1999 0
450 -352 486 2000 0
358 237 403 2001 0
308 -499 337 2002 0
-318 -379 -115 2003 0
480 358 43 2004 0
151 -39 326 2005 0
-182 -244 195 2006 0
307 -137 217 2007 0
106 -302 -47 2008 0
341 243 176 2009 0
-276 -106 261 2010 0
-373 52 84 2011 0
31 484 -275 2012 0
210 -102 -401 2013 0
398 480 -235 2014 0
443 294 463 2015 0
32 295 -14 2016 0
34 -362 41 2017 0
-12 -216 -262 2018 0
-422 239 -444 2019 0
-261 -195 142 2020 0
113 235 -287 2021 0
258 -310 -420 2022 0
2 -470 -3 2023 0
445 -251 64 2024 0
-124 52 426 2025 0
-475 104 66 2026 0
-233 323 -382 2027 0
327 384 -258 2028 0
-104 129 -417 2029 0
-145 266 -292 2030 0
320 -241 -18 2031 0
-402 -233 -286 2032 0
267 -476 -317 2033 0
-93 -167 373 2034 0
-300 238 469 2035 0
-74 487 -413 2036 0
-365 266 -477 2037 0
323 -487 126 2038 0
453 226 106 2039 0
207 -466 -204 2040 0
-101 487 -347 2041 0
372 -187 157 2042 0
-55 297 -170 2043 0
-296 -448 -261 2044 0
-62 395 257 2045 0
444 -431 -343 2046 0
447 379 -236 2047 0
453 89 -443 2048 0
113 489 -216 2049 0
-350 -131 473 2050 0
194 -230 149 2051 0
324 -354 -131 2052 0
-377 24 -87 2053 0
204 457 -200 2054 0
-397 172 175 2055 0
196 -321 -238 2056 0
25 -30 -42 2057 0
-244 -372 32 2058 0
246 178 247 2059 0
99 -231 79 2060 0
-9 -76 210 2061 0
-92 150 312 2062 0
-39 -335 -280 2063 0
242 356 -418 2064 0
467 343 -330 2065 0
384 68 391 2066 0
-58 485 159 2067 0
-93 -108 276 2068 0
-46 -65 347 2069 0
122 -307 235 2070 0
51 -209 -246 2071 0
-74 65 -205 2072 0
13 204 252 2073 0
-384 -460 141 2074 0
-320 -213 -123 2075 0
159 -198 -337 2076 0
208 321 463 2077 0
491 -477 500 2078 0
-104 382 122 2079 0
-128 -111 -30 2080 0
435 -106 31 2081 0
243 -344 -469 2082 0
351 296 -260 2083 0
429 -33 -41 2084 0
-445 466 -220 2085 0
440 10 80 2086 0
156 148 -266 2087 0
-1 218 -468 2088 0
161 -279 455 2089 0
-341 236 151 2090 0
-48 350 -172 2091 0
191 -19 336 2092 0
52 273 158 2093 0
-377 -295 427 2094 0
-312 -216 -449 2095 0
245 372 -161 2096 0
-423 -108 282 2097 0
-387 235 -351 2098 0
343 111 49 2099 0
349 270 27 2100 0
-135 81 -156 2101 0
-261 -138 -258 2102 0
-41 -387 -376 2103 0
66 408 -326 2104 0
-141 -280 -328 2105 0
-96 203 133 2106 0
214 331 495 2107 0
-243 282 129 2108 0
-161 498 -212 2109 0
-409 -332 -341 2110 0
-338 -23 248 2111 0
-201 293 159 2112 0
496 270 15 2113 0
351 -271 -308 2114 0
493 -323 41 2115 0
-312 171 304 2116 0
-389 -219 -249 2117 0
76 -250 -307 2118 0
-11 469 -195 2119 0
-373 -458 40 2120 0
-14 143 -241 2121 0
89 -223 68 2122 0
-355 369 -290 2123 0
87 178 -21 2124 0
-63 434 -49 2125 0
316 179 257 2126 0
308 282 -110 2127 0
-44 -82 -481 2128 0
-341 419 494 2129 0
-11 45 -100 2130 0
-305 457 318 2131 0
355 35 -167 2132 0
1 171 425 2133 0
270 189 355 2134 0
-24 -97 -1 2135 0
179 136 397 2136 0
-127 -273 9 2137 0
60 -90 -20 2138 0
123 -164 -181 2139 0
243 378 47 2140 0
-31 -305 -263 2141 0
-99 -254 -190 2142 0
-225 329 304 2143 0
333 -379 -297 2144 0
324 -65 240 2145 0
490 -320 -82 2146 0
49 93 -296 2147 0
146 20 289 2148 0
-75 384 426 2149 0
-164 350 246 2150 0
-397 341 -385 2151 0
39 382 118 2152 0
43 136 160 2153 0
-280 -464 299 2154 0
-237 414 -8 2155 0
126 -146 300 2156 0
393 -118 -152 2157 0
-298 -213 -259 2158 0
-184 -95 -243 2159 0
160 121 -12 2160 0
-69 -21 -107 2161 0
-88 232 383 2162 0
-112 -446 277 2163 0
465 -129 -375 2164 0
-143 -43 -66 2165 0
330 80 94 2166 0
-422 190 85 2167 0
-304 -468 298 2168 0
-185 359 -77 2169 0
-38 103 408 2170 0
432 193 190 2171 0
222 -341 -136 2172 0
-229 -44 270 2173 0
-343 271 -432 2174 0
279 -94 -206 2175 0
27 341 279 2176 0
408 210 104 2177 0
-371 -499 -264 2178 0
-144 -291 -215 2179 0
-14 278 -235 2180 0
-67 -186 299 2181 0
446 -39 29 2182 0
66 -37 -192 2183 0
-200 248 -71 2184 0
492 137 457 2185 0
-274 210 242 2186 0
-273 -462 178 2187 0
-37 172 273 2188 0
-17 -344 131 2189 0
228 -81 491 2190 0
-86 486 171 2191 0
237 -192 366 2192 0
360 -446 228 2193 0
-26 228 -328 2194 0
149 -424 420 2195 0
-79 187 280 2196 0
200 29 -471 2197 0
140 -142 147 2198 0
443 218 -97 2199 0
16 -32 -121 2200 0
191 168 -239 2201 0
452 -46 -162 2202 0
311 404 232 2203 0
367 -154 -344 2204 0
-352 -159 -464 2205 0
239 -382 451 2206 0
265 338 359 2207 0
-466 -355 -488 2208 0
285 -167 58 2209 0
-471 -415 -449 2210 0
364 -433 -110 2211 0
249 165 -133 2212 0
107 41 -97 2213 0
132 143 299 2214 0
-141 -213 -90 2215 0
-351 230 127 2216 0
-154 -479 414 2217 0
76 222 -344 2218 0
-114 441 -389 2219 0
51 285 95 2220 0
-113 -435 251 2221 0
425 -322 33 2222 0
-341 -157 122 2223 0
-435 -459 -423 2224 0
376 129 467 2225 0
-318 339 391 2226 0
-135 -451 -223 2227 0
114 93 379 2228 0
100 -211 -235 2229 0
284 -82 -278 2230 0
4 -193 -299 2231 0
294 158 460 2232 0
-76 374 -382 2233 0
-50 -79 -160 2234 0
356 -44 -408 2235 0
486 286 388 2236 0
-479 31 248 2237 0
10 -262 -104 2238 0
163 443 -480 2239 0
312 291 -369 2240 0
476 356 -315 2241 0
195 -389 131 2242 0
161 78 446 2243 0
162 -36 419 2244 0
-389 364 -348 2245 0
-237 24 -123 2246 0
78 28 -497 2247 0
110 -135 -455 2248 0
-200 -109 87 2249 0
-297 -187 114 2250 0
205 459 421 2251 0
454 187 297 2252 0
-271 338 -43 2253 0
-104 5 197 2254 0
-380 -171 397 2255 0
469 183 -117 2256 0
293 -413 -470 2257 0
-191 328 -307 2258 0
421 367 72 2259 0
432 120 213 2260 0
-59 286 37 2261 0
-407 -334 85 2262 0
40 65 209 2263 0
-369 313 358 2264 0
71 499 -337 2265 0
109 385 -125 2266 0
-33 287 -42 2267 0
-234 -276 65 2268 0
-409 67 -211 2269 0
-150 -25 69 2270 0
-133 67 135 2271 0
-430 -470 -320 2272 0
-469 132 -307 2273 0
-298 60 117 2274 0
-203 -306 43 2275 0
326 215 253 2276 0
-282 303 -351 2277 0
274 -425 125 2278 0
-30 -132 247 2279 0
229 -193 -433 2280 0
-207 418 467 2281 0
103 -496 174 2282 0
-425 -470 -234 2283 0
-237 121 137 2284 0
-359 -450 -230 2285 0
-271 -330 -358 2286 0
-166 -234 438 2287 0
-409 -165 419 2288 0
156 -434 -446 2289 0
-43 -392 -438 2290 0
-421 249 -116 2291 0
-80 -290 236 2292 0
215 74 112 2293 0
33 266 -30 2294 0
345 314 -417 2295 0
149 64 -323 2296 0
299 315 -42 2297 0
-92 336 -432 2298 0
457 337 261 2299 0
-138 121 -241 2300 0
-305 -276 -435 2301 0
332 -377 -263 2302 0
237 -304 38 2303 0
-104 314 7 2304 0
-117 422 -418 2305 0
251 95 116 2306 0
-495 -349 -102 2307 0
-449 320 -235 2308 0
491 50 -210 2309 0
450 179 405 2310 0
-363 -281 353 2311 0
155 -254 -482 2312 0
-159 236 -219 2313 0
-311 -291 268 2314 0
350 9 39 2315 0
131 -318 -117 2316 0
-262 24 464 2317 0
353 491 190 2318 0
-481 437 -448 2319 0
-492 49 349 2320 0
108 121 351 2321 0
271 -108 -198 2322 0
199 257 134 2323 0
460 -38 246 2324 0
154 78 -102 2325 0
35 -232 -32 2326 0
435 74 497 2327 0
-233 -125 292 2328 0
-236 73 474 2329 0
-129 258 365 2330 0
-456 -475 -210 2331 0
500 -39 -408 2332 0
128 325 -288 2333 0
225 -64 478 2334 0
-44 385 143 2335 0
446 -15 -45 2336 0
121 433 -303 2337 0
-11 176 -210 2338 0
390 -129 -304 2339 0
-416 268 361 2340 0
403 -188 364 2341 0
100 195 239 2342 0
-236 460 421 2343 0
81 -469 417 2344 0
-294 359 111 2345 0
-311 -444 452 2346 0
-433 282 133 2347 0
-332 -388 322 2348 0
123 -460 -333 2349 0
477 227 427 2350 0
472 -356 12 2351 0
47 -95 49 2352 0
-295 232 -283 2353 0
-263 210 58 2354 0
5 42 451 2355 0
130 -274 -159 2356 0
275 288 30 2357 0
421 322 -233 2358 0
142 -15 -148 2359 0
-284 -318 375 2360 0
-352 -294 364 2361 0
-192 -167 -423 2362 0
117 -181 -164 2363 0
78 181 70 2364 0
418 -49 475 2365 0
-158 59 459 2366 0
-75 361 142 2367 0
-193 -476 169 2368 0
8 239 -268 2369 0
-176 68 193 2370 0
-482 469 400 2371 0
-223 -111 -443 2372 0
-203 367 -89 2373 0
-120 -370 340 2374 0
-101 234 -285 2375 0
49 -390 -141 2376 0
441 368 -186 2377 0
-247 228 -395 2378 0
-25 -461 490 2379 0
-223 -97 -270 2380 0
-304 -349 410 2381 0
451 71 -296 2382 0
-221 347 -394 2383 0
-429 -137 -450 2384 0
-365 49 -350 2385 0
-326 -96 -282 2386 0
-374 -440 237 2387 0
295 282 -432 2388 0
-203 136 -252 2389 0
-400 319 -408 2390 0
379 -484 306 2391 0
-10 -46 -323 2392 0
-314 -431 109 2393 0
489 345 -54 2394 0
290 36 173 2395 0
-437 -439 -55 2396 0
223 169 -447 2397 0
-354 309 -340 2398 0
-389 -78 -176 2399 0
354 239 -446 2400 0
-275 172 433 2401 0
-385 -362 354 2402 0
193 289 479 2403 0
334 378 79 2404 0
79 -12 -401 2405 0
434 -458 -466 2406 0
348 -483 -468 2407 0
50 65 -192 2408 0
-496 -170 -419 2409 0
-470 78 63 2410 0
292 -222 471 2411 0
-215 429 -471 2412 0
46 -151 312 2413 0
-205 -444 -284 2414 0
-419 166 -121 2415 0
-49 270 337 2416 0
324 -304 -494 2417 0
172 -119 -362 2418 0
-422 476 -266 2419 0
327 -137 363 2420 0
-227 272 -26 2421 0
-420 162 -146 2422 0
-218 -333 78 2423 0
-88 -254 -290 2424 0
110 -207 159 2425 0
-165 302 380 2426 0
-233 -218 346 2427 0
-494 -41 32 2428 0
-76 470 -147 2429 0
31 -278 -198 2430 0
68 261 -24 2431 0
434 -411 249 2432 0
467 -217 187 2433 0
144 13 54 2434 0
215 303 -91 2435 0
-222 268 108 2436 0
249 -28 -312 2437 0
-326 445 -444 2438 0
-200 294 -104 2439 0
-369 -356 432 2440 0
362 -284 265 2441 0
-22 -336 -60 2442 0
-381 -17 1 2443 0
330 -156 -122 2444 0
-78 -347 -442 2445 0
-121 -348 63 2446 0
-271 297 226 2447 0
-346 333 341 2448 0
423 316 322 2449 0
467 -481 290 2450 0
397 347 291 2451 0
197 -63 55 2452 0
435 42 329 2453 0
-66 269 46 2454 0
281 -407 372 2455 0
264 141 -104 2456 0
36 195 -406 2457 0
-281 260 -400 2458 0
171 -250 208 2459 0
177 344 -70 2460 0
-321 -102 433 2461 0
440 12 -32 2462 0
-434 438 368 2463 0
-29 409 -265 2464 0
419 58 452 2465 0
-394 162 -499 2466 0
-170 -63 -376 2467 0
-183 66 160 2468 0
-147 -421 311 2469 0
-101 39 -96 2470 0
-431 363 155 2471 0
259 -311 273 2472 0
396 -133 -79 2473 0
-264 -81 69 2474 0
55 365 452 2475 0
289 -237 -219 2476 0
-270 -112 367 2477 0
288 -325 231 2478 0
-444 -425 350 2479 0
-165 112 -60 2480 0
-362 -390 -363 2481 0
-475 382 78 2482 0
133 461 -363 2483 0
-372 -328 119 2484 0
83 -119 -341 2485 0
-67 -281 211 2486 0
-197 -11 446 2487 0
-225 82 -210 2488 0
400 -318 -125 2489 0
472 -149 172 2490 0
371 149 84 2491 0
228 -380 -333 2492 0
-341 -254 374 2493 0
-272 -227 176 2494 0
-259 -376 -301 2495 0
475 -112 237 2496 0
-230 -49 -57 2497 0
-165 62 473 2498 0
441 368 -186 2499 0
66 285 444 2500 0
498 385 6 2501 0
332 -448 -163 2502 0
449 -232 -138 2503 0
189 167 64 2504 0
-65 61 -99 2505 0
-186 375 337 2506 0
164 97 -277 2507 0
118 -51 137 2508 0
-261 13 -429 2509 0
-338 -479 170 2510 0
74 -294 -224 2511 0
442 207 2 2512 0
276 -261 -452 2513 0
-147 -437 -469 2514 0
395 -153 -464 2515 0
-462 -493 214 2516 0
168 261 312 2517 0
-433 487 -230 2518 0
-333 -111 -327 2519 0
-339 122 -439 2520 0
415 -31 112 2521 0
-88 -173 -109 2522 0
-331 -270 -488 2523 0
373 -133 -9 2524 0
-142 -413 -90 2525 0
319 -112 449 2526 0
37 -277 168 2527 0
-441 -242 51 2528 0
211 463 208 2529 0
-71 -414 70 2530 0
198 56 86 2531 0
160 -280 428 2532 0
378 118 -22 2533 0
-140 417 -231 2534 0
166 -354 176 2535 0
-139 -305 279 2536 0
198 -145 -229 2537 0
233 212 406 2538 0
-486 98 160 2539 0
-221 -141 460 2540 0
-111 289 -84 2541 0
-71 333 155 2542 0
209 -340 495 2543 0
166 -254 -342 2544 0
181 51 -424 2545 0
-127 147 -348 2546 0
-427 -146 441 2547 0
48 -90 207 2548 0
54 -17 -42 2549 0
404 -264 -39 2550 0
362 401 269 2551 0
372 314 95 2552 0
82 193 -77 2553 0
-442 -358 -309 2554 0
-493 390 381 2555 0
-201 -89 242 2556 0
281 443 -215 2557 0
-204 -441 229 2558 0
456 439 -243 2559 0
-324 145 -390 2560 0
-57 -320 484 2561 0
124 -299 -168 2562 0
-381 383 -459 2563 0
-388 128 283 2564 0
138 -365 29 2565 0
-125 -114 295 2566 0
-353 -413 -419 2567 0
-47 -390 -244 2568 0
188 138 -471 2569 0
365 16 -344 2570 0
421 -260 238 2571 0
123 -458 232 2572 0
201 46 -210 2573 0
98 218 -459 2574 0
372 -493 358 2575 0
343 460 -443 2576 0
484 473 -102 2577 0
-474 -334 191 2578 0
-349 -246 479 2579 0
-377 -461 406 2580 0
126 201 66 2581 0
-147 168 99 2582 0
-309 389 319 2583 0
70 -412 -490 2584 0
326 -386 395 2585 0
-427 215 203 2586 0
-152 -166 463 2587 0
-56 315 -254 2588 0
-12 -178 -52 2589 0
-4 -441 148 2590 0
40 -62 -406 2591 0
55 -282 67 2592 0
199 239 -51 2593 0
-235 -238 442 2594 0
-206 59 356 2595 0
159 -71 -387 2596 0
-45 -383 338 2597 0
487 -248 -477 2598 0
447 431 -26 2599 0
256 173 -302 2600 0
-397 -236 -444 2601 0
-191 -71 -430 2602 0
330 -113 192 2603 0
121 386 -245 2604 0
-284 -458 427 2605 0
-68 346 492 2606 0
492 -309 490 2607 0
-223 -310 174 2608 0
428 48 -391 2609 0
477 144 150 2610 0
-227 -232 63 2611 0
-124 -223 -6 2612 0
311 275 128 2613 0
286 -254 55 2614 0
364 10 -176 2615 0
16 -490 -383 2616 0
488 -293 -399 2617 0
429 -328 -91 2618 0
26 385 -223 2619 0
-312 -340 298 2620 0
14 -469 404 2621 0
271 156 200 2622 0
274 -233 428 2623 0
-482 223 -471 2624 0
-271 404 242 2625 0
-497 441 -346 2626 0
16 69 298 2627 0
270 -52 458 2628 0
354 91 308 2629 0
20 -264 304 2630 0
-296 363 13 2631 0
-145 73 -330 2632 0
489 343 381 2633 0
-448 -121 413 2634 0
-26 -473 158 2635 0
328 196 34 2636 0
-391 -369 -245 2637 0
170 23 -123 2638 0
-419 -298 -342 2639 0
-167 111 -188 2640 0
202 14 -69 2641 0
-155 -393 -473 2642 0
-273 406 167 2643 0
-420 -341 -75 2644 0
-392 -151 283 2645 0
201 353 477 2646 0
-497 -129 -489 2647 0
448 87 397 2648 0
273 429 -116 2649 0
491 -473 64 2650 0
