p cnf 2650 2150
-441 359 233 501 0
-122 72 -388 502 0
-148 -425 -283 503 0
403 302 295 504 0
446 281 186 505 0
-467 211 -332 506 0
450 -404 -441 507 0
478 23 253 508 0
403 129 -390 509 0
434 -13 416 510 0
-178 84 -120 511 0
60 -103 472 512 0
487 -403 -446 513 0
-476 432 134 514 0
-41 496 -20 515 0
203 -336 446 516 0
404 -267 464 517 0
411 268 -357 518 0
-220 -136 417 519 0
466 63 101 520 0
322 -104 432 521 0
272 348 475 522 0
345 -206 15 523 0
-184 271 369 524 0
-151 -191 -100 525 0
-144 -228 225 526 0
-344 479 451 527 0
-360 -24 -273 528 0
418 138 174 529 0
-161 -339 -429 530 0
58 -223 -270 531 0
-206 462 -466 532 0
-391 56 -188 533 0
-499 93 252 534 0
-364 208 -9 535 0
198 -364 429 536 0
-132 350 120 537 0
32 -24 441 538 0
245 240 17 539 0
161 -475 -466 540 0
221 -178 3 541 0
161 94 -184 542 0
433 19 -98 543 0
205 -484 289 544 0
-282 -6 -69 545 0
-220 36 -65 546 0
-192 -82 -309 547 0
-462 432 -2 548 0
-187 3 -161 549 0
-470 -283 -430 550 0
-180 339 -297 551 0
-425 -315 455 552 0
424 -346 257 553 0
-346 500 462 554 0
358 -480 286 555 0
-374 5 -141 556 0
-134 -421 -458 557 0
-122 39 360 558 0
-152 -453 167 559 0
487 274 244 560 0
-87 -157 -438 561 0
304 -416 465 562 0
-166 -493 365 563 0
-104 -54 -107 564 0
498 424 -201 565 0
-218 126 265 566 0
242 -1 -500 567 0
-182 475 -176 568 0
29 170 -309 569 0
-466 -470 -275 570 0
-474 321 -88 571 0
54 -403 101 572 0
144 -112 372 573 0
-116 53 210 574 0
-432 -82 140 575 0
189 251 -398 576 0
447 2 290 577 0
144 -153 444 578 0
129 -319 206 579 0
-479 -486 -203 580 0
231 -125 -55 581 0
309 111 -247 582 0
-190 163 308 583 0
-199 259 466 584 0
-105 -376 330 585 0
-72 -447 412 586 0
-277 34 394 587 0
-241 486 246 588 0
-203 128 -279 589 0
428 -239 -52 590 0
-66 -429 324 591 0
-224 161 413 592 0
418 206 -39 593 0
459 408 -259 594 0
-13 372 -276 595 0
-211 215 82 596 0
-124 64 160 597 0
-217 -98 362 598 0
-285 -383 -389 599 0
-202 29 -259 600 0
-298 -448 -100 601 0
216 -491 79 602 0
359 172 100 603 0
130 -366 -320 604 0
219 -207 77 605 0
312 162 -304 606 0
-137 -348 105 607 0
198 -178 67 608 0
220 -305 340 609 0
69 -343 486 610 0
355 -484 235 611 0
17 352 266 612 0
-285 -245 33 613 0
-336 -178 -478 614 0
302 -199 163 615 0
51 77 246 616 0
-460 -469 93 617 0
-189 -149 367 618 0
-369 -388 -237 619 0
-278 441 399 620 0
-356 -132 -169 621 0
-383 -412 -290 622 0
291 144 20 623 0
-140 241 -371 624 0
-219 327 140 625 0
-222 400 380 626 0
37 -50 -266 627 0
307 138 225 628 0
164 -454 202 629 0
-179 -392 218 630 0
491 -126 364 631 0
-311 184 500 632 0
-496 180 184 633 0
-472 -197 -119 634 0
187 223 -400 635 0
-335 -471 111 636 0
-498 146 -310 637 0
139 -222 362 638 0
-200 31 486 639 0
408 -243 -224 640 0
154 -469 -171 641 0
-171 430 -281 642 0
-27 -211 213 643 0
363 255 173 644 0
-68 -173 -162 645 0
-44 388 -249 646 0
-124 -309 -55 647 0
305 -404 130 648 0
-209 413 -460 649 0
235 -352 394 650 0
246 -444 423 651 0
60 167 -37 652 0
-422 340 313 653 0
-495 456 -284 654 0
191 326 318 655 0
165 -354 161 656 0
355 369 -258 657 0
345 -254 -17 658 0
242 -33 151 659 0
-301 405 -336 660 0
108 421 36 661 0
477 -374 221 662 0
155 90 -124 663 0
-179 -290 401 664 0
52 260 -459 665 0
81 219 -231 666 0
493 163 340 667 0
480 234 -130 668 0
-3 201 -268 669 0
328 -285 336 670 0
386 -143 -490 671 0
-495 -436 118 672 0
-211 477 115 673 0
-11 25 -44 674 0
-242 349 -209 675 0
174 -191 -217 676 0
-349 376 -20 677 0
-469 202 -382 678 0
444 183 -500 679 0
-488 -165 383 680 0
482 -421 322 681 0
4 402 47 682 0
-26 -73 497 683 0
257 416 197 684 0
365 469 -344 685 0
-71 -240 437 686 0
278 -226 -114 687 0
31 334 -306 688 0
-307 -385 -272 689 0
48 -89 -75 690 0
94 425 -91 691 0
-2 -218 -274 692 0
426 488 500 693 0
-240 46 -83 694 0
-451 188 -412 695 0
-395 -3 -391 696 0
-212 284 306 697 0
-145 306 -401 698 0
-115 488 456 699 0
274 341 39 700 0
-207 -196 -438 701 0
182 -494 -176 702 0
-266 -90 85 703 0
448 -444 375 704 0
-230 130 314 705 0
-338 282 -234 706 0
444 472 -341 707 0
-42 164 457 708 0
356 258 -360 709 0
1 -184 492 710 0
-126 -254 350 711 0
330 392 -464 712 0
-79 145 251 713 0
-375 405 135 714 0
162 35 -384 715 0
123 403 -203 716 0
150 486 -52 717 0
473 -39 -17 718 0
-174 202 106 719 0
8 371 370 720 0
-184 395 333 721 0
187 13 362 722 0
-369 -146 -58 723 0
97 -295 191 724 0
143 -170 240 725 0
-377 100 -55 726 0
-490 -287 -189 727 0
-20 -196 412 728 0
123 -146 272 729 0
-211 -32 456 730 0
-149 294 -323 731 0
-93 -300 -259 732 0
-196 -354 -405 733 0
-487 -481 16 734 0
-377 178 -469 735 0
-373 189 215 736 0
-315 -305 -461 737 0
163 285 -358 738 0
-500 139 449 739 0
206 382 336 740 0
-190 -39 -327 741 0
111 -263 -223 742 0
-61 -32 -245 743 0
-254 79 210 744 0
289 394 434 745 0
-201 -266 84 746 0
64 -261 -329 747 0
-484 118 268 748 0
476 137 282 749 0
73 -259 134 750 0
252 455 -412 751 0
475 298 -98 752 0
205 189 -269 753 0
401 299 69 754 0
337 151 -246 755 0
485 2 -206 756 0
-482 404 -84 757 0
230 289 -15 758 0
248 460 -128 759 0
453 -315 35 760 0
-181 376 -54 761 0
-92 268 469 762 0
114 -318 43 763 0
-13 114 -181 764 0
240 -181 -351 765 0
-74 -467 483 766 0
-221 345 203 767 0
222 75 -71 768 0
-176 -378 -445 769 0
184 214 -387 770 0
252 -456 492 771 0
-286 8 312 772 0
134 -35 -282 773 0
-166 -241 204 774 0
432 205 -82 775 0
25 -302 -415 776 0
-462 -451 -454 777 0
-466 -316 53 778 0
-112 422 308 779 0
3 439 -211 780 0
141 53 -262 781 0
-160 406 408 782 0
-43 262 415 783 0
-283 -357 40 784 0
-452 -174 -281 785 0
-262 -57 -129 786 0
396 -237 -494 787 0
480 485 -287 788 0
222 -253 -219 789 0
348 133 -361 790 0
231 408 422 791 0
-118 -222 231 792 0
-211 475 461 793 0
-40 -31 426 794 0
31 -459 134 795 0
-413 130 -287 796 0
430 335 -312 797 0
-426 429 261 798 0
-238 -214 96 799 0
-101 345 -350 800 0
-129 -334 -313 801 0
347 -59 -108 802 0
8 -230 432 803 0
159 -494 -295 804 0
85 -339 446 805 0
-137 110 -290 806 0
-386 -194 -167 807 0
-203 50 449 808 0
-259 308 483 809 0
429 -188 -184 810 0
23 475 -400 811 0
-397 -430 -266 812 0
-116 -252 -43 813 0
491 335 -275 814 0
283 228 -36 815 0
340 -421 -218 816 0
289 475 455 817 0
-163 -76 -198 818 0
139 365 416 819 0
-336 -385 453 820 0
-499 265 -223 821 0
416 489 355 822 0
-215 83 -43 823 0
-395 -70 -331 824 0
-350 98 52 825 0
-195 31 -101 826 0
-387 -51 90 827 0
141 191 246 828 0
-350 -275 487 829 0
-252 -375 -146 830 0
103 -43 -69 831 0
211 101 480 832 0
198 218 38 833 0
-130 363 60 834 0
-130 162 -464 835 0
-109 -22 9 836 0
-60 -420 126 837 0
94 -114 407 838 0
-469 -121 -234 839 0
-422 -126 438 840 0
-170 467 -24 841 0
313 43 267 842 0
-322 -196 191 843 0
-451 -206 -283 844 0
-412 -374 466 845 0
-3 -492 73 846 0
174 409 38 847 0
218 -470 385 848 0
356 39 -75 849 0
203 394 99 850 0
-212 313 72 851 0
-135 -189 373 852 0
44 -401 371 853 0
119 75 -96 854 0
288 210 167 855 0
-207 378 253 856 0
421 -141 461 857 0
-17 -365 487 858 0
174 -408 -417 859 0
-119 106 -277 860 0
411 169 249 861 0
-205 -417 -413 862 0
-491 -45 -99 863 0
334 -380 -280 864 0
-460 -8 -257 865 0
323 112 -390 866 0
-316 -318 236 867 0
-416 -431 -413 868 0
-49 222 -310 869 0
155 -254 -17 870 0
-348 -115 241 871 0
305 -125 -209 872 0
-247 -107 284 873 0
-302 221 -94 874 0
-98 -134 196 875 0
-456 239 1 876 0
-462 -456 320 877 0
215 193 121 878 0
86 358 -138 879 0
48 -296 -2 880 0
-418 477 302 881 0
-396 -37 19 882 0
320 -282 95 883 0
-74 55 -181 884 0
324 -51 149 885 0
314 444 185 886 0
318 427 -465 887 0
-306 -44 105 888 0
27 -145 -42 889 0
-193 -386 382 890 0
369 -480 -37 891 0
24 -140 26 892 0
-19 -93 -317 893 0
86 178 293 894 0
186 -39 103 895 0
197 -400 -14 896 0
-494 -299 -376 897 0
-458 -395 383 898 0
-480 -181 385 899 0
-449 361 72 900 0
-151 -147 -180 901 0
344 303 267 902 0
-11 317 226 903 0
329 370 -465 904 0
-72 -34 -234 905 0
127 -105 74 906 0
-180 -255 30 907 0
44 -137 364 908 0
-454 -161 -86 909 0
214 442 317 910 0
-291 -141 99 911 0
310 129 -15 912 0
-371 -43 317 913 0
226 -307 -98 914 0
427 -94 -116 915 0
182 -243 -119 916 0
159 -232 229 917 0
-430 -16 -142 918 0
-461 -207 -198 919 0
216 333 88 920 0
278 -339 -485 921 0
61 -126 300 922 0
447 420 186 923 0
-313 242 -223 924 0
-444 -246 -4 925 0
452 444 70 926 0
-285 -237 -69 927 0
405 -177 -375 928 0
-394 -153 161 929 0
198 -383 91 930 0
33 -392 -385 931 0
471 80 453 932 0
-422 210 345 933 0
448 -445 -231 934 0
266 298 -247 935 0
462 144 201 936 0
-475 350 283 937 0
266 386 171 938 0
262 31 461 939 0
-287 -497 291 940 0
-343 401 -240 941 0
-254 453 336 942 0
139 -408 210 943 0
-116 221 -200 944 0
200 249 -425 945 0
394 116 38 946 0
28 -142 292 947 0
420 -443 343 948 0
286 207 17 949 0
-245 -123 -440 950 0
1 -367 313 951 0
-477 419 -31 952 0
-179 -159 -263 953 0
-247 384 86 954 0
407 274 374 955 0
375 333 116 956 0
-9 -194 291 957 0
456 -90 177 958 0
9 32 215 959 0
-169 101 -75 960 0
-458 437 -101 961 0
-342 232 -386 962 0
-380 -46 -96 963 0
214 -345 51 964 0
-163 -256 243 965 0
-180 50 123 966 0
278 -429 -63 967 0
-209 -210 17 968 0
241 -177 318 969 0
404 -86 -442 970 0
70 -351 291 971 0
357 -39 -285 972 0
291 -275 -58 973 0
-357 305 -418 974 0
-121 250 94 975 0
245 -184 118 976 0
164 44 -386 977 0
-482 -298 450 978 0
-336 197 -61 979 0
-337 -369 496 980 0
342 -481 83 981 0
-47 486 -183 982 0
-430 31 -2 983 0
60 52 451 984 0
400 293 40 985 0
207 -212 -266 986 0
200 -38 -171 987 0
391 299 -492 988 0
-268 453 -72 989 0
-143 -21 23 990 0
65 -307 220 991 0
453 -332 -339 992 0
157 156 -19 993 0
369 465 -268 994 0
-169 19 43 995 0
-478 -271 -222 996 0
348 222 379 997 0
4 16 482 998 0
379 389 -499 999 0
-263 34 39 1000 0
348 331 -205 1001 0
-64 -97 394 1002 0
-162 327 -310 1003 0
-339 -68 -500 1004 0
-275 371 320 1005 0
254 105 73 1006 0
251 -237 280 1007 0
1 225 269 1008 0
301 -53 333 1009 0
491 -41 136 1010 0
-3 -69 -221 1011 0
-375 -327 175 1012 0
-348 -350 301 1013 0
444 -374 386 1014 0
-399 297 470 1015 0
-39 125 270 1016 0
421 430 240 1017 0
94 336 -40 1018 0
338 416 -186 1019 0
234 171 -18 1020 0
-144 487 -432 1021 0
259 -24 280 1022 0
97 253 -143 1023 0
-477 148 215 1024 0
195 -148 -13 1025 0
-344 -228 -290 1026 0
155 -461 -403 1027 0
148 -54 -443 1028 0
-111 325 -452 1029 0
481 399 434 1030 0
155 390 -445 1031 0
402 306 -199 1032 0
413 471 -251 1033 0
-131 254 -499 1034 0
317 -398 -416 1035 0
-353 225 208 1036 0
-345 -403 -392 1037 0
-55 229 -368 1038 0
-468 -456 86 1039 0
-91 33 82 1040 0
405 198 -455 1041 0
-498 250 360 1042 0
94 389 480 1043 0
-177 -31 279 1044 0
-313 478 154 1045 0
-2 404 -421 1046 0
-183 39 133 1047 0
-385 373 395 1048 0
-82 278 -377 1049 0
-225 126 423 1050 0
372 140 -278 1051 0
-260 -235 -426 1052 0
-43 -364 83 1053 0
42 -273 -473 1054 0
33 -333 -402 1055 0
406 120 70 1056 0
176 -482 -55 1057 0
395 439 252 1058 0
444 429 -331 1059 0
239 303 -383 1060 0
-69 -473 -494 1061 0
370 80 69 1062 0
-384 -474 69 1063 0
-197 360 285 1064 0
476 398 -177 1065 0
173 -45 102 1066 0
-297 -146 151 1067 0
-243 -278 -307 1068 0
-61 -125 468 1069 0
-183 -482 -282 1070 0
166 -115 -422 1071 0
216 71 393 1072 0
398 -70 197 1073 0
-339 -115 -191 1074 0
-30 48 75 1075 0
-393 -443 431 1076 0
91 167 -448 1077 0
-159 -382 303 1078 0
165 306 -6 1079 0
-315 71 3 1080 0
363 372 -42 1081 0
45 383 205 1082 0
-233 367 -127 1083 0
236 -186 -491 1084 0
456 256 452 1085 0
-242 -463 160 1086 0
287 -91 -181 1087 0
-242 163 -202 1088 0
-50 -218 -262 1089 0
52 -368 345 1090 0
61 225 449 1091 0
-364 -121 -484 1092 0
-425 407 -87 1093 0
190 31 -446 1094 0
153 -326 -384 1095 0
485 -201 -127 1096 0
56 -134 373 1097 0
339 351 -39 1098 0
-364 41 299 1099 0
468 -328 347 1100 0
-480 198 -91 1101 0
417 30 -209 1102 0
343 120 362 1103 0
179 442 -171 1104 0
72 294 209 1105 0
26 391 356 1106 0
4 -67 453 1107 0
-469 294 -249 1108 0
267 -306 -498 1109 0
312 -53 -434 1110 0
-199 434 -326 1111 0
-17 -345 -97 1112 0
221 -67 -120 1113 0
359 278 -257 1114 0
-464 -44 400 1115 0
-377 248 -22 1116 0
-261 452 -139 1117 0
195 225 -49 1118 0
492 414 -392 1119 0
224 -188 459 1120 0
-32 -279 218 1121 0
279 -439 -218 1122 0
28 434 -167 1123 0
327 490 77 1124 0
456 72 104 1125 0
54 25 323 1126 0
-209 446 -111 1127 0
138 -308 -479 1128 0
164 -388 -60 1129 0
-442 452 -377 1130 0
362 485 -151 1131 0
127 51 266 1132 0
151 -198 430 1133 0
-191 465 -270 1134 0
-339 333 -181 1135 0
51 -360 -482 1136 0
67 -224 -273 1137 0
347 146 -225 1138 0
272 -177 -461 1139 0
370 -147 -473 1140 0
382 72 -241 1141 0
-166 51 334 1142 0
429 -249 337 1143 0
-239 -39 376 1144 0
342 138 259 1145 0
-58 114 -273 1146 0
316 -275 -15 1147 0
-492 -99 -350 1148 0
490 -321 266 1149 0
29 -28 -336 1150 0
396 175 -137 1151 0
-177 -124 248 1152 0
304 -434 -118 1153 0
282 -59 -330 1154 0
292 -122 344 1155 0
440 -334 21 1156 0
-337 279 34 1157 0
-245 407 -274 1158 0
-342 -415 -490 1159 0
-362 307 -241 1160 0
97 -82 99 1161 0
288 -161 162 1162 0
24 206 38 1163 0
-348 -65 -154 1164 0
-259 491 -83 1165 0
418 488 126 1166 0
-430 301 -26 1167 0
261 -173 63 1168 0
-346 321 -277 1169 0
-171 -20 -437 1170 0
-356 -499 118 1171 0
46 -220 87 1172 0
-371 100 488 1173 0
107 157 88 1174 0
-101 23 375 1175 0
-494 -242 302 1176 0
56 -383 86 1177 0
-17 -306 15 1178 0
495 -22 -297 1179 0
114 205 191 1180 0
324 -20 -108 1181 0
90 223 -272 1182 0
217 -287 -69 1183 0
296 6 -83 1184 0
-167 432 50 1185 0
-438 -198 -155 1186 0
-324 -339 -90 1187 0
-85 424 230 1188 0
-270 -273 -292 1189 0
443 -368 -384 1190 0
-123 18 48 1191 0
-202 -437 265 1192 0
-350 -395 62 1193 0
-124 43 -27 1194 0
115 247 -283 1195 0
-468 -475 116 1196 0
161 -53 139 1197 0
-256 13 26 1198 0
-90 -50 -445 1199 0
320 156 -157 1200 0
-98 274 37 1201 0
-37 -28 435 1202 0
-449 218 -261 1203 0
128 262 -117 1204 0
453 -218 -361 1205 0
289 237 410 1206 0
-259 -306 349 1207 0
-7 -422 332 1208 0
-207 482 -189 1209 0
-437 104 -185 1210 0
432 -347 389 1211 0
343 -362 -120 1212 0
365 140 -379 1213 0
-266 104 346 1214 0
-238 30 355 1215 0
-461 -282 135 1216 0
216 -150 382 1217 0
405 166 329 1218 0
452 -6 -38 1219 0
-404 -395 18 1220 0
113 92 -138 1221 0
-267 -416 25 1222 0
274 -67 250 1223 0
-201 31 -109 1224 0
448 94 149 1225 0
-321 134 -445 1226 0
-468 255 395 1227 0
400 -168 335 1228 0
-398 -96 -481 1229 0
365 404 -57 1230 0
-432 -132 407 1231 0
334 -368 -366 1232 0
285 -150 -20 1233 0
378 341 -348 1234 0
380 -134 173 1235 0
-243 110 386 1236 0
-30 -385 -150 1237 0
-122 52 228 1238 0
29 -232 -471 1239 0
211 -357 26 1240 0
-126 52 54 1241 0
331 282 -121 1242 0
-289 305 474 1243 0
-39 -223 -368 1244 0
52 260 -325 1245 0
264 -68 486 1246 0
351 -32 -376 1247 0
-70 277 -483 1248 0
25 460 226 1249 0
436 217 -113 1250 0
342 301 462 1251 0
-111 -149 -429 1252 0
257 396 -359 1253 0
236 -159 385 1254 0
275 -465 -334 1255 0
125 220 27 1256 0
-403 -366 -161 1257 0
419 -442 -42 1258 0
155 -209 21 1259 0
71 425 69 1260 0
-64 -256 -146 1261 0
-313 -260 242 1262 0
156 -464 169 1263 0
478 271 -250 1264 0
-359 107 -271 1265 0
-14 -80 -316 1266 0
157 132 209 1267 0
496 104 -10 1268 0
1 -269 -257 1269 0
-51 339 -138 1270 0
-404 133 171 1271 0
215 -442 277 1272 0
99 -15 -279 1273 0
-44 -146 -208 1274 0
-475 -171 -157 1275 0
-162 -267 141 1276 0
-82 -322 -344 1277 0
367 -398 397 1278 0
219 80 14 1279 0
-58 -112 -276 1280 0
-69 -170 259 1281 0
161 -322 127 1282 0
-400 -4 96 1283 0
-235 53 -91 1284 0
-201 18 -268 1285 0
-220 33 -100 1286 0
-368 -408 -188 1287 0
38 -63 -290 1288 0
19 -156 24 1289 0
389 -317 370 1290 0
-327 265 155 1291 0
395 -111 -32 1292 0
279 409 -113 1293 0
-327 179 24 1294 0
371 -395 -349 1295 0
264 410 -251 1296 0
-13 -281 305 1297 0
-310 -295 458 1298 0
-48 374 -251 1299 0
257 14 -334 1300 0
98 -24 308 1301 0
151 -225 -387 1302 0
-71 289 57 1303 0
-88 486 5 1304 0
-428 -62 -34 1305 0
269 -105 -487 1306 0
389 356 -155 1307 0
-289 70 -157 1308 0
103 -5 -414 1309 0
-390 -38 180 1310 0
481 169 153 1311 0
368 297 -451 1312 0
61 164 219 1313 0
140 -155 366 1314 0
-473 423 -9 1315 0
359 -251 -419 1316 0
283 -155 226 1317 0
-184 119 -244 1318 0
102 -423 13 1319 0
-229 -30 484 1320 0
-78 -149 -216 1321 0
465 448 -141 1322 0
360 451 -409 1323 0
-72 148 122 1324 0
-449 -90 205 1325 0
132 486 493 1326 0
-376 -221 -470 1327 0
-407 -197 -146 1328 0
231 -210 156 1329 0
-21 -275 -434 1330 0
117 47 -396 1331 0
-74 -374 -128 1332 0
-426 279 16 1333 0
-411 368 -60 1334 0
-285 -28 -49 1335 0
-230 131 439 1336 0
-330 -130 74 1337 0
215 -403 -461 1338 0
-35 195 -89 1339 0
469 -86 -153 1340 0
-288 59 84 1341 0
-214 -435 -132 1342 0
77 440 -33 1343 0
483 -182 -410 1344 0
-232 -471 156 1345 0
220 -130 303 1346 0
-332 346 -399 1347 0
273 48 288 1348 0
234 -432 14 1349 0
417 239 253 1350 0
236 451 357 1351 0
-266 312 -471 1352 0
-286 420 123 1353 0
378 -390 485 1354 0
498 78 -102 1355 0
-22 272 348 1356 0
-386 -415 -496 1357 0
201 -28 292 1358 0
-468 140 -383 1359 0
401 -444 -316 1360 0
-135 338 -437 1361 0
78 90 -247 1362 0
-432 8 496 1363 0
130 152 119 1364 0
337 457 -152 1365 0
198 -385 75 1366 0
120 -172 453 1367 0
-393 343 142 1368 0
200 -283 279 1369 0
-210 -106 -174 1370 0
-421 -305 112 1371 0
443 105 -86 1372 0
134 -36 -132 1373 0
172 95 -440 1374 0
453 71 -279 1375 0
18 478 -155 1376 0
-462 174 -196 1377 0
-178 500 278 1378 0
199 -280 139 1379 0
10 -307 -136 1380 0
-313 446 -416 1381 0
-468 -145 -330 1382 0
4 -217 9 1383 0
86 -395 -35 1384 0
-96 464 167 1385 0
-414 312 -123 1386 0
-262 242 -276 1387 0
270 -378 -69 1388 0
-170 446 -287 1389 0
376 284 -345 1390 0
-104 -13 -354 1391 0
-122 -399 173 1392 0
-455 -194 383 1393 0
-303 310 -438 1394 0
318 191 -48 1395 0
-336 -18 -271 1396 0
-298 -444 171 1397 0
228 -199 -289 1398 0
237 -223 176 1399 0
332 -254 -371 1400 0
338 253 102 1401 0
-211 -443 77 1402 0
-255 -496 87 1403 0
2 175 -323 1404 0
172 -495 377 1405 0
190 324 -406 1406 0
377 83 -271 1407 0
-232 477 -274 1408 0
475 342 -107 1409 0
-412 74 -69 1410 0
46 498 -53 1411 0
-247 496 484 1412 0
-428 57 204 1413 0
241 368 -17 1414 0
-255 -236 337 1415 0
150 -483 36 1416 0
-170 458 -21 1417 0
-417 401 196 1418 0
-27 -485 -113 1419 0
418 101 489 1420 0
-85 70 31 1421 0
-401 338 182 1422 0
275 -107 -115 1423 0
398 -344 -32 1424 0
391 -183 -263 1425 0
96 -353 91 1426 0
356 330 -141 1427 0
-97 376 -467 1428 0
-229 447 -195 1429 0
-482 353 -8 1430 0
458 -97 273 1431 0
259 357 285 1432 0
434 -310 -47 1433 0
378 195 -228 1434 0
336 -93 338 1435 0
70 -133 -106 1436 0
-442 448 253 1437 0
320 -357 362 1438 0
-328 -457 -289 1439 0
-75 67 -433 1440 0
-360 48 419 1441 0
288 -429 9 1442 0
-462 -93 250 1443 0
-102 -268 -232 1444 0
460 -495 323 1445 0
484 -50 394 1446 0
-132 439 294 1447 0
-262 364 228 1448 0
-487 -61 478 1449 0
48 131 205 1450 0
-148 118 -82 1451 0
-30 -408 -441 1452 0
1 151 -17 1453 0
-372 293 269 1454 0
424 386 -120 1455 0
-288 399 169 1456 0
-285 -206 -215 1457 0
-34 -409 -430 1458 0
188 -235 255 1459 0
-102 75 -118 1460 0
-27 446 118 1461 0
-280 -430 187 1462 0
-355 275 17 1463 0
-333 -253 -191 1464 0
265 -166 472 1465 0
306 168 70 1466 0
-92 242 -11 1467 0
30 -377 187 1468 0
368 39 -359 1469 0
-389 -1 -364 1470 0
-251 -350 -192 1471 0
-89 -492 -224 1472 0
-81 4 -364 1473 0
-19 50 -174 1474 0
-99 -83 -4 1475 0
126 -240 463 1476 0
185 -64 65 1477 0
-284 148 205 1478 0
-350 194 -487 1479 0
131 -418 184 1480 0
271 -84 499 1481 0
474 -476 -129 1482 0
-227 137 -266 1483 0
-116 -393 -301 1484 0
-217 104 -195 1485 0
62 -358 -431 1486 0
-134 -480 240 1487 0
-307 365 -402 1488 0
436 56 -421 1489 0
-495 298 395 1490 0
5 494 342 1491 0
-236 -398 -184 1492 0
336 -242 311 1493 0
54 217 -36 1494 0
74 21 -426 1495 0
130 -132 -45 1496 0
-289 -441 43 1497 0
-231 -351 48 1498 0
-495 -41 -83 1499 0
398 -363 162 1500 0
-455 -5 139 1501 0
-220 -90 348 1502 0
-442 156 320 1503 0
93 178 -469 1504 0
-391 253 -206 1505 0
474 -221 13 1506 0
-454 -90 19 1507 0
413 -455 -65 1508 0
305 404 492 1509 0
264 -230 180 1510 0
-392 -275 -9 1511 0
-427 65 -110 1512 0
-30 -67 383 1513 0
447 -283 254 1514 0
142 163 -247 1515 0
397 348 329 1516 0
-69 77 -360 1517 0
-373 436 168 1518 0
-122 378 19 1519 0
243 129 4 1520 0
-35 -187 210 1521 0
-39 -329 -95 1522 0
-498 -175 423 1523 0
-43 340 -382 1524 0
-65 234 159 1525 0
410 56 -448 1526 0
324 252 -33 1527 0
-403 -424 -225 1528 0
19 170 23 1529 0
-328 -291 359 1530 0
-264 88 293 1531 0
250 -469 -490 1532 0
308 376 -282 1533 0
-12 97 189 1534 0
-413 89 331 1535 0
98 -229 55 1536 0
-40 -415 -23 1537 0
219 -195 -261 1538 0
491 -464 -482 1539 0
-478 -223 333 1540 0
-494 -9 -10 1541 0
-146 -82 -199 1542 0
-459 314 -434 1543 0
-474 -172 493 1544 0
414 -88 -252 1545 0
318 -52 -313 1546 0
431 -234 -194 1547 0
-235 -236 457 1548 0
-231 256 -317 1549 0
182 476 381 1550 0
346 372 -380 1551 0
-34 -461 -298 1552 0
-370 358 -140 1553 0
-411 54 -93 1554 0
-411 -273 195 1555 0
-387 99 434 1556 0
-349 -311 477 1557 0
-90 157 321 1558 0
-309 -249 -22 1559 0
-439 -61 43 1560 0
55 453 -154 1561 0
411 -114 -478 1562 0
215 -103 -257 1563 0
-139 376 442 1564 0
407 -406 -165 1565 0
-79 -37 176 1566 0
362 9 405 1567 0
-364 139 -126 1568 0
31 331 402 1569 0
-55 -283 205 1570 0
-134 -168 107 1571 0
-73 317 493 1572 0
47 -239 -398 1573 0
267 -224 -283 1574 0
443 -51 50 1575 0
415 316 -499 1576 0
487 -92 481 1577 0
21 -325 385 1578 0
34 396 -165 1579 0
198 312 -491 1580 0
11 315 384 1581 0
476 -74 267 1582 0
-16 438 -220 1583 0
416 482 -128 1584 0
458 341 168 1585 0
56 -122 321 1586 0
-66 176 463 1587 0
222 -434 -425 1588 0
-105 -360 250 1589 0
-66 -335 -257 1590 0
464 -381 410 1591 0
-438 412 220 1592 0
-232 -490 -353 1593 0
460 168 239 1594 0
-135 -50 -126 1595 0
41 188 241 1596 0
335 -359 353 1597 0
-292 281 -298 1598 0
430 114 71 1599 0
345 380 -46 1600 0
26 -257 476 1601 0
-25 36 -83 1602 0
330 -11 404 1603 0
-474 -308 446 1604 0
-221 381 128 1605 0
-158 387 -454 1606 0
246 152 -440 1607 0
388 460 212 1608 0
-319 263 -305 1609 0
255 -230 207 1610 0
283 227 300 1611 0
-207 -276 99 1612 0
-367 -87 -328 1613 0
287 193 73 1614 0
-157 -469 75 1615 0
-200 216 54 1616 0
-301 -387 -187 1617 0
253 -14 -61 1618 0
-352 -361 -98 1619 0
-349 -186 -247 1620 0
-408 473 28 1621 0
266 -319 221 1622 0
-262 -56 106 1623 0
162 297 -332 1624 0
-428 197 -290 1625 0
250 -395 474 1626 0
-302 391 -411 1627 0
-106 367 85 1628 0
-88 461 3 1629 0
-364 494 254 1630 0
206 -2 214 1631 0
183 406 -430 1632 0
171 -94 379 1633 0
-161 -229 5 1634 0
-205 -12 -185 1635 0
-383 -124 5 1636 0
-326 -337 369 1637 0
286 145 118 1638 0
-461 -97 -313 1639 0
199 193 103 1640 0
-307 -424 -475 1641 0
-325 363 -371 1642 0
271 -264 106 1643 0
-341 -454 395 1644 0
196 -337 260 1645 0
204 -330 308 1646 0
311 158 -141 1647 0
80 205 -315 1648 0
378 421 75 1649 0
8 -433 289 1650 0
343 -239 383 1651 0
319 13 -423 1652 0
175 132 74 1653 0
-85 53 98 1654 0
-2 61 205 1655 0
473 6 110 1656 0
-101 -288 224 1657 0
-190 -286 -385 1658 0
393 -65 240 1659 0
483 396 56 1660 0
363 -214 -477 1661 0
183 365 -395 1662 0
496 335 16 1663 0
-328 262 -102 1664 0
-301 426 -372 1665 0
-447 -369 -446 1666 0
32 264 316 1667 0
170 447 -390 1668 0
60 -120 340 1669 0
-80 30 336 1670 0
-201 332 -471 1671 0
-340 -189 -299 1672 0
26 396 -80 1673 0
57 -103 304 1674 0
389 135 481 1675 0
493 154 134 1676 0
-240 188 214 1677 0
-271 -299 -481 1678 0
-20 86 -75 1679 0
-31 -288 450 1680 0
155 -96 117 1681 0
44 392 141 1682 0
-411 178 -93 1683 0
327 254 174 1684 0
-300 17 60 1685 0
431 209 -162 1686 0
-493 252 -395 1687 0
-176 -256 -202 1688 0
413 -10 401 1689 0
-211 274 249 1690 0
429 338 98 1691 0
422 262 -411 1692 0
-93 -153 -349 1693 0
373 -455 -213 1694 0
-198 334 250 1695 0
426 -156 430 1696 0
-84 333 -185 1697 0
-184 -301 -378 1698 0
154 288 -22 1699 0
120 69 114 1700 0
-29 404 89 1701 0
260 -352 -180 1702 0
-237 -246 -348 1703 0
-57 -209 -267 1704 0
294 -277 -306 1705 0
-314 -92 272 1706 0
103 -195 27 1707 0
297 -484 110 1708 0
217 478 -285 1709 0
19 -352 71 1710 0
-244 -348 -428 1711 0
-303 -207 -229 1712 0
177 176 203 1713 0
159 -317 -286 1714 0
152 -110 -54 1715 0
-59 338 -174 1716 0
28 335 -452 1717 0
-153 382 -235 1718 0
180 -150 157 1719 0
-103 107 -328 1720 0
54 109 -294 1721 0
373 -387 200 1722 0
-472 375 196 1723 0
45 367 277 1724 0
25 -58 53 1725 0
-433 -271 116 1726 0
-491 -419 -420 1727 0
-132 -368 495 1728 0
-239 -48 220 1729 0
-73 40 371 1730 0
316 378 -142 1731 0
356 -452 -285 1732 0
-151 -153 209 1733 0
163 256 347 1734 0
-282 -321 415 1735 0
-43 415 -80 1736 0
101 309 -141 1737 0
-142 -469 376 1738 0
-206 -300 232 1739 0
-271 -448 24 1740 0
-153 451 -404 1741 0
-240 -232 -300 1742 0
258 464 498 1743 0
-197 436 121 1744 0
-350 65 211 1745 0
165 161 -97 1746 0
364 61 18 1747 0
-254 206 135 1748 0
374 269 -460 1749 0
-498 -334 450 1750 0
405 493 -307 1751 0
-378 92 56 1752 0
134 398 94 1753 0
367 238 442 1754 0
-381 -473 100 1755 0
-108 185 -312 1756 0
248 376 -281 1757 0
234 -376 96 1758 0
23 -443 145 1759 0
-352 252 173 1760 0
-495 458 327 1761 0
-51 256 238 1762 0
429 172 392 1763 0
-495 69 -247 1764 0
365 -384 -237 1765 0
-119 265 374 1766 0
-117 -385 394 1767 0
-161 -114 452 1768 0
193 18 -372 1769 0
323 -109 -467 1770 0
35 -37 -262 1771 0
-317 -326 -105 1772 0
170 216 483 1773 0
15 -172 -470 1774 0
-236 -272 -451 1775 0
121 159 -269 1776 0
-331 458 19 1777 0
446 449 -155 1778 0
39 436 -74 1779 0
123 460 451 1780 0
-308 -84 288 1781 0
485 384 14 1782 0
-200 -361 226 1783 0
-59 243 -300 1784 0
366 -97 -494 1785 0
-255 298 -378 1786 0
125 34 -283 1787 0
-148 387 61 1788 0
10 -276 13 1789 0
-424 500 459 1790 0
-373 369 -191 1791 0
147 -83 221 1792 0
71 -57 -38 1793 0
-69 -328 259 1794 0
500 -199 -119 1795 0
311 142 406 1796 0
465 -163 214 1797 0
-98 273 -303 1798 0
209 497 414 1799 0
-206 -442 438 1800 0
157 94 -130 1801 0
-1 -167 -116 1802 0
-217 -22 -96 1803 0
-103 452 76 1804 0
-347 261 105 1805 0
-404 138 -56 1806 0
6 128 186 1807 0
468 -98 -347 1808 0
-442 415 -168 1809 0
-394 -300 230 1810 0
187 154 -86 1811 0
-124 296 157 1812 0
-192 -40 234 1813 0
-11 -460 337 1814 0
-61 474 454 1815 0
105 331 -417 1816 0
400 292 -69 1817 0
-231 -481 300 1818 0
329 -422 94 1819 0
-303 18 -345 1820 0
-415 -148 -46 1821 0
-334 -201 -45 1822 0
1 -156 398 1823 0
456 -92 -90 1824 0
-174 276 20 1825 0
437 471 1 1826 0
439 -37 273 1827 0
251 -302 36 1828 0
357 -466 -148 1829 0
-274 385 468 1830 0
209 218 335 1831 0
-37 168 -10 1832 0
175 482 -37 1833 0
-422 -468 127 1834 0
-246 104 362 1835 0
443 -429 -361 1836 0
-11 -254 438 1837 0
-201 314 -135 1838 0
-400 -327 -381 1839 0
-316 -93 135 1840 0
-32 54 -301 1841 0
-260 -142 235 1842 0
-73 479 -325 1843 0
-294 410 -431 1844 0
335 388 -185 1845 0
-103 346 109 1846 0
413 -105 448 1847 0
-398 384 3 1848 0
259 385 -276 1849 0
338 360 -289 1850 0
-99 -361 251 1851 0
-9 132 -263 1852 0
84 -21 -404 1853 0
-18 108 299 1854 0
-301 229 63 1855 0
86 363 145 1856 0
-49 225 2 1857 0
-278 -159 302 1858 0
-311 379 -451 1859 0
-360 45 -448 1860 0
-50 424 39 1861 0
174 -496 386 1862 0
200 167 -347 1863 0
-25 -193 494 1864 0
-256 -20 332 1865 0
-423 -93 -178 1866 0
184 324 -487 1867 0
205 76 -171 1868 0
222 -444 -335 1869 0
-132 -489 -171 1870 0
58 -282 314 1871 0
296 314 126 1872 0
473 -489 -159 1873 0
373 -370 485 1874 0
-170 371 -300 1875 0
119 -90 -443 1876 0
298 153 -13 1877 0
-287 -364 300 1878 0
345 -363 -124 1879 0
-23 15 221 1880 0
211 99 324 1881 0
-471 238 143 1882 0
85 50 470 1883 0
-283 43 -129 1884 0
208 438 -225 1885 0
326 73 310 1886 0
-16 311 273 1887 0
-444 -315 406 1888 0
-445 -486 -261 1889 0
484 424 300 1890 0
182 -242 -218 1891 0
-4 120 -184 1892 0
408 -373 370 1893 0
-212 -219 180 1894 0
-388 -408 315 1895 0
62 362 25 1896 0
-362 -173 -159 1897 0
-215 116 -446 1898 0
456 449 9 1899 0
382 46 56 1900 0
406 -79 386 1901 0
433 439 114 1902 0
-136 185 -209 1903 0
-191 -208 -424 1904 0
-274 -488 243 1905 0
-490 89 344 1906 0
-224 487 -385 1907 0
-464 -179 -407 1908 0
-143 74 425 1909 0
391 -85 98 1910 0
489 319 16 1911 0
-134 -472 14 1912 0
-469 -247 -125 1913 0
192 437 -251 1914 0
-477 144 448 1915 0
-257 258 346 1916 0
124 -294 70 1917 0
234 -246 -389 1918 0
435 -73 -358 1919 0
224 27 -300 1920 0
-433 361 24 1921 0
419 231 -307 1922 0
200 235 -162 1923 0
380 470 240 1924 0
-157 456 -72 1925 0
-379 299 -295 1926 0
163 -340 125 1927 0
-120 110 448 1928 0
326 -36 89 1929 0
-229 -447 -313 1930 0
-170 119 77 1931 0
-419 67 -463 1932 0
-419 -125 -322 1933 0
-181 -448 -377 1934 0
-143 173 107 1935 0
-194 111 320 1936 0
481 204 -69 1937 0
-199 -292 51 1938 0
379 -306 -464 1939 0
11 487 -251 1940 0
-175 492 281 1941 0
-7 497 -336 1942 0
240 -429 49 1943 0
329 109 301 1944 0
-392 -20 488 1945 0
-47 385 -430 1946 0
393 -415 -372 1947 0
-385 244 203 1948 0
377 37 95 1949 0
69 82 178 1950 0
487 -386 -437 1951 0
-25 468 -483 1952 0
-351 -259 -80 1953 0
422 144 -429 1954 0
79 -63 -375 1955 0
205 -355 -366 1956 0
49 -170 10 1957 0
94 157 -37 1958 0
206 224 -405 1959 0
-56 254 415 1960 0
140 -169 -148 1961 0
106 247 -337 1962 0
-387 -112 199 1963 0
333 -147 72 1964 0
-322 150 13 1965 0
285 -50 -76 1966 0
-349 -430 431 1967 0
14 306 298 1968 0
-150 -155 27 1969 0
-66 273 381 1970 0
-457 200 155 1971 0
-308 -291 326 1972 0
224 392 481 1973 0
203 -311 276 1974 0
-81 -414 474 1975 0
-245 -363 -347 1976 0
-362 445 328 1977 0
51 68 -131 1978 0
-99 -165 482 1979 0
-357 -400 420 1980 0
349 287 -49 1981 0
-1 407 57 1982 0
111 367 -28 1983 0
-467 279 20 1984 0
477 -135 109 1985 0
386 -425 -487 1986 0
-491 106 262 1987 0
37 -417 401 1988 0
52 -204 -146 1989 0
312 -190 453 1990 0
-475 471 218 1991 0
-391 168 -347 1992 0
458 476 -130 1993 0
-300 266 -213 1994 0
-9 84 320 1995 0
-79 345 361 1996 0
474 -174 198 1997 0
397 -426 25 1998 0
-167 -275 -465 1999 0
-459 66 -224 2000 0
317 128 -93 2001 0
-177 -238 -464 2002 0
-119 -26 -242 2003 0
-431 305 252 2004 0
-135 149 -498 2005 0
-418 -364 -360 2006 0
-218 411 239 2007 0
344 -74 39 2008 0
186 119 -333 2009 0
-44 8 -293 2010 0
357 -486 -469 2011 0
-248 71 -141 2012 0
-499 71 -297 2013 0
-73 357 -175 2014 0
195 -239 -355 2015 0
-131 -250 422 2016 0
44 349 -449 2017 0
145 351 -307 2018 0
194 -134 407 2019 0
-428 162 55 2020 0
-447 189 417 2021 0
-308 -28 -290 2022 0
215 431 191 2023 0
-68 -217 472 2024 0
180 -28 294 2025 0
-67 353 417 2026 0
63 87 115 2027 0
407 172 -219 2028 0
160 453 -1 2029 0
220 -67 -106 2030 0
441 466 -116 2031 0
484 -142 395 2032 0
-51 -290 -424 2033 0
166 -40 -224 2034 0
-303 -214 -458 2035 0
-497 -94 188 2036 0
-221 -92 -203 2037 0
-477 -295 -110 2038 0
-172 202 102 2039 0
-106 -473 303 2040 0
-19 -203 -98 2041 0
-93 -495 -159 2042 0
-309 158 50 2043 0
-322 302 -320 2044 0
115 -131 230 2045 0
132 345 -317 2046 0
354 144 376 2047 0
36 -109 -232 2048 0
-114 -186 -445 2049 0
286 -222 -463 2050 0
-226 -159 452 2051 0
304 -83 -404 2052 0
109 -155 476 2053 0
-255 427 142 2054 0
80 -311 489 2055 0
-240 -245 420 2056 0
425 -186 -444 2057 0
-196 -176 -463 2058 0
-459 196 -489 2059 0
257 -39 -474 2060 0
476 445 473 2061 0
400 380 24 2062 0
-45 -153 -59 2063 0
417 -81 -473 2064 0
230 340 370 2065 0
-17 -85 163 2066 0
-160 338 -186 2067 0
-64 65 2 2068 0
-477 -428 343 2069 0
-244 237 -243 2070 0
-67 396 375 2071 0
-211 147 -151 2072 0
-167 332 -430 2073 0
59 -107 207 2074 0
-369 463 215 2075 0
278 269 -181 2076 0
-484 387 117 2077 0
342 -152 -224 2078 0
-241 384 -196 2079 0
45 484 -337 2080 0
14 187 347 2081 0
-369 -113 225 2082 0
-403 -56 362 2083 0
331 -64 -292 2084 0
-468 -407 -271 2085 0
435 -28 371 2086 0
396 263 55 2087 0
471 -29 -325 2088 0
467 -245 459 2089 0
412 79 368 2090 0
-490 -310 301 2091 0
-150 -52 -133 2092 0
-138 484 -300 2093 0
394 466 -220 2094 0
-485 -68 -436 2095 0
334 -410 193 2096 0
-180 115 -39 2097 0
188 -185 469 2098 0
-50 320 421 2099 0
-280 -77 279 2100 0
426 -270 -159 2101 0
202 326 -39 2102 0
207 185 -260 2103 0
64 73 -147 2104 0
144 301 -13 2105 0
-96 -311 -151 2106 0
-488 142 137 2107 0
50 85 481 2108 0
147 -290 219 2109 0
482 145 122 2110 0
315 -321 -423 2111 0
-136 342 -282 2112 0
113 -397 -260 2113 0
-277 -261 62 2114 0
-198 451 -339 2115 0
-123 -226 -59 2116 0
-348 427 459 2117 0
415 -79 -282 2118 0
403 -299 -136 2119 0
-337 233 -384 2120 0
-111 -440 -109 2121 0
110 374 286 2122 0
-389 -47 -467 2123 0
-477 -237 -372 2124 0
126 -355 27 2125 0
465 -471 345 2126 0
368 82 239 2127 0
139 -490 199 2128 0
50 431 -499 2129 0
-413 255 110 2130 0
-338 -407 -370 2131 0
240 32 493 2132 0
-115 327 149 2133 0
-493 198 15 2134 0
-445 468 196 2135 0
-322 -77 1 2136 0
-197 -194 -380 2137 0
-51 183 -492 2138 0
-51 -295 204 2139 0
355 -207 33 2140 0
-210 -151 -152 2141 0
-190 -93 30 2142 0
283 378 -200 2143 0
-385 12 -344 2144 0
194 116 -92 2145 0
480 273 36 2146 0
-419 -269 313 2147 0
-450 -197 -80 2148 0
-457 165 310 2149 0
-468 408 216 2150 0
311 -349 -278 2151 0
481 -361 329 2152 0
-470 -387 -118 2153 0
431 344 495 2154 0
446 -204 266 2155 0
175 284 391 2156 0
-17 434 203 2157 0
218 176 -81 2158 0
63 -382 -477 2159 0
158 -256 -301 2160 0
479 -95 478 2161 0
500 289 122 2162 0
442 -289 400 2163 0
395 208 -75 2164 0
211 -232 -411 2165 0
-19 -162 216 2166 0
-375 74 376 2167 0
-83 19 67 2168 0
472 -464 447 2169 0
-303 -461 -127 2170 0
-165 -449 -404 2171 0
-274 368 -51 2172 0
-93 288 267 2173 0
99 -445 -64 2174 0
-394 490 440 2175 0
321 389 -425 2176 0
-18 -119 196 2177 0
252 -257 127 2178 0
221 -459 486 2179 0
421 -123 -202 2180 0
86 139 -149 2181 0
-319 352 -218 2182 0
103 211 50 2183 0
438 -285 -445 2184 0
142 70 28 2185 0
255 259 -324 2186 0
73 23 -243 2187 0
-132 -5 -206 2188 0
-230 -352 -407 2189 0
163 362 -34 2190 0
-278 -63 444 2191 0
204 -349 -192 2192 0
-170 -124 190 2193 0
-292 -445 -37 2194 0
-350 -105 187 2195 0
-271 440 -473 2196 0
192 179 218 2197 0
-398 253 450 2198 0
11 -287 379 2199 0
-71 -249 481 2200 0
-395 99 -98 2201 0
-20 -75 -259 2202 0
75 -310 461 2203 0
-49 -382 -476 2204 0
444 -359 45 2205 0
-493 -499 -266 2206 0
451 80 -47 2207 0
-346 -443 -60 2208 0
130 -466 216 2209 0
-191 24 78 2210 0
273 192 -179 2211 0
477 179 257 2212 0
125 -1 -117 2213 0
30 99 -468 2214 0
-215 229 -264 2215 0
63 4 303 2216 0
-164 -299 -134 2217 0
8 410 458 2218 0
-257 498 204 2219 0
460 -183 401 2220 0
356 -38 316 2221 0
-401 -162 -440 2222 0
-98 492 144 2223 0
-323 264 35 2224 0
-181 -421 302 2225 0
292 56 -57 2226 0
68 -330 -157 2227 0
-343 230 297 2228 0
-356 -25 269 2229 0
-65 221 495 2230 0
151 -1 413 2231 0
453 452 -283 2232 0
-452 -355 -397 2233 0
-334 465 404 2234 0
21 -98 -334 2235 0
-93 -498 56 2236 0
115 -274 -233 2237 0
-173 -349 -477 2238 0
-121 476 97 2239 0
-242 48 387 2240 0
-431 -185 156 2241 0
460 -316 -227 2242 0
132 -459 353 2243 0
-314 331 265 2244 0
-316 -277 -203 2245 0
-425 -370 -460 2246 0
210 399 154 2247 0
-472 383 -495 2248 0
-254 467 -459 2249 0
62 292 -227 2250 0
26 425 445 2251 0
475 346 77 2252 0
11 -473 -408 2253 0
89 -30 476 2254 0
-6 -67 -18 2255 0
258 -130 -368 2256 0
-138 -315 144 2257 0
-409 26 136 2258 0
-489 -34 224 2259 0
109 135 -190 2260 0
-67 -335 -351 2261 0
-299 313 38 2262 0
-350 -441 219 2263 0
-493 -215 -14 2264 0
264 -308 -135 2265 0
-122 -451 -167 2266 0
119 254 161 2267 0
-400 321 -63 2268 0
-300 281 389 2269 0
1 -170 -218 2270 0
147 286 55 2271 0
-272 -52 452 2272 0
-179 -101 287 2273 0
260 464 -269 2274 0
-108 -387 -63 2275 0
463 465 162 2276 0
400 -309 -313 2277 0
-70 262 -264 2278 0
-456 -117 -98 2279 0
-175 -292 382 2280 0
-255 399 -83 2281 0
481 -67 -193 2282 0
-336 80 106 2283 0
-288 -93 388 2284 0
-318 -353 25 2285 0
133 -103 282 2286 0
-272 -351 -200 2287 0
-206 252 109 2288 0
-126 71 202 2289 0
269 56 -46 2290 0
-374 15 302 2291 0
438 -110 -332 2292 0
-354 -197 128 2293 0
-81 241 125 2294 0
219 232 255 2295 0
201 64 -427 2296 0
-72 -48 207 2297 0
218 -132 68 2298 0
-330 354 -324 2299 0
-127 -395 493 2300 0
-288 -260 -20 2301 0
-400 106 -339 2302 0
328 -263 -352 2303 0
-81 -35 68 2304 0
310 -17 -172 2305 0
400 -287 -244 2306 0
-347 106 -356 2307 0
116 330 244 2308 0
349 -359 131 2309 0
331 -192 -467 2310 0
297 -435 -64 2311 0
-124 177 -160 2312 0
-134 266 -390 2313 0
-171 146 98 2314 0
-28 -369 155 2315 0
-304 -269 -133 2316 0
367 95 225 2317 0
280 462 -149 2318 0
-187 -310 -383 2319 0
-389 337 328 2320 0
-113 -231 3 2321 0
-223 -57 52 2322 0
254 -393 149 2323 0
112 -341 160 2324 0
462 -53 -69 2325 0
128 -379 407 2326 0
-133 18 -315 2327 0
-263 116 -64 2328 0
-53 145 -121 2329 0
-269 447 174 2330 0
-146 -72 -383 2331 0
-367 -294 -390 2332 0
-326 325 -294 2333 0
-198 150 -7 2334 0
80 -348 376 2335 0
-303 -32 77 2336 0
115 -72 380 2337 0
-183 70 219 2338 0
-147 -405 -72 2339 0
-300 -296 333 2340 0
268 -138 494 2341 0
-333 409 -366 2342 0
130 495 469 2343 0
-256 -341 -241 2344 0
347 404 -271 2345 0
-280 -132 -265 2346 0
-240 -499 -212 2347 0
-77 -348 -259 2348 0
97 497 -68 2349 0
-148 311 -29 2350 0
71 -427 303 2351 0
457 -30 -160 2352 0
1 37 384 2353 0
-72 -466 242 2354 0
197 355 24 2355 0
-284 123 -473 2356 0
360 223 -303 2357 0
-73 -243 -178 2358 0
-288 38 475 2359 0
484 306 131 2360 0
245 -35 -211 2361 0
-158 -447 -265 2362 0
-461 -500 497 2363 0
-152 452 460 2364 0
-119 -238 -267 2365 0
-378 -358 -212 2366 0
278 -283 320 2367 0
66 -119 394 2368 0
117 9 370 2369 0
-394 -84 -279 2370 0
136 -484 -258 2371 0
-219 -137 443 2372 0
456 17 -197 2373 0
147 -328 -227 2374 0
24 285 8 2375 0
38 -348 -487 2376 0
-402 -409 -313 2377 0
145 -434 -148 2378 0
-448 -494 -1 2379 0
-421 242 -94 2380 0
-21 43 8 2381 0
-37 -190 -43 2382 0
-335 -175 150 2383 0
264 -205 88 2384 0
-241 254 387 2385 0
22 -326 -439 2386 0
377 -329 472 2387 0
238 -123 425 2388 0
-217 494 -296 2389 0
169 -52 -321 2390 0
134 -338 -448 2391 0
218 -352 268 2392 0
357 429 -187 2393 0
356 -156 82 2394 0
-462 -162 306 2395 0
476 -429 -137 2396 0
-230 -410 304 2397 0
-433 -468 -413 2398 0
206 -251 163 2399 0
29 -191 -170 2400 0
-277 -233 370 2401 0
-474 -119 -453 2402 0
-469 435 197 2403 0
329 -250 -499 2404 0
174 -306 -11 2405 0
-455 -491 -468 2406 0
-124 228 -477 2407 0
113 476 86 2408 0
-181 158 -180 2409 0
-81 -68 -4 2410 0
314 -27 351 2411 0
204 -333 63 2412 0
462 -288 -311 2413 0
-475 459 28 2414 0
-163 -367 -13 2415 0
316 478 -277 2416 0
-11 -141 -1 2417 0
-132 464 -29 2418 0
-230 -316 -467 2419 0
-257 496 -212 2420 0
393 302 202 2421 0
-21 18 441 2422 0
104 276 499 2423 0
-190 -410 202 2424 0
113 297 -251 2425 0
177 66 333 2426 0
-462 -460 292 2427 0
-479 -482 20 2428 0
173 -77 -116 2429 0
240 -237 101 2430 0
-67 260 167 2431 0
-273 -195 65 2432 0
6 -221 -117 2433 0
-338 -360 151 2434 0
-62 147 -486 2435 0
422 183 -284 2436 0
222 -15 -131 2437 0
169 155 244 2438 0
-286 397 -245 2439 0
402 -364 56 2440 0
-441 -478 -28 2441 0
-358 -59 -57 2442 0
134 -144 210 2443 0
164 270 -454 2444 0
-387 369 -356 2445 0
338 -258 -431 2446 0
-483 -434 202 2447 0
382 -72 370 2448 0
-266 7 -373 2449 0
400 -410 332 2450 0
80 -499 157 2451 0
319 -339 210 2452 0
472 -460 34 2453 0
-437 -500 -422 2454 0
427 -457 -211 2455 0
135 164 99 2456 0
-500 10 11 2457 0
434 -3 -169 2458 0
-53 448 -447 2459 0
-61 282 255 2460 0
498 213 -266 2461 0
-444 -368 111 2462 0
-187 -227 -150 2463 0
329 300 -172 2464 0
193 -327 196 2465 0
-232 -154 235 2466 0
-233 230 472 2467 0
494 437 499 2468 0
313 215 292 2469 0
249 -108 -341 2470 0
374 64 -402 2471 0
-49 139 456 2472 0
78 134 452 2473 0
31 76 -38 2474 0
-304 279 -301 2475 0
-217 -218 479 2476 0
383 -101 336 2477 0
181 -270 352 2478 0
-175 -202 -90 2479 0
395 466 15 2480 0
99 -482 -361 2481 0
35 -358 -499 2482 0
-235 126 -47 2483 0
-437 -463 213 2484 0
372 -205 -289 2485 0
-284 -377 -240 2486 0
-329 -9 -416 2487 0
125 -8 426 2488 0
318 -480 -209 2489 0
-56 418 318 2490 0
-178 -6 56 2491 0
-445 -293 314 2492 0
391 -180 216 2493 0
209 -245 -184 2494 0
-76 148 -10 2495 0
147 246 -498 2496 0
274 292 102 2497 0
-258 314 -395 2498 0
40 107 224 2499 0
252 -227 -311 2500 0
-167 249 -390 2501 0
306 -138 -221 2502 0
-264 -310 435 2503 0
-486 -449 398 2504 0
-450 428 314 2505 0
15 -494 283 2506 0
-473 31 -296 2507 0
-193 442 330 2508 0
154 125 45 2509 0
-254 -128 97 2510 0
-415 493 -290 2511 0
477 -388 77 2512 0
118 413 316 2513 0
-111 -320 209 2514 0
426 -75 154 2515 0
473 -248 300 2516 0
-78 266 323 2517 0
-338 -334 65 2518 0
-491 439 -166 2519 0
48 -433 -458 2520 0
-91 -310 457 2521 0
-12 -158 128 2522 0
-345 -57 -257 2523 0
-374 472 -243 2524 0
-199 51 -227 2525 0
236 -218 421 2526 0
-292 -210 150 2527 0
-424 418 376 2528 0
166 -430 30 2529 0
490 339 395 2530 0
4 493 -197 2531 0
285 464 -231 2532 0
477 -221 -309 2533 0
-213 288 -296 2534 0
-337 -286 -234 2535 0
-298 254 324 2536 0
356 351 321 2537 0
-51 200 -68 2538 0
-240 -241 146 2539 0
-198 -279 290 2540 0
80 -4 -17 2541 0
-336 -352 -406 2542 0
226 37 164 2543 0
-350 -285 145 2544 0
-453 171 -342 2545 0
88 -262 404 2546 0
444 -354 -323 2547 0
-221 -147 -321 2548 0
343 -310 150 2549 0
-74 -189 -271 2550 0
205 348 466 2551 0
-443 117 -449 2552 0
-122 169 -7 2553 0
14 55 -396 2554 0
-337 351 410 2555 0
-462 308 -231 2556 0
476 366 341 2557 0
-203 255 337 2558 0
-93 -301 -491 2559 0
107 -302 259 2560 0
-122 -169 375 2561 0
81 -159 -52 2562 0
-54 266 -194 2563 0
-250 374 -325 2564 0
-196 -88 323 2565 0
436 -381 -77 2566 0
-142 -101 -261 2567 0
-89 -36 420 2568 0
-322 29 414 2569 0
-159 -366 -339 2570 0
496 228 -261 2571 0
-29 31 128 2572 0
-64 66 -470 2573 0
-487 -474 423 2574 0
231 -403 -213 2575 0
-391 -342 -161 2576 0
45 -67 498 2577 0
411 -497 486 2578 0
175 -226 -426 2579 0
-411 -195 378 2580 0
-236 -161 288 2581 0
427 483 164 2582 0
443 -298 460 2583 0
238 62 205 2584 0
346 32 -163 2585 0
-46 -394 90 2586 0
-380 331 222 2587 0
272 136 -211 2588 0
-429 84 -115 2589 0
186 -428 252 2590 0
-251 69 140 2591 0
-412 -307 51 2592 0
424 307 -364 2593 0
183 -307 -497 2594 0
-274 462 297 2595 0
-482 -26 -317 2596 0
-492 -15 -40 2597 0
461 211 -432 2598 0
239 309 -49 2599 0
-298 -81 -457 2600 0
-107 -366 489 2601 0
-43 -162 -231 2602 0
46 -81 -408 2603 0
85 244 394 2604 0
-140 33 -197 2605 0
338 414 -368 2606 0
94 50 -440 2607 0
-363 -46 389 2608 0
-60 -51 419 2609 0
-130 287 369 2610 0
53 -477 326 2611 0
-473 31 88 2612 0
-197 78 -371 2613 0
-279 489 236 2614 0
-184 282 -200 2615 0
-19 -272 498 2616 0
-11 421 -166 2617 0
-270 167 168 2618 0
456 222 -205 2619 0
-484 261 380 2620 0
-168 92 -2 2621 0
357 -184 -391 2622 0
-104 229 47 2623 0
346 -265 -280 2624 0
419 -64 152 2625 0
198 429 -396 2626 0
296 164 -91 2627 0
40 430 -340 2628 0
-45 31 -134 2629 0
-203 10 442 2630 0
-49 195 -315 2631 0
240 412 310 2632 0
368 -455 310 2633 0
-411 -287 364 2634 0
404 -420 204 2635 0
-278 54 -380 2636 0
476 -173 -268 2637 0
322 -13 470 2638 0
41 215 -381 2639 0
-459 69 170 2640 0
466 -148 277 2641 0
427 474 197 2642 0
-363 -443 376 2643 0
495 438 133 2644 0
211 69 -37 2645 0
304 259 -26 2646 0
104 -497 -309 2647 0
-193 -257 490 2648 0
-22 21 241 2649 0
384 -409 -282 2650 0
