p cnf 2650 2150
63 -388 164 501 0
115 464 -347 502 0
-65 416 -20 503 0
-84 -348 93 504 0
-246 -108 -169 505 0
-198 -2 -192 506 0
-249 97 -135 507 0
408 -162 2 508 0
404 399 449 509 0
58 63 69 510 0
-269 -201 74 511 0
-430 425 -102 512 0
126 275 -270 513 0
-219 -209 -127 514 0
-215 -133 -483 515 0
420 244 190 516 0
14 -250 259 517 0
-341 -263 -287 518 0
-272 -460 -89 519 0
-342 103 -127 520 0
57 132 -170 521 0
458 -99 171 522 0
-389 -293 277 523 0
-88 30 322 524 0
454 -12 258 525 0
-107 -86 251 526 0
-96 356 171 527 0
-496 55 -285 528 0
76 -287 141 529 0
-454 212 334 530 0
-49 -438 -465 531 0
-41 -126 -181 532 0
184 -176 -258 533 0
-39 387 369 534 0
313 377 -264 535 0
497 -27 -124 536 0
206 -381 391 537 0
-37 341 310 538 0
-326 113 -215 539 0
230 80 -498 540 0
-32 272 496 541 0
-327 423 -180 542 0
-382 -10 137 543 0
-441 261 -305 544 0
320 -3 126 545 0
462 -330 -207 546 0
-36 372 -259 547 0
8 -201 19 548 0
152 263 -466 549 0
128 -480 468 550 0
42 -87 -44 551 0
162 240 -152 552 0
-292 -241 188 553 0
-244 42 -186 554 0
402 -18 421 555 0
220 446 138 556 0
-315 -460 -70 557 0
190 -319 -177 558 0
-392 96 -229 559 0
285 458 -145 560 0
-177 265 225 561 0
-366 324 -157 562 0
-46 -34 -441 563 0
304 91 -287 564 0
468 194 155 565 0
277 75 -389 566 0
-78 -430 -152 567 0
92 262 -340 568 0
384 263 339 569 0
-311 128 -66 570 0
-359 -7 -471 571 0
375 458 319 572 0
441 55 -479 573 0
-226 -292 130 574 0
-194 -228 -2 575 0
261 81 302 576 0
-355 324 448 577 0
-61 62 -162 578 0
444 -433 -162 579 0
-147 -265 168 580 0
133 182 164 581 0
-160 290 -359 582 0
346 4 -323 583 0
-384 456 -120 584 0
107 426 270 585 0
15 -207 -372 586 0
-26 241 -479 587 0
452 -348 -446 588 0
-104 237 -289 589 0
-338 58 -81 590 0
497 -365 -332 591 0
-99 206 100 592 0
-124 -418 27 593 0
-274 -250 190 594 0
-130 -304 415 595 0
-294 248 -470 596 0
-140 -298 202 597 0
-258 -485 -117 598 0
340 161 -311 599 0
274 487 113 600 0
447 126 304 601 0
-307 410 -55 602 0
222 169 -360 603 0
-245 -9 301 604 0
-263 -376 419 605 0
-134 161 78 606 0
455 -418 -437 607 0
-459 428 -442 608 0
-69 110 -73 609 0
-42 190 -329 610 0
-18 346 -359 611 0
69 92 -200 612 0
-13 -303 179 613 0
296 285 -72 614 0
-204 462 -171 615 0
427 -460 -61 616 0
-366 416 331 617 0
478 446 474 618 0
-222 40 -449 619 0
-83 -429 41 620 0
-494 -225 75 621 0
220 175 25 622 0
117 -14 -416 623 0
-51 -211 -499 624 0
138 11 273 625 0
318 371 -12 626 0
-275 303 150 627 0
-58 172 120 628 0
137 400 425 629 0
-227 70 177 630 0
49 -41 -396 631 0
345 -249 -458 632 0
-491 259 -20 633 0
191 -457 58 634 0
-110 67 66 635 0
-212 -155 -198 636 0
-94 -278 -182 637 0
463 -448 -467 638 0
226 -324 -78 639 0
-404 202 -408 640 0
-113 -410 110 641 0
-366 -225 49 642 0
477 -317 -364 643 0
-484 -224 -31 644 0
216 -369 -388 645 0
-18 440 1 646 0
12 -188 246 647 0
150 172 432 648 0
314 381 -437 649 0
-51 -246 32 650 0
-354 29 85 651 0
-223 -498 -197 652 0
-42 -353 331 653 0
32 498 -350 654 0
259 -100 -39 655 0
477 -452 132 656 0
402 353 -347 657 0
306 206 148 658 0
-72 -295 -79 659 0
-321 -243 -225 660 0
-66 -144 43 661 0
42 297 311 662 0
-358 -347 198 663 0
73 357 -213 664 0
-194 -463 -42 665 0
141 -413 -410 666 0
347 36 253 667 0
-127 -319 375 668 0
-259 -239 337 669 0
-59 322 56 670 0
71 -109 -445 671 0
46 42 105 672 0
215 -320 -197 673 0
-251 371 406 674 0
-466 295 -27 675 0
430 -129 35 676 0
-139 460 -169 677 0
151 -210 311 678 0
261 -169 -474 679 0
44 -202 181 680 0
2 59 451 681 0
262 62 -393 682 0
-76 -282 436 683 0
-170 -74 -167 684 0
-13 447 375 685 0
-466 27 327 686 0
53 -124 203 687 0
116 -365 -336 688 0
-367 -100 440 689 0
-27 498 280 690 0
303 -167 -355 691 0
98 -312 34 692 0
441 -241 -76 693 0
213 180 -167 694 0
452 188 260 695 0
440 192 -391 696 0
-173 -370 -143 697 0
-369 237 370 698 0
284 -230 313 699 0
263 334 271 700 0
31 -51 -420 701 0
189 130 -23 702 0
401 -35 -150 703 0
-465 440 280 704 0
-346 64 -313 705 0
485 432 223 706 0
-330 -305 -457 707 0
152 415 221 708 0
218 257 -86 709 0
130 183 246 710 0
298 109 -37 711 0
208 -298 -276 712 0
398 27 -90 713 0
337 408 384 714 0
170 136 31 715 0
-377 380 -28 716 0
-371 432 230 717 0
-256 -336 -146 718 0
165 38 92 719 0
-485 407 -331 720 0
-264 -71 -216 721 0
190 -210 289 722 0
-305 488 293 723 0
261 -426 -352 724 0
-169 -12 -401 725 0
-239 23 100 726 0
46 -65 425 727 0
398 -446 -500 728 0
373 170 -123 729 0
476 416 -288 730 0
-117 9 -131 731 0
451 -270 -139 732 0
-160 96 229 733 0
-61 137 -149 734 0
55 -160 311 735 0
-155 -99 -483 736 0
-146 281 243 737 0
353 -35 14 738 0
-370 -255 126 739 0
382 271 -442 740 0
-425 -146 -128 741 0
294 13 -415 742 0
-456 121 -294 743 0
259 -356 -228 744 0
-175 -121 -431 745 0
-376 372 461 746 0
-151 -438 417 747 0
174 -371 -120 748 0
-62 231 146 749 0
279 451 -313 750 0
-28 392 -351 751 0
77 8 165 752 0
474 177 -150 753 0
-125 360 131 754 0
-254 -411 -183 755 0
45 238 -392 756 0
-329 -24 149 757 0
-332 -226 403 758 0
-314 79 306 759 0
495 -164 389 760 0
-35 -483 275 761 0
370 -311 321 762 0
-129 -274 -71 763 0
315 301 -78 764 0
-245 69 13 765 0
74 65 445 766 0
201 -31 -110 767 0
-404 406 -306 768 0
-376 -375 -215 769 0
-406 397 140 770 0
-286 431 476 771 0
400 362 246 772 0
44 -383 161 773 0
-83 389 -161 774 0
174 -319 -262 775 0
-355 294 -29 776 0
262 346 166 777 0
-231 416 -167 778 0
-438 -454 456 779 0
-329 -422 -156 780 0
-259 476 -88 781 0
-140 257 -293 782 0
357 468 367 783 0
295 -106 -455 784 0
-362 -75 -30 785 0
161 -235 450 786 0
-197 93 -435 787 0
-313 224 456 788 0
-433 -165 -250 789 0
426 -197 -34 790 0
-122 -324 -303 791 0
-405 -347 263 792 0
-329 -500 135 793 0
158 365 -266 794 0
-259 -457 -85 795 0
458 -334 103 796 0
-72 -64 -6 797 0
203 14 281 798 0
458 59 433 799 0
465 -232 217 800 0
361 369 -7 801 0
474 -199 -227 802 0
232 -165 -348 803 0
-28 -420 195 804 0
-466 461 -275 805 0
450 198 -348 806 0
-279 295 -57 807 0
230 -323 -318 808 0
414 462 404 809 0
-138 -326 154 810 0
482 233 383 811 0
-76 231 497 812 0
-432 20 -416 813 0
-56 -306 -189 814 0
478 30 -60 815 0
280 409 -182 816 0
-262 489 376 817 0
395 -107 -396 818 0
192 -305 283 819 0
304 -454 -181 820 0
236 -343 163 821 0
404 -335 -352 822 0
170 373 192 823 0
115 -409 450 824 0
-396 488 -407 825 0
370 -390 -250 826 0
-67 187 -460 827 0
22 345 82 828 0
344 208 4 829 0
-498 228 -60 830 0
-464 -432 -424 831 0
-68 -16 51 832 0
413 361 24 833 0
-131 354 473 834 0
-20 -147 -434 835 0
-215 -125 301 836 0
-169 376 -72 837 0
485 254 -143 838 0
275 -389 17 839 0
25 -181 -321 840 0
304 169 -34 841 0
443 344 -69 842 0
-249 90 -283 843 0
-182 73 -239 844 0
57 411 227 845 0
114 -247 -296 846 0
-241 499 353 847 0
-240 -141 181 848 0
249 158 -378 849 0
392 -431 -437 850 0
436 -403 404 851 0
-372 -257 117 852 0
444 212 -256 853 0
-253 -424 -64 854 0
-226 282 259 855 0
312 -393 -351 856 0
-134 -500 410 857 0
-52 222 -57 858 0
445 -264 -309 859 0
246 163 23 860 0
175 -125 48 861 0
-127 422 -250 862 0
-156 -77 184 863 0
-130 14 -409 864 0
194 -432 476 865 0
493 -339 -146 866 0
-275 -440 -129 867 0
-208 -48 347 868 0
-42 -475 -407 869 0
126 391 -351 870 0
256 86 346 871 0
344 -130 -241 872 0
258 -125 -476 873 0
-118 98 -456 874 0
-324 -89 79 875 0
273 123 67 876 0
-250 -99 -215 877 0
-469 17 454 878 0
192 -55 -453 879 0
-56 -243 205 880 0
20 -137 -403 881 0
315 84 363 882 0
234 105 -266 883 0
-254 -275 486 884 0
-408 -269 -144 885 0
-275 -200 -391 886 0
287 -257 394 887 0
-253 443 277 888 0
-269 459 -6 889 0
-98 163 52 890 0
286 -285 377 891 0
-355 285 14 892 0
-46 20 433 893 0
-91 384 271 894 0
470 38 -81 895 0
-243 -94 -312 896 0
-214 447 237 897 0
102 -50 -162 898 0
179 420 129 899 0
64 -298 84 900 0
235 -89 205 901 0
44 362 255 902 0
455 303 267 903 0
440 -335 -23 904 0
-367 -121 342 905 0
-173 358 -216 906 0
-188 216 210 907 0
418 -139 437 908 0
237 -46 -370 909 0
-215 -316 474 910 0
-34 353 115 911 0
474 -70 -463 912 0
-325 -383 -308 913 0
350 53 56 914 0
485 221 -493 915 0
431 -439 -149 916 0
168 -5 -462 917 0
-208 -246 14 918 0
105 142 -420 919 0
-129 361 -238 920 0
-456 163 -90 921 0
-471 147 -245 922 0
499 -463 291 923 0
-11 -61 326 924 0
-446 -125 -75 925 0
-89 51 391 926 0
134 -329 -271 927 0
285 429 318 928 0
385 -1 -198 929 0
-87 -206 -180 930 0
-147 138 -310 931 0
-483 436 -472 932 0
494 244 66 933 0
62 -189 -192 934 0
261 -447 359 935 0
-450 158 115 936 0
-5 -248 25 937 0
-129 10 -184 938 0
41 -176 188 939 0
304 -121 -284 940 0
443 275 480 941 0
-444 -269 75 942 0
-329 46 487 943 0
-105 -325 -351 944 0
15 209 22 945 0
161 426 -71 946 0
-116 184 -128 947 0
-381 -285 -159 948 0
321 -4 2 949 0
246 -459 -243 950 0
-152 271 -288 951 0
-91 -146 24 952 0
306 -223 70 953 0
-417 383 210 954 0
318 197 362 955 0
268 80 -177 956 0
466 108 351 957 0
-106 -353 -41 958 0
-158 -466 -476 959 0
395 443 -227 960 0
-23 366 -356 961 0
316 410 409 962 0
304 -141 402 963 0
254 182 -90 964 0
-143 35 236 965 0
-491 382 492 966 0
258 9 -250 967 0
-434 -145 -199 968 0
116 -259 422 969 0
11 -420 -73 970 0
457 221 -178 971 0
81 333 457 972 0
-226 -211 195 973 0
-422 24 367 974 0
-240 -157 328 975 0
225 -104 -94 976 0
366 458 -201 977 0
-33 131 219 978 0
-428 88 -8 979 0
32 -330 343 980 0
-394 68 -236 981 0
440 -365 263 982 0
-443 -392 -164 983 0
-186 23 -178 984 0
281 -304 48 985 0
-329 -416 -333 986 0
-49 -418 404 987 0
-267 192 -198 988 0
-439 -333 -408 989 0
-172 436 -250 990 0
-222 117 496 991 0
16 -479 -255 992 0
145 -170 -495 993 0
323 298 327 994 0
-234 -36 137 995 0
413 83 -467 996 0
-372 137 -1 997 0
-313 -38 -289 998 0
-371 345 -103 999 0
-470 -404 58 1000 0
-415 12 -46 1001 0
94 9 -166 1002 0
424 152 20 1003 0
21 -270 1 1004 0
-81 225 309 1005 0
-468 -453 143 1006 0
-369 -50 -54 1007 0
265 -244 139 1008 0
-334 59 -447 1009 0
225 7 398 1010 0
-192 -21 194 1011 0
-10 -299 442 1012 0
334 -62 176 1013 0
-192 243 -449 1014 0
310 -276 7 1015 0
-310 41 66 1016 0
-10 -175 -359 1017 0
-135 -480 289 1018 0
23 -415 -434 1019 0
201 -342 387 1020 0
-157 124 118 1021 0
259 -296 45 1022 0
67 -347 -146 1023 0
13 -254 -331 1024 0
-315 -216 -392 1025 0
-500 310 -455 1026 0
-433 -205 213 1027 0
259 398 -79 1028 0
-376 -101 -346 1029 0
24 82 -367 1030 0
-131 480 199 1031 0
-383 72 -387 1032 0
-206 -72 -114 1033 0
89 -315 -312 1034 0
-268 156 442 1035 0
299 -427 -357 1036 0
425 311 277 1037 0
407 26 -157 1038 0
453 294 263 1039 0
-280 179 407 1040 0
146 148 108 1041 0
465 295 67 1042 0
34 -381 50 1043 0
-148 467 76 1044 0
327 174 -250 1045 0
-18 287 -227 1046 0
40 -430 -47 1047 0
-95 20 -71 1048 0
-211 -142 -266 1049 0
-16 191 304 1050 0
-451 -96 229 1051 0
372 303 497 1052 0
-456 -197 61 1053 0
255 -407 49 1054 0
63 176 281 1055 0
17 -300 370 1056 0
-258 40 492 1057 0
25 -26 304 1058 0
209 357 -479 1059 0
-78 -268 -253 1060 0
452 229 -333 1061 0
423 262 321 1062 0
-131 -200 408 1063 0
447 -210 162 1064 0
-2 8 278 1065 0
262 -337 -182 1066 0
118 -200 -453 1067 0
-490 -398 -468 1068 0
377 2 -329 1069 0
-203 -449 136 1070 0
93 -341 373 1071 0
229 277 212 1072 0
-452 -435 473 1073 0
-457 227 331 1074 0
-357 315 145 1075 0
-191 376 233 1076 0
-346 359 -293 1077 0
261 481 476 1078 0
-498 356 -131 1079 0
242 47 -125 1080 0
-140 -138 -490 1081 0
-211 169 -342 1082 0
-85 -465 165 1083 0
33 389 -300 1084 0
59 145 181 1085 0
-134 170 188 1086 0
316 -242 -466 1087 0
-449 358 321 1088 0
-89 87 -124 1089 0
372 -404 -32 1090 0
152 -285 191 1091 0
463 238 -31 1092 0
-372 -162 366 1093 0
-386 -485 -358 1094 0
291 412 -300 1095 0
485 412 -157 1096 0
-78 -206 -87 1097 0
343 53 -143 1098 0
401 76 -132 1099 0
-401 -179 365 1100 0
-467 -25 310 1101 0
-172 -170 -472 1102 0
233 222 -201 1103 0
483 -217 462 1104 0
-336 -7 51 1105 0
434 -147 -169 1106 0
-9 -292 54 1107 0
-377 418 -26 1108 0
-340 444 -440 1109 0
-293 313 -97 1110 0
-358 -210 -356 1111 0
-325 -310 482 1112 0
-437 111 -73 1113 0
-265 -143 201 1114 0
-244 -362 62 1115 0
-256 232 311 1116 0
131 -188 399 1117 0
-120 -114 -179 1118 0
-332 -65 -233 1119 0
-6 -90 -346 1120 0
-352 -312 176 1121 0
-141 451 194 1122 0
16 -457 -41 1123 0
370 488 167 1124 0
-464 -389 -186 1125 0
-247 -198 -71 1126 0
-168 -477 -430 1127 0
-237 -430 113 1128 0
297 -208 142 1129 0
431 -418 414 1130 0
5 400 -472 1131 0
469 410 163 1132 0
-338 -87 73 1133 0
381 -187 97 1134 0
-362 298 -44 1135 0
340 -372 -250 1136 0
207 -80 34 1137 0
451 403 286 1138 0
412 468 -416 1139 0
-184 413 87 1140 0
232 -27 467 1141 0
-361 -112 18 1142 0
184 178 360 1143 0
465 414 496 1144 0
-101 -64 364 1145 0
52 256 17 1146 0
1 -131 -143 1147 0
-262 -33 63 1148 0
-259 -465 310 1149 0
-104 -129 -220 1150 0
462 -289 -137 1151 0
-100 487 -242 1152 0
169 272 166 1153 0
-322 -266 -354 1154 0
-184 323 -108 1155 0
-233 -292 -247 1156 0
-112 -336 -256 1157 0
-490 -112 -348 1158 0
-34 -233 -321 1159 0
370 328 118 1160 0
-192 328 72 1161 0
-56 -33 397 1162 0
-411 -94 475 1163 0
112 418 -346 1164 0
-489 76 462 1165 0
-431 -303 478 1166 0
466 -233 11 1167 0
498 162 319 1168 0
205 -312 122 1169 0
-267 270 -274 1170 0
-285 87 -224 1171 0
485 -437 -229 1172 0
273 -249 105 1173 0
233 -385 179 1174 0
-70 431 -380 1175 0
298 189 -349 1176 0
-118 468 -326 1177 0
-107 459 -237 1178 0
-175 -468 -75 1179 0
-314 300 439 1180 0
-361 -50 -25 1181 0
442 105 491 1182 0
-193 30 391 1183 0
51 -90 -483 1184 0
334 -218 198 1185 0
317 -277 -72 1186 0
334 -195 -205 1187 0
59 -365 271 1188 0
156 -320 -247 1189 0
370 -62 -104 1190 0
-377 370 80 1191 0
-98 483 126 1192 0
-335 -71 84 1193 0
356 -314 -244 1194 0
-288 -119 153 1195 0
280 -430 475 1196 0
28 -139 182 1197 0
-497 -382 359 1198 0
387 251 285 1199 0
-228 -196 -294 1200 0
266 -364 30 1201 0
-360 -275 -294 1202 0
211 -181 -59 1203 0
423 455 397 1204 0
68 -144 135 1205 0
-224 -494 156 1206 0
-455 234 -39 1207 0
280 251 38 1208 0
46 -320 -331 1209 0
340 -194 93 1210 0
136 -51 203 1211 0
-494 -100 -462 1212 0
-57 -470 -170 1213 0
-29 -439 7 1214 0
-301 217 428 1215 0
-230 -46 -85 1216 0
-446 324 205 1217 0
-107 -27 -405 1218 0
218 313 -82 1219 0
-14 197 -238 1220 0
-250 346 -295 1221 0
-69 -443 51 1222 0
-239 105 -441 1223 0
-232 115 -213 1224 0
47 93 -350 1225 0
412 51 -176 1226 0
265 -69 -230 1227 0
233 -160 -200 1228 0
-280 121 453 1229 0
121 -191 467 1230 0
-29 -160 -3 1231 0
-488 -135 362 1232 0
266 -487 81 1233 0
-336 -15 -265 1234 0
116 197 2 1235 0
-272 345 20 1236 0
-232 -172 122 1237 0
-258 63 300 1238 0
308 153 344 1239 0
42 259 285 1240 0
-120 -325 34 1241 0
-90 384 450 1242 0
184 347 -96 1243 0
-202 212 -203 1244 0
500 283 290 1245 0
-343 -266 350 1246 0
-408 373 -282 1247 0
-136 -62 -423 1248 0
-328 -273 -127 1249 0
-224 -392 82 1250 0
471 312 349 1251 0
356 162 -340 1252 0
-454 -297 -255 1253 0
70 327 359 1254 0
-476 -478 -56 1255 0
-12 257 -70 1256 0
193 77 489 1257 0
-411 358 -194 1258 0
-262 129 -290 1259 0
-186 471 154 1260 0
-405 -41 -6 1261 0
-88 -226 -176 1262 0
-351 56 -33 1263 0
206 -74 -56 1264 0
-302 301 -319 1265 0
-101 -339 -327 1266 0
183 472 399 1267 0
-419 275 -95 1268 0
393 -288 -210 1269 0
-115 157 276 1270 0
-472 -173 -27 1271 0
307 -204 375 1272 0
-110 222 385 1273 0
420 177 -262 1274 0
13 449 9 1275 0
43 34 -120 1276 0
-296 486 -123 1277 0
264 -493 -198 1278 0
466 -97 222 1279 0
-60 -343 112 1280 0
-56 -330 -320 1281 0
-413 -365 -393 1282 0
-342 -416 -275 1283 0
273 443 250 1284 0
-83 50 -490 1285 0
-227 -97 156 1286 0
-451 -298 260 1287 0
226 396 -58 1288 0
-44 -454 -463 1289 0
418 237 -42 1290 0
196 -139 -290 1291 0
-367 -173 -222 1292 0
87 23 -133 1293 0
125 45 203 1294 0
-231 172 -118 1295 0
-266 -447 429 1296 0
326 359 430 1297 0
-93 49 55 1298 0
-433 -372 208 1299 0
-167 -436 208 1300 0
92 139 -417 1301 0
444 -148 71 1302 0
-304 -243 -231 1303 0
432 -85 -388 1304 0
-95 379 -243 1305 0
-146 -422 -398 1306 0
15 -235 233 1307 0
-193 -60 -285 1308 0
218 -188 385 1309 0
181 -70 -489 1310 0
26 -101 264 1311 0
-253 -287 106 1312 0
-393 -308 -222 1313 0
-443 -249 -368 1314 0
-60 309 433 1315 0
11 482 -33 1316 0
-58 -114 121 1317 0
-294 260 471 1318 0
-92 126 -121 1319 0
271 212 -97 1320 0
129 396 48 1321 0
-117 -101 -186 1322 0
200 363 -104 1323 0
-443 29 417 1324 0
454 413 -18 1325 0
300 -485 -453 1326 0
183 -171 34 1327 0
225 -119 126 1328 0
293 -256 -63 1329 0
117 359 58 1330 0
347 61 29 1331 0
139 -351 126 1332 0
-1 -438 143 1333 0
-421 213 -18 1334 0
-292 177 -264 1335 0
336 -479 -138 1336 0
279 5 315 1337 0
-473 269 216 1338 0
-381 80 -259 1339 0
5 115 -217 1340 0
169 216 277 1341 0
428 -198 376 1342 0
310 -81 68 1343 0
490 345 -447 1344 0
270 490 -320 1345 0
274 438 -113 1346 0
62 -67 299 1347 0
-407 -250 -70 1348 0
430 348 369 1349 0
438 -233 -120 1350 0
-114 -415 -287 1351 0
51 -107 -49 1352 0
-484 208 479 1353 0
-114 424 -359 1354 0
-390 366 348 1355 0
-110 52 -197 1356 0
-429 -217 -482 1357 0
-395 -80 253 1358 0
-244 -317 -472 1359 0
450 189 -44 1360 0
-440 277 295 1361 0
97 -477 50 1362 0
-416 -167 77 1363 0
-397 -425 -124 1364 0
445 -180 60 1365 0
-470 -65 182 1366 0
-62 -372 73 1367 0
44 366 -353 1368 0
-62 -372 452 1369 0
-189 -358 259 1370 0
-238 -180 118 1371 0
-34 -383 -344 1372 0
300 -315 -45 1373 0
-69 -130 -432 1374 0
222 414 -225 1375 0
-23 -486 -306 1376 0
131 486 -158 1377 0
-198 376 -261 1378 0
-482 -283 55 1379 0
-325 458 -388 1380 0
-305 -215 -386 1381 0
311 -4 -138 1382 0
440 -414 -295 1383 0
325 4 268 1384 0
303 -311 274 1385 0
-471 -359 213 1386 0
-37 -405 -309 1387 0
-476 109 -233 1388 0
135 -417 -15 1389 0
108 265 -367 1390 0
204 -429 -314 1391 0
-105 150 277 1392 0
-46 314 -308 1393 0
-105 130 -469 1394 0
-129 426 -398 1395 0
-138 82 -279 1396 0
158 57 399 1397 0
174 -179 128 1398 0
-491 32 -386 1399 0
399 34 -193 1400 0
498 90 -416 1401 0
260 -154 -11 1402 0
-31 -394 -235 1403 0
-115 -85 -373 1404 0
323 -61 372 1405 0
-142 -9 166 1406 0
-386 111 92 1407 0
-263 -364 -37 1408 0
-3 -220 -485 1409 0
-408 347 -303 1410 0
-166 -223 410 1411 0
-185 -44 -178 1412 0
-183 -98 -21 1413 0
337 -228 170 1414 0
-447 -342 434 1415 0
-240 163 -393 1416 0
198 -453 -339 1417 0
-88 -436 -367 1418 0
462 -256 109 1419 0
89 -266 477 1420 0
172 415 113 1421 0
84 126 -338 1422 0
-25 -456 -309 1423 0
8 -39 288 1424 0
116 -62 -235 1425 0
-270 -449 -316 1426 0
161 -457 134 1427 0
-473 177 100 1428 0
8 -200 311 1429 0
311 285 -362 1430 0
-186 -119 203 1431 0
-302 97 -268 1432 0
447 375 -448 1433 0
-165 368 10 1434 0
187 432 290 1435 0
170 -81 391 1436 0
73 -353 -280 1437 0
42 -237 128 1438 0
196 176 493 1439 0
156 -172 -407 1440 0
-334 -271 464 1441 0
461 490 -475 1442 0
-257 380 -233 1443 0
421 -316 404 1444 0
457 -345 -233 1445 0
22 83 -358 1446 0
-412 312 -483 1447 0
-275 -383 63 1448 0
455 452 -368 1449 0
145 279 -49 1450 0
-72 257 453 1451 0
-361 -423 -262 1452 0
79 -415 -493 1453 0
401 51 -115 1454 0
388 188 120 1455 0
-358 -292 -367 1456 0
381 222 -260 1457 0
-113 -452 -94 1458 0
-414 -444 -464 1459 0
-442 -385 -161 1460 0
-400 -373 -28 1461 0
492 -486 -247 1462 0
261 -251 441 1463 0
87 -410 210 1464 0
-47 221 262 1465 0
-443 -296 -284 1466 0
297 471 218 1467 0
-402 341 268 1468 0
-117 -455 178 1469 0
-229 -187 -312 1470 0
-465 -357 86 1471 0
189 482 -214 1472 0
100 -145 -471 1473 0
234 -251 -36 1474 0
-371 2 -233 1475 0
-352 219 455 1476 0
-182 -19 375 1477 0
68 158 -22 1478 0
360 12 103 1479 0
123 336 -190 1480 0
-427 -197 96 1481 0
219 -151 -179 1482 0
-14 80 359 1483 0
375 -16 -267 1484 0
-484 -219 67 1485 0
24 -186 -162 1486 0
-271 365 -264 1487 0
381 -273 -358 1488 0
171 -325 104 1489 0
118 -399 -249 1490 0
-483 -51 138 1491 0
-117 348 -426 1492 0
-177 -420 -18 1493 0
214 97 -51 1494 0
-168 412 -386 1495 0
487 -35 10 1496 0
-358 165 -28 1497 0
-481 488 -444 1498 0
490 436 228 1499 0
413 282 -363 1500 0
381 14 342 1501 0
138 373 156 1502 0
-203 407 -411 1503 0
351 -263 -122 1504 0
23 -342 167 1505 0
361 380 440 1506 0
79 237 284 1507 0
456 299 -298 1508 0
42 -496 215 1509 0
-221 -484 140 1510 0
33 -211 -453 1511 0
341 -60 170 1512 0
58 220 496 1513 0
-354 174 112 1514 0
199 -352 -184 1515 0
-83 -374 11 1516 0
-234 187 -260 1517 0
468 -75 -258 1518 0
-346 -452 4 1519 0
69 -199 461 1520 0
212 261 130 1521 0
150 475 -394 1522 0
38 408 309 1523 0
-83 -151 -470 1524 0
-34 -134 233 1525 0
371 186 449 1526 0
-175 246 -111 1527 0
-421 375 -476 1528 0
197 160 -331 1529 0
349 -420 415 1530 0
271 -60 272 1531 0
253 412 9 1532 0
197 206 -385 1533 0
-24 -20 -228 1534 0
74 -440 -40 1535 0
452 186 312 1536 0
-210 88 174 1537 0
455 203 -359 1538 0
143 70 -64 1539 0
-21 -312 62 1540 0
-349 260 31 1541 0
-107 -428 231 1542 0
393 328 -190 1543 0
74 -419 -211 1544 0
290 447 -382 1545 0
233 -232 -181 1546 0
-327 40 -385 1547 0
377 -35 223 1548 0
213 74 265 1549 0
147 217 498 1550 0
15 -257 -369 1551 0
-7 40 480 1552 0
403 263 395 1553 0
149 53 8 1554 0
341 51 -265 1555 0
-363 446 -11 1556 0
344 -236 464 1557 0
-260 -361 -29 1558 0
-497 61 -57 1559 0
-270 -33 -17 1560 0
-27 119 -34 1561 0
-452 -157 -184 1562 0
286 425 151 1563 0
-207 -415 321 1564 0
408 -446 -228 1565 0
388 163 -104 1566 0
380 -471 395 1567 0
-321 85 376 1568 0
-77 -450 21 1569 0
160 -196 -209 1570 0
-102 436 348 1571 0
274 123 -273 1572 0
423 480 -351 1573 0
130 225 -207 1574 0
194 311 -317 1575 0
-56 -309 -310 1576 0
-202 1 40 1577 0
395 86 -287 1578 0
251 214 310 1579 0
-370 -249 163 1580 0
76 -382 -249 1581 0
369 -351 -405 1582 0
-154 -118 -370 1583 0
386 286 41 1584 0
75 415 165 1585 0
399 -329 -425 1586 0
-227 164 476 1587 0
74 154 -73 1588 0
-460 -248 96 1589 0
-80 -366 397 1590 0
-22 -306 61 1591 0
449 46 -432 1592 0
3 -334 -134 1593 0
311 -259 45 1594 0
-80 104 492 1595 0
-193 330 -313 1596 0
-210 -206 277 1597 0
-341 -443 491 1598 0
199 -336 124 1599 0
-24 301 -106 1600 0
450 -247 -373 1601 0
-95 -298 -120 1602 0
-168 471 316 1603 0
236 -7 205 1604 0
-86 282 -460 1605 0
391 334 449 1606 0
-159 407 462 1607 0
317 314 293 1608 0
-340 305 -236 1609 0
-318 384 -467 1610 0
-140 -219 188 1611 0
251 -10 52 1612 0
-319 53 -78 1613 0
-49 -23 -224 1614 0
-383 66 30 1615 0
-354 316 -120 1616 0
-338 327 365 1617 0
-257 -161 477 1618 0
-111 340 67 1619 0
319 -211 -425 1620 0
60 200 131 1621 0
257 -270 -427 1622 0
450 -472 -221 1623 0
175 -378 -355 1624 0
-447 325 348 1625 0
-152 379 -235 1626 0
-106 386 -255 1627 0
-295 -234 -311 1628 0
-455 -103 -419 1629 0
-150 -369 -237 1630 0
-140 -363 -330 1631 0
488 -479 -189 1632 0
493 329 -347 1633 0
-122 316 242 1634 0
-188 -364 -47 1635 0
143 230 21 1636 0
-197 -161 46 1637 0
280 -480 138 1638 0
-351 -333 177 1639 0
-476 198 -13 1640 0
499 254 431 1641 0
-441 162 -425 1642 0
-238 -45 7 1643 0
-99 182 25 1644 0
23 -278 451 1645 0
-341 -399 -27 1646 0
326 -125 -47 1647 0
42 40 92 1648 0
-153 246 -226 1649 0
67 100 496 1650 0
-260 -163 382 1651 0
53 -313 -90 1652 0
-48 370 -419 1653 0
-277 -484 386 1654 0
-346 -113 162 1655 0
-460 89 -1 1656 0
-280 -400 -215 1657 0
445 -198 171 1658 0
-125 -148 -328 1659 0
-489 -207 -204 1660 0
134 -332 234 1661 0
132 240 -197 1662 0
-214 14 -460 1663 0
336 437 -88 1664 0
312 -290 -492 1665 0
473 -349 362 1666 0
-77 152 189 1667 0
-445 59 -174 1668 0
-45 -281 -222 1669 0
-117 75 -299 1670 0
18 8 -135 1671 0
146 187 -84 1672 0
271 -181 420 1673 0
485 -322 133 1674 0
-257 14 -263 1675 0
-428 299 347 1676 0
-186 223 -4 1677 0
205 -22 -305 1678 0
-95 119 -294 1679 0
77 -384 -81 1680 0
195 -10 226 1681 0
360 303 462 1682 0
42 -500 84 1683 0
-315 -253 373 1684 0
-143 -42 352 1685 0
-217 -74 -451 1686 0
-442 494 1 1687 0
-231 -188 478 1688 0
-344 -254 238 1689 0
-121 -25 227 1690 0
102 -258 -358 1691 0
-384 -408 465 1692 0
-302 289 385 1693 0
-380 265 -16 1694 0
-145 221 -223 1695 0
213 220 320 1696 0
-148 -59 116 1697 0
-480 -392 -155 1698 0
8 -37 335 1699 0
47 55 -68 1700 0
55 -137 120 1701 0
-348 -346 -464 1702 0
148 -284 -271 1703 0
-462 14 396 1704 0
161 -102 -31 1705 0
-473 -158 194 1706 0
-479 429 37 1707 0
-120 250 395 1708 0
13 -482 -475 1709 0
320 367 464 1710 0
293 115 -97 1711 0
-339 149 -105 1712 0
202 -402 -405 1713 0
335 28 -250 1714 0
4 302 190 1715 0
443 -411 -210 1716 0
-34 240 -164 1717 0
466 113 -382 1718 0
-312 -256 -161 1719 0
443 -124 -142 1720 0
-483 -297 -141 1721 0
-193 15 -311 1722 0
-273 -424 422 1723 0
-84 358 -139 1724 0
203 -386 325 1725 0
365 316 141 1726 0
-294 27 -166 1727 0
192 3 462 1728 0
-333 229 -281 1729 0
424 -51 -173 1730 0
-382 424 165 1731 0
191 -193 -8 1732 0
201 -237 414 1733 0
-105 241 -84 1734 0
-458 -103 -187 1735 0
-239 -414 -301 1736 0
408 142 127 1737 0
118 423 -461 1738 0
-458 119 469 1739 0
298 -170 -296 1740 0
94 419 154 1741 0
-381 -168 237 1742 0
195 -44 -327 1743 0
-458 -102 3 1744 0
-139 183 -303 1745 0
-340 57 178 1746 0
-294 129 -57 1747 0
-442 232 -246 1748 0
146 -410 -351 1749 0
-389 -435 22 1750 0
129 -14 -92 1751 0
-353 304 -244 1752 0
375 -373 476 1753 0
-131 399 -144 1754 0
223 -498 -72 1755 0
116 -346 -206 1756 0
291 -399 361 1757 0
357 336 328 1758 0
236 -284 -192 1759 0
-88 25 -467 1760 0
-32 -84 -245 1761 0
112 -443 -410 1762 0
-169 -259 84 1763 0
-446 221 314 1764 0
-142 -410 279 1765 0
-237 285 485 1766 0
317 -409 238 1767 0
217 -479 -16 1768 0
-321 -35 -23 1769 0
-271 -252 25 1770 0
274 282 -393 1771 0
299 39 337 1772 0
-387 300 -289 1773 0
-6 -34 -64 1774 0
293 -291 -212 1775 0
-82 159 269 1776 0
-164 359 -146 1777 0
133 463 -354 1778 0
-266 -411 153 1779 0
-451 90 -236 1780 0
210 295 -474 1781 0
-289 -402 63 1782 0
390 193 -140 1783 0
411 -379 407 1784 0
470 252 72 1785 0
-110 212 -67 1786 0
-29 362 -342 1787 0
-321 -222 -323 1788 0
-279 290 -70 1789 0
-181 220 -228 1790 0
326 -355 457 1791 0
392 -206 -118 1792 0
-117 82 -242 1793 0
-66 -256 -346 1794 0
329 149 -232 1795 0
-150 -102 -197 1796 0
218 393 6 1797 0
309 -27 124 1798 0
483 174 216 1799 0
-27 410 306 1800 0
-489 -495 249 1801 0
-403 -451 -35 1802 0
400 -184 440 1803 0
-95 279 226 1804 0
233 53 -262 1805 0
-279 308 -258 1806 0
-24 -333 -283 1807 0
362 333 304 1808 0
-500 -193 179 1809 0
327 -415 -150 1810 0
-101 -260 19 1811 0
-229 119 220 1812 0
84 -312 -315 1813 0
77 1 -500 1814 0
467 72 -187 1815 0
-128 -425 -60 1816 0
374 -437 -365 1817 0
-400 236 -5 1818 0
183 -281 -411 1819 0
15 57 376 1820 0
318 133 440 1821 0
-109 -195 39 1822 0
186 137 -160 1823 0
271 -114 -283 1824 0
457 -345 -181 1825 0
-349 9 -486 1826 0
-410 362 9 1827 0
288 -152 -333 1828 0
-371 167 311 1829 0
-253 88 430 1830 0
-426 97 205 1831 0
-277 -21 302 1832 0
240 -35 -57 1833 0
324 73 111 1834 0
-420 -78 367 1835 0
-400 -124 -134 1836 0
-181 330 21 1837 0
-234 -339 306 1838 0
21 -132 -62 1839 0
-115 475 299 1840 0
-189 207 -350 1841 0
-217 42 -148 1842 0
-274 -35 116 1843 0
184 214 34 1844 0
185 480 336 1845 0
100 -145 -441 1846 0
338 185 353 1847 0
121 -132 349 1848 0
-353 -2 -339 1849 0
82 13 328 1850 0
244 29 -121 1851 0
313 -357 -144 1852 0
126 -340 99 1853 0
-339 389 246 1854 0
-339 -2 -163 1855 0
192 78 99 1856 0
220 154 294 1857 0
-463 -224 203 1858 0
-155 359 229 1859 0
314 239 432 1860 0
-147 434 -263 1861 0
326 -226 -312 1862 0
52 33 126 1863 0
333 -409 -37 1864 0
-224 95 88 1865 0
-350 120 311 1866 0
256 -376 -59 1867 0
384 -380 -378 1868 0
-430 -39 -425 1869 0
-213 -328 184 1870 0
156 222 425 1871 0
361 469 -172 1872 0
-139 -467 7 1873 0
417 275 -466 1874 0
-42 -360 -207 1875 0
-167 79 113 1876 0
-397 105 -115 1877 0
155 -270 144 1878 0
-168 94 478 1879 0
-278 478 -30 1880 0
137 86 318 1881 0
169 439 -52 1882 0
-498 490 -439 1883 0
175 -262 -225 1884 0
-56 -256 88 1885 0
-311 222 -434 1886 0
-63 -445 -274 1887 0
-80 455 -473 1888 0
419 -484 178 1889 0
1 -409 -152 1890 0
53 406 -311 1891 0
-111 147 -144 1892 0
-268 -184 -183 1893 0
-285 -184 274 1894 0
123 -350 -487 1895 0
-170 -398 -125 1896 0
-353 -16 -454 1897 0
249 173 -499 1898 0
-433 500 -296 1899 0
-49 312 -40 1900 0
201 229 -405 1901 0
284 434 -262 1902 0
15 -177 -231 1903 0
475 13 389 1904 0
-84 42 444 1905 0
133 440 -405 1906 0
-256 -437 163 1907 0
159 -435 -290 1908 0
88 167 144 1909 0
249 -1 163 1910 0
-249 -482 60 1911 0
-289 -19 395 1912 0
168 35 -171 1913 0
423 -431 -173 1914 0
475 -248 68 1915 0
410 -18 -389 1916 0
-276 47 243 1917 0
372 39 354 1918 0
-88 339 404 1919 0
109 -339 461 1920 0
-114 401 456 1921 0
291 -299 139 1922 0
40 314 474 1923 0
-205 367 -230 1924 0
15 390 392 1925 0
-408 -202 458 1926 0
-148 -132 -211 1927 0
-481 -420 324 1928 0
-311 445 80 1929 0
184 236 148 1930 0
-71 -122 102 1931 0
-342 338 -159 1932 0
202 -416 -54 1933 0
218 458 405 1934 0
162 -284 476 1935 0
415 -87 -233 1936 0
115 129 331 1937 0
-345 -357 -379 1938 0
449 311 44 1939 0
133 -99 208 1940 0
-231 430 -248 1941 0
167 402 -489 1942 0
-423 -290 366 1943 0
475 59 -485 1944 0
-463 -356 264 1945 0
465 101 -434 1946 0
-76 -158 -282 1947 0
496 -407 -398 1948 0
-244 394 301 1949 0
269 365 -96 1950 0
-327 -313 -336 1951 0
404 -34 166 1952 0
-227 -75 113 1953 0
-246 376 -62 1954 0
62 -11 188 1955 0
-412 -109 42 1956 0
409 -193 494 1957 0
-151 419 -148 1958 0
231 -297 224 1959 0
100 392 318 1960 0
-100 311 -482 1961 0
-145 199 -35 1962 0
-483 -358 -462 1963 0
183 -404 111 1964 0
351 -371 425 1965 0
-436 85 392 1966 0
314 149 385 1967 0
-256 -274 243 1968 0
455 268 164 1969 0
-44 -46 -39 1970 0
359 123 -251 1971 0
-418 -310 185 1972 0
-211 -10 -77 1973 0
484 -263 110 1974 0
228 -370 357 1975 0
-30 109 -336 1976 0
62 -43 6 1977 0
123 -105 -482 1978 0
321 256 -125 1979 0
-371 8 199 1980 0
-224 483 -198 1981 0
139 -217 -20 1982 0
-14 -25 138 1983 0
145 -390 -27 1984 0
362 -70 -165 1985 0
-63 -198 407 1986 0
-300 254 -436 1987 0
382 -187 389 1988 0
-160 -94 351 1989 0
20 -451 -33 1990 0
367 -73 246 1991 0
290 -454 -114 1992 0
235 -108 -139 1993 0
-101 321 -224 1994 0
-79 -211 270 1995 0
-336 333 395 1996 0
-218 -142 -320 1997 0
377 -65 183 1998 0
-93 -202 -396 1999 0
-479 -489 15 2000 0
392 204 -46 2001 0
110 401 -28 2002 0
488 -439 402 2003 0
-85 103 -192 2004 0
372 -427 -386 2005 0
-334 -7 86 2006 0
146 -41 -406 2007 0
157 218 500 2008 0
44 -186 193 2009 0
-442 393 455 2010 0
-395 19 74 2011 0
384 -280 344 2012 0
-322 407 286 2013 0
-139 -280 24 2014 0
-459 379 234 2015 0
-367 433 -96 2016 0
211 -341 266 2017 0
416 -413 -407 2018 0
-249 273 -226 2019 0
392 -274 84 2020 0
2 330 -83 2021 0
428 101 399 2022 0
-401 -416 216 2023 0
41 -402 305 2024 0
-468 304 -263 2025 0
12 -184 38 2026 0
351 247 14 2027 0
-197 4 301 2028 0
-473 -421 -171 2029 0
-235 71 317 2030 0
225 31 199 2031 0
106 -451 -500 2032 0
331 439 264 2033 0
-168 344 -311 2034 0
206 189 104 2035 0
-398 -56 -204 2036 0
217 -483 -206 2037 0
-116 -163 33 2038 0
148 70 -389 2039 0
376 -490 -321 2040 0
-52 184 155 2041 0
-256 357 13 2042 0
-146 -83 326 2043 0
454 -155 483 2044 0
-127 -202 -471 2045 0
488 290 24 2046 0
-211 -333 42 2047 0
146 182 -283 2048 0
-287 -238 -419 2049 0
166 -106 351 2050 0
369 -78 -205 2051 0
500 409 226 2052 0
367 259 322 2053 0
255 -436 -333 2054 0
125 97 -53 2055 0
-303 306 203 2056 0
291 -471 181 2057 0
67 234 -97 2058 0
443 224 360 2059 0
351 -90 149 2060 0
-91 -412 222 2061 0
121 -462 -372 2062 0
122 -138 123 2063 0
-198 423 442 2064 0
-37 484 -57 2065 0
-465 -281 449 2066 0
477 442 -346 2067 0
489 203 170 2068 0
-94 -387 -463 2069 0
-441 270 124 2070 0
-203 394 -254 2071 0
281 -62 391 2072 0
-184 -41 -276 2073 0
-401 -113 -233 2074 0
241 235 266 2075 0
-129 -51 322 2076 0
-147 -308 223 2077 0
-300 273 148 2078 0
-493 -439 -40 2079 0
-258 488 250 2080 0
-237 333 -76 2081 0
-422 -491 89 2082 0
-119 371 -479 2083 0
-150 450 -65 2084 0
495 412 283 2085 0
-349 -404 -124 2086 0
-74 -490 -72 2087 0
56 -407 -352 2088 0
-369 173 -94 2089 0
431 30 457 2090 0
13 219 -291 2091 0
479 298 66 2092 0
-37 452 412 2093 0
271 313 90 2094 0
-38 90 176 2095 0
-373 37 -24 2096 0
-160 -423 12 2097 0
278 -6 128 2098 0
-433 -453 -2 2099 0
209 60 172 2100 0
163 -241 218 2101 0
-475 186 197 2102 0
-307 292 24 2103 0
357 -40 109 2104 0
188 482 82 2105 0
355 -99 -343 2106 0
277 -487 -437 2107 0
-361 -375 197 2108 0
-387 24 -449 2109 0
15 -365 221 2110 0
447 -331 -150 2111 0
-458 109 -31 2112 0
-61 -213 -181 2113 0
485 -169 472 2114 0
-376 373 -260 2115 0
348 462 469 2116 0
-304 -148 -115 2117 0
-271 226 154 2118 0
-411 -303 399 2119 0
-350 365 -418 2120 0
-317 224 -345 2121 0
205 -484 258 2122 0
-342 -378 -131 2123 0
212 40 349 2124 0
430 407 -403 2125 0
-446 -357 -108 2126 0
49 258 -29 2127 0
-6 281 306 2128 0
-135 -422 -3 2129 0
336 -33 -31 2130 0
-283 -93 -97 2131 0
-169 -217 -155 2132 0
6 -455 445 2133 0
382 130 135 2134 0
-480 -133 -357 2135 0
-113 206 -147 2136 0
-500 373 -412 2137 0
-382 -464 39 2138 0
-128 -144 229 2139 0
210 396 -392 2140 0
409 144 -437 2141 0
-377 -133 112 2142 0
-99 -147 17 2143 0
-98 18 147 2144 0
418 -306 -363 2145 0
121 403 -298 2146 0
12 336 499 2147 0
98 -291 -459 2148 0
310 112 388 2149 0
150 44 -383 2150 0
197 383 209 2151 0
351 422 14 2152 0
-41 -231 -127 2153 0
-81 -404 452 2154 0
18 -205 -145 2155 0
32 -287 -152 2156 0
184 111 -46 2157 0
-345 -50 351 2158 0
468 345 -417 2159 0
-133 326 -159 2160 0
338 58 -126 2161 0
59 -53 -68 2162 0
244 73 154 2163 0
104 -29 171 2164 0
-62 423 -239 2165 0
293 225 -310 2166 0
-58 298 -497 2167 0
-205 -486 95 2168 0
-197 187 247 2169 0
-308 264 -493 2170 0
-267 -459 133 2171 0
-202 -43 73 2172 0
-118 413 -123 2173 0
224 -64 -241 2174 0
414 -261 -3 2175 0
439 158 335 2176 0
438 -416 103 2177 0
-197 43 35 2178 0
-90 238 -263 2179 0
86 280 -496 2180 0
473 477 332 2181 0
448 -66 -362 2182 0
205 478 -30 2183 0
390 266 164 2184 0
58 -86 62 2185 0
-276 416 196 2186 0
120 -495 64 2187 0
1 -453 91 2188 0
-67 426 224 2189 0
193 313 66 2190 0
359 -170 -420 2191 0
141 -258 -470 2192 0
69 2 -264 2193 0
109 102 -413 2194 0
-234 387 -153 2195 0
-141 -166 -385 2196 0
380 -92 -222 2197 0
412 316 -24 2198 0
194 -162 256 2199 0
159 308 427 2200 0
-196 -283 241 2201 0
-409 -62 55 2202 0
-238 -460 317 2203 0
-65 3 120 2204 0
19 -266 -473 2205 0
75 -6 -256 2206 0
200 492 -192 2207 0
431 -208 -240 2208 0
-288 307 497 2209 0
-194 149 64 2210 0
387 -173 -252 2211 0
18 -337 308 2212 0
371 116 -97 2213 0
491 131 -22 2214 0
439 -294 -39 2215 0
-365 214 157 2216 0
-491 -382 107 2217 0
110 -395 484 2218 0
-329 411 -278 2219 0
431 48 259 2220 0
208 6 -76 2221 0
205 35 463 2222 0
124 151 -76 2223 0
-474 -52 170 2224 0
451 -41 476 2225 0
-441 235 420 2226 0
-211 -287 110 2227 0
117 114 318 2228 0
284 72 81 2229 0
-451 148 -139 2230 0
-211 172 118 2231 0
-476 -459 157 2232 0
468 371 -65 2233 0
-326 -256 -160 2234 0
485 -133 -254 2235 0
70 118 46 2236 0
-358 -450 -133 2237 0
-415 238 -24 2238 0
66 -52 93 2239 0
302 47 -341 2240 0
411 -154 281 2241 0
-192 499 -268 2242 0
76 10 35 2243 0
237 -386 249 2244 0
271 -210 -359 2245 0
314 -93 -273 2246 0
-88 -469 -414 2247 0
-244 -452 -273 2248 0
-216 61 -89 2249 0
-489 -173 34 2250 0
359 425 -20 2251 0
46 216 407 2252 0
-269 271 -449 2253 0
216 -474 -382 2254 0
430 -59 146 2255 0
433 -256 424 2256 0
306 -387 65 2257 0
-340 -76 -400 2258 0
-94 215 -342 2259 0
-425 270 462 2260 0
-497 472 361 2261 0
-210 11 -403 2262 0
62 84 295 2263 0
197 450 262 2264 0
305 -272 -359 2265 0
49 -45 -170 2266 0
-454 -95 -464 2267 0
228 -186 250 2268 0
50 -500 238 2269 0
169 -326 -212 2270 0
372 149 382 2271 0
418 -116 117 2272 0
402 -346 37 2273 0
-377 -126 -352 2274 0
47 -412 -393 2275 0
-309 200 -24 2276 0
370 343 455 2277 0
-316 -450 233 2278 0
487 -72 427 2279 0
454 -480 -313 2280 0
-327 -372 277 2281 0
267 -120 476 2282 0
139 -205 195 2283 0
-184 457 -145 2284 0
212 -68 -238 2285 0
-125 -246 -465 2286 0
404 -152 -79 2287 0
64 386 -50 2288 0
-379 96 226 2289 0
399 -52 -391 2290 0
336 -167 -48 2291 0
-129 194 126 2292 0
379 -401 -430 2293 0
-56 -76 401 2294 0
244 63 408 2295 0
-121 -69 -153 2296 0
-24 128 -347 2297 0
402 66 290 2298 0
-50 -309 -433 2299 0
-260 -371 290 2300 0
298 314 -449 2301 0
-77 -377 463 2302 0
26 -496 -434 2303 0
159 121 -132 2304 0
-332 45 -495 2305 0
381 -462 300 2306 0
-438 -281 400 2307 0
-193 349 93 2308 0
34 267 -147 2309 0
-356 211 231 2310 0
422 384 144 2311 0
234 13 114 2312 0
270 82 374 2313 0
149 36 -488 2314 0
451 54 388 2315 0
388 -189 -425 2316 0
-116 7 496 2317 0
-443 -486 -450 2318 0
430 -65 115 2319 0
105 176 162 2320 0
339 465 59 2321 0
-259 -158 -491 2322 0
-265 27 406 2323 0
467 429 -395 2324 0
-271 -261 88 2325 0
248 -500 -218 2326 0
-188 -377 -346 2327 0
493 124 156 2328 0
-147 -400 -443 2329 0
127 -437 242 2330 0
-396 329 -245 2331 0
329 213 -283 2332 0
151 51 80 2333 0
-168 85 -420 2334 0
397 -446 454 2335 0
376 20 -198 2336 0
-304 -50 -347 2337 0
246 -323 -334 2338 0
-157 414 435 2339 0
109 370 362 2340 0
-256 -469 397 2341 0
-500 -35 19 2342 0
148 -66 136 2343 0
75 126 -461 2344 0
-497 -266 -180 2345 0
-53 -4 -59 2346 0
-25 395 -40 2347 0
323 327 -397 2348 0
173 -189 444 2349 0
-423 -132 88 2350 0
100 -381 -368 2351 0
343 -365 -117 2352 0
361 -474 444 2353 0
-372 -155 315 2354 0
-196 -469 -477 2355 0
-241 181 476 2356 0
261 222 351 2357 0
78 80 184 2358 0
-179 483 -185 2359 0
339 143 -429 2360 0
-240 -357 247 2361 0
240 -187 -488 2362 0
156 -234 -35 2363 0
80 -326 -497 2364 0
-391 -84 239 2365 0
-349 -232 251 2366 0
290 -344 -327 2367 0
233 -459 491 2368 0
321 -332 -108 2369 0
381 -236 367 2370 0
-333 -426 286 2371 0
-477 179 -364 2372 0
-167 205 485 2373 0
-362 46 -177 2374 0
-410 -185 -449 2375 0
215 476 438 2376 0
235 -111 357 2377 0
255 70 -165 2378 0
-344 440 491 2379 0
87 59 -264 2380 0
168 -32 236 2381 0
-334 -172 393 2382 0
384 -480 193 2383 0
298 -359 420 2384 0
-197 374 220 2385 0
-257 166 -150 2386 0
155 447 287 2387 0
-311 273 -486 2388 0
449 -21 163 2389 0
-83 93 330 2390 0
231 168 209 2391 0
-381 -357 229 2392 0
358 186 -415 2393 0
316 -130 371 2394 0
-92 230 222 2395 0
-105 230 174 2396 0
-222 -228 421 2397 0
338 157 173 2398 0
252 -114 403 2399 0
79 -13 349 2400 0
146 -495 -443 2401 0
383 365 -291 2402 0
431 245 -310 2403 0
366 165 -444 2404 0
499 73 -124 2405 0
318 239 129 2406 0
-440 -484 354 2407 0
-145 202 399 2408 0
404 -158 -349 2409 0
-53 -263 295 2410 0
-407 124 -54 2411 0
-495 -312 -107 2412 0
-498 423 -441 2413 0
-150 -188 -169 2414 0
-16 463 -356 2415 0
321 208 -265 2416 0
417 -451 288 2417 0
244 288 42 2418 0
-210 -454 191 2419 0
-5 322 35 2420 0
144 -370 381 2421 0
19 -163 -66 2422 0
293 -423 -345 2423 0
-404 199 -45 2424 0
106 88 417 2425 0
102 -282 -193 2426 0
-56 -434 155 2427 0
-304 -154 -64 2428 0
187 -334 79 2429 0
145 -288 -156 2430 0
490 424 -190 2431 0
-49 478 492 2432 0
-438 443 298 2433 0
447 -411 142 2434 0
-474 431 151 2435 0
-67 -153 -285 2436 0
-316 36 250 2437 0
-398 -381 210 2438 0
-13 107 28 2439 0
-384 -129 489 2440 0
-246 94 163 2441 0
-204 -88 -97 2442 0
449 302 -21 2443 0
148 61 146 2444 0
173 -340 203 2445 0
-153 43 242 2446 0
35 99 167 2447 0
-219 -186 -465 2448 0
435 -154 340 2449 0
152 90 -396 2450 0
-447 -75 27 2451 0
469 197 -89 2452 0
-62 275 -152 2453 0
425 121 -492 2454 0
428 -296 107 2455 0
-349 -398 -62 2456 0
345 -324 -60 2457 0
299 -400 70 2458 0
273 -131 -492 2459 0
65 -220 473 2460 0
-55 -13 23 2461 0
-348 -364 16 2462 0
38 220 418 2463 0
416 -459 302 2464 0
257 -36 491 2465 0
-450 -387 151 2466 0
-133 157 424 2467 0
432 127 -24 2468 0
-454 -107 189 2469 0
370 -151 315 2470 0
-31 459 76 2471 0
337 -483 291 2472 0
136 383 -213 2473 0
-178 84 61 2474 0
63 160 -73 2475 0
27 -111 -62 2476 0
-404 -119 462 2477 0
210 -92 481 2478 0
133 -359 437 2479 0
-464 411 350 2480 0
497 476 -147 2481 0
381 -17 247 2482 0
367 -107 -6 2483 0
215 103 137 2484 0
278 42 80 2485 0
115 204 349 2486 0
12 308 382 2487 0
-168 -214 -320 2488 0
487 -451 9 2489 0
331 179 129 2490 0
-325 91 -356 2491 0
121 118 -250 2492 0
-288 -221 457 2493 0
-440 -181 395 2494 0
-280 -324 -122 2495 0
-205 -146 429 2496 0
-188 -46 -360 2497 0
-492 -251 392 2498 0
-449 201 24 2499 0
-106 282 196 2500 0
-88 234 431 2501 0
-125 67 -104 2502 0
-231 -149 -276 2503 0
29 132 -63 2504 0
245 16 -28 2505 0
401 -303 -172 2506 0
-215 -196 -11 2507 0
-425 -53 314 2508 0
-391 123 283 2509 0
472 -133 46 2510 0
-420 -166 -196 2511 0
-138 465 473 2512 0
244 23 45 2513 0
-85 -158 150 2514 0
137 293 -132 2515 0
-239 -444 253 2516 0
119 127 134 2517 0
390 244 386 2518 0
84 194 247 2519 0
-483 32 -11 2520 0
215 352 137 2521 0
302 -378 -112 2522 0
288 455 492 2523 0
-451 102 -40 2524 0
227 47 -246 2525 0
360 178 -50 2526 0
-129 -487 244 2527 0
241 440 226 2528 0
423 455 -401 2529 0
-430 -447 -420 2530 0
283 267 146 2531 0
319 265 -439 2532 0
35 256 416 2533 0
-377 360 459 2534 0
173 356 -371 2535 0
-69 323 449 2536 0
-160 366 4 2537 0
-93 299 145 2538 0
-346 42 -105 2539 0
-243 383 -168 2540 0
-220 2 -350 2541 0
166 -70 -311 2542 0
-258 -114 -180 2543 0
443 -367 -212 2544 0
151 -392 -85 2545 0
-1 -59 324 2546 0
-382 293 335 2547 0
-212 176 306 2548 0
120 -177 -123 2549 0
457 314 -184 2550 0
-172 473 376 2551 0
-441 468 53 2552 0
-316 -237 -400 2553 0
205 392 296 2554 0
-28 145 132 2555 0
-429 32 78 2556 0
188 -447 -432 2557 0
-46 -226 349 2558 0
-120 147 322 2559 0
356 -110 124 2560 0
-492 60 -15 2561 0
173 153 222 2562 0
-94 -488 -462 2563 0
-72 -24 -294 2564 0
-260 -497 175 2565 0
-27 -221 42 2566 0
18 -181 208 2567 0
262 -209 -368 2568 0
116 -209 -205 2569 0
373 -42 -129 2570 0
-233 196 -332 2571 0
282 -397 273 2572 0
100 -75 -7 2573 0
491 142 306 2574 0
-363 -444 235 2575 0
-414 101 31 2576 0
445 -399 419 2577 0
-225 232 450 2578 0
217 -182 -292 2579 0
415 -203 290 2580 0
10 224 218 2581 0
16 379 -7 2582 0
-109 353 -106 2583 0
-5 383 476 2584 0
103 -50 -402 2585 0
-174 -314 282 2586 0
-150 472 -353 2587 0
-280 401 -243 2588 0
27 -171 -132 2589 0
-75 200 -316 2590 0
-55 -307 161 2591 0
45 -126 66 2592 0
-152 155 427 2593 0
-486 -143 484 2594 0
210 406 -296 2595 0
-37 382 34 2596 0
398 -466 314 2597 0
401 -352 218 2598 0
274 -409 -140 2599 0
-450 -77 -132 2600 0
-370 375 416 2601 0
188 43 -367 2602 0
-320 6 -431 2603 0
190 154 341 2604 0
350 -293 -284 2605 0
474 -432 -499 2606 0
-282 -443 113 2607 0
-206 -123 337 2608 0
-463 371 21 2609 0
-207 -16 122 2610 0
88 -181 188 2611 0
-169 57 312 2612 0
-83 393 490 2613 0
492 407 -497 2614 0
-434 315 41 2615 0
-229 479 -171 2616 0
-81 -484 -52 2617 0
54 363 -380 2618 0
25 163 -152 2619 0
-484 321 -73 2620 0
-410 -414 -278 2621 0
188 -226 190 2622 0
450 -194 155 2623 0
142 21 -441 2624 0
-250 -207 -98 2625 0
-291 72 -370 2626 0
-146 336 -296 2627 0
97 -364 -323 2628 0
-185 418 16 2629 0
500 242 -164 2630 0
-216 -306 90 2631 0
110 -313 -71 2632 0
-374 -99 -85 2633 0
309 -103 -437 2634 0
-9 107 491 2635 0
376 -47 161 2636 0
302 274 -108 2637 0
165 427 19 2638 0
-23 191 -411 2639 0
367 -54 -309 2640 0
-262 265 -83 2641 0
-103 -330 249 2642 0
65 -275 47 2643 0
112 -106 -351 2644 0
470 -328 -456 2645 0
454 -245 118 2646 0
470 337 148 2647 0
176 -380 343 2648 0
-54 98 -330 2649 0
-112 145 -305 2650 0
