p cnf 2650 2150
-270 276 312 501 0
229 76 444 502 0
-302 -298 -203 503 0
-39 -454 413 504 0
189 336 469 505 0
263 20 -276 506 0
-424 309 102 507 0
-59 406 -278 508 0
-288 492 215 509 0
68 80 -444 510 0
-437 -389 16 511 0
-49 -14 -243 512 0
198 301 147 513 0
-431 -309 39 514 0
-456 145 -496 515 0
382 75 57 516 0
367 -119 -127 517 0
-177 -364 -339 518 0
-365 410 214 519 0
-403 467 -318 520 0
-138 97 -430 521 0
102 -231 -465 522 0
262 -19 141 523 0
474 -259 -157 524 0
457 197 -240 525 0
261 -130 416 526 0
-493 -365 -290 527 0
197 115 242 528 0
-373 4 -215 529 0
254 432 144 530 0
-271 165 -224 531 0
-35 358 -407 532 0
52 299 234 533 0
-243 248 297 534 0
2 446 333 535 0
362 4 123 536 0
-240 -341 -232 537 0
421 -477 402 538 0
-122 -477 -433 539 0
-345 -413 101 540 0
99 116 274 541 0
-208 156 279 542 0
-174 -64 32 543 0
-7 150 -391 544 0
305 -175 -87 545 0
-468 -284 -330 546 0
-414 -295 188 547 0
-111 -488 18 548 0
244 26 43 549 0
116 -322 -396 550 0
-254 472 -142 551 0
440 273 75 552 0
-260 -213 -327 553 0
353 323 476 554 0
-284 -264 136 555 0
-397 251 125 556 0
108 -192 162 557 0
-4 -386 -191 558 0
308 -82 -70 559 0
-186 -208 63 560 0
17 497 483 561 0
389 -345 -478 562 0
-189 286 -471 563 0
-279 -173 -35 564 0
-6 115 436 565 0
370 486 -500 566 0
-261 1 346 567 0
283 -194 306 568 0
-434 389 -35 569 0
207 242 -490 570 0
-448 -266 -56 571 0
493 -125 446 572 0
-368 -360 497 573 0
-378 299 -249 574 0
12 -265 290 575 0
-234 75 243 576 0
343 -245 490 577 0
-438 215 321 578 0
72 66 -370 579 0
-272 334 420 580 0
398 20 7 581 0
294 96 -490 582 0
177 63 -362 583 0
396 -406 -339 584 0
203 -187 -127 585 0
-456 329 -355 586 0
98 -420 -439 587 0
-221 -199 -201 588 0
-156 466 68 589 0
204 -329 -496 590 0
116 328 253 591 0
392 -339 -226 592 0
-191 -445 284 593 0
305 33 58 594 0
13 -258 -337 595 0
-148 294 -371 596 0
483 19 354 597 0
-82 453 -60 598 0
-180 382 286 599 0
392 460 -258 600 0
-220 70 476 601 0
285 -98 -464 602 0
493 -146 416 603 0
265 240 148 604 0
-256 220 -383 605 0
-82 313 297 606 0
-141 174 186 607 0
-133 -188 248 608 0
81 -138 303 609 0
385 60 383 610 0
-87 -39 132 611 0
-7 -480 452 612 0
-89 -260 -390 613 0
242 369 -337 614 0
58 -102 -48 615 0
-70 -427 85 616 0
468 444 -152 617 0
486 -162 -146 618 0
367 -220 306 619 0
-393 196 27 620 0
-223 380 160 621 0
-46 -217 -59 622 0
-116 410 -401 623 0
499 -447 -305 624 0
336 -11 357 625 0
-171 273 23 626 0
-426 -136 412 627 0
444 -218 276 628 0
-363 -313 -4 629 0
-184 381 -375 630 0
-203 -489 119 631 0
-382 390 -500 632 0
374 -17 -106 633 0
-150 213 317 634 0
-301 -340 479 635 0
147 257 -110 636 0
-90 -94 116 637 0
467 483 189 638 0
303 -320 421 639 0
-1 265 -467 640 0
-355 -379 -326 641 0
64 -450 -350 642 0
348 92 -193 643 0
-447 -492 159 644 0
239 87 -28 645 0
156 -484 322 646 0
-390 -498 -22 647 0
-7 -309 228 648 0
-424 275 -252 649 0
-49 460 -343 650 0
77 214 388 651 0
-462 -139 466 652 0
104 298 -81 653 0
-349 -372 70 654 0
465 45 -442 655 0
-167 -21 -123 656 0
436 -325 16 657 0
-164 86 -474 658 0
-388 163 -147 659 0
194 -321 301 660 0
197 154 -151 661 0
144 393 210 662 0
139 277 245 663 0
192 128 -429 664 0
100 -238 282 665 0
300 -262 25 666 0
-316 -169 -108 667 0
43 449 -402 668 0
-355 -365 346 669 0
-349 134 70 670 0
232 -341 231 671 0
447 -311 -264 672 0
383 -92 -338 673 0
148 452 -269 674 0
-345 457 -51 675 0
-106 -462 -210 676 0
-421 105 369 677 0
-259 167 -287 678 0
-426 -337 405 679 0
316 -374 -285 680 0
497 156 -51 681 0
-39 474 -292 682 0
381 -447 1 683 0
-478 -357 390 684 0
39 -16 -373 685 0
-27 -158 278 686 0
-448 -260 362 687 0
-245 426 -465 688 0
186 221 -183 689 0
368 76 86 690 0
41 158 485 691 0
-263 -354 -496 692 0
-287 389 -358 693 0
255 -389 -245 694 0
185 -144 -78 695 0
-465 443 277 696 0
-192 4 404 697 0
-476 53 -163 698 0
483 -298 -78 699 0
-431 256 -371 700 0
36 -215 434 701 0
-103 -422 250 702 0
152 451 57 703 0
102 -434 433 704 0
-122 175 -371 705 0
271 84 112 706 0
-85 -41 476 707 0
-140 85 464 708 0
-164 -442 494 709 0
339 245 447 710 0
-470 263 -15 711 0
-312 299 427 712 0
-389 49 354 713 0
-475 -114 -467 714 0
296 19 121 715 0
492 22 42 716 0
161 -113 -422 717 0
-329 397 28 718 0
169 -364 -425 719 0
339 172 92 720 0
175 374 -246 721 0
291 465 -206 722 0
-308 -147 -320 723 0
-285 15 2 724 0
153 449 -52 725 0
-161 -311 73 726 0
-454 -286 401 727 0
-31 87 -44 728 0
105 -158 -160 729 0
402 75 46 730 0
-412 -348 -408 731 0
256 484 52 732 0
14 -56 -313 733 0
128 268 123 734 0
427 -159 269 735 0
-113 -270 208 736 0
-216 -195 469 737 0
-128 239 161 738 0
-381 63 415 739 0
497 229 -255 740 0
393 -247 334 741 0
-235 356 251 742 0
-169 -67 -468 743 0
-261 420 197 744 0
-477 312 -299 745 0
-345 -328 -296 746 0
202 -267 -293 747 0
347 340 -164 748 0
490 414 -264 749 0
-86 42 -322 750 0
-236 342 -445 751 0
-123 219 150 752 0
-57 -80 317 753 0
276 -471 -54 754 0
-61 34 -337 755 0
-306 262 -261 756 0
-495 6 -484 757 0
-489 124 254 758 0
-73 307 -282 759 0
-45 270 -94 760 0
352 68 -237 761 0
225 -448 -83 762 0
167 -105 341 763 0
-192 -373 133 764 0
-139 -304 451 765 0
95 -369 -79 766 0
333 -145 222 767 0
9 -251 66 768 0
-3 440 288 769 0
354 197 120 770 0
-214 171 -432 771 0
-360 87 -336 772 0
89 24 66 773 0
-222 -170 281 774 0
-64 -232 443 775 0
37 -139 -80 776 0
-410 -200 -266 777 0
465 -15 63 778 0
-70 229 287 779 0
56 367 -194 780 0
-131 -124 -227 781 0
-188 -390 97 782 0
53 223 7 783 0
382 -281 332 784 0
-465 -159 -325 785 0
166 -80 140 786 0
390 215 -5 787 0
-81 484 -229 788 0
-73 214 233 789 0
-415 -224 425 790 0
7 406 -228 791 0
308 11 374 792 0
-197 -73 -217 793 0
-362 -333 -342 794 0
-499 -237 -466 795 0
74 -500 -368 796 0
-354 144 -165 797 0
399 -370 84 798 0
-109 -118 -218 799 0
-97 -302 -26 800 0
-26 293 -475 801 0
-192 202 -119 802 0
-445 -310 313 803 0
-267 338 223 804 0
297 -80 -46 805 0
362 367 -60 806 0
464 -305 -52 807 0
-430 -319 89 808 0
-176 142 218 809 0
-261 -213 -252 810 0
394 -393 -366 811 0
17 282 317 812 0
-465 -262 -493 813 0
264 397 385 814 0
283 -173 -288 815 0
34 -340 409 816 0
102 -403 252 817 0
-432 -373 -406 818 0
-172 61 195 819 0
117 479 -73 820 0
126 -154 57 821 0
461 22 -386 822 0
-114 314 -463 823 0
-127 -89 -202 824 0
-307 -156 274 825 0
-17 -482 199 826 0
440 -2 338 827 0
-93 -500 238 828 0
-348 -223 6 829 0
-277 444 146 830 0
-385 172 -134 831 0
-269 108 -10 832 0
-467 -164 -165 833 0
124 -174 -495 834 0
-321 349 368 835 0
19 277 425 836 0
-336 251 -108 837 0
442 -349 -241 838 0
-66 52 149 839 0
-456 60 -496 840 0
-187 18 216 841 0
-415 -41 -203 842 0
-413 -88 -124 843 0
-237 -368 390 844 0
-487 300 -285 845 0
94 -142 -376 846 0
-413 479 -31 847 0
193 -422 -238 848 0
-170 -356 -271 849 0
451 354 -341 850 0
87 460 -19 851 0
-372 -289 -279 852 0
-340 -454 -212 853 0
276 22 -430 854 0
351 -251 348 855 0
-290 -402 218 856 0
-136 -44 -466 857 0
267 -324 -195 858 0
403 260 -119 859 0
295 356 266 860 0
-231 -153 -227 861 0
-229 -304 -403 862 0
-180 -312 31 863 0
267 232 -383 864 0
-60 190 -397 865 0
-182 -37 277 866 0
98 -328 -280 867 0
-311 -197 205 868 0
-115 -120 43 869 0
118 -464 -40 870 0
-43 -255 30 871 0
275 452 94 872 0
341 -37 -411 873 0
-467 213 76 874 0
-361 -319 80 875 0
349 -94 374 876 0
206 -87 -299 877 0
261 153 -392 878 0
151 -457 -378 879 0
327 -337 -383 880 0
-475 49 430 881 0
378 127 -286 882 0
-137 486 -453 883 0
321 208 307 884 0
-323 143 -443 885 0
-297 52 -377 886 0
220 -151 150 887 0
393 -268 178 888 0
-34 295 -58 889 0
370 410 -177 890 0
-237 97 -322 891 0
205 486 -247 892 0
-359 310 -298 893 0
87 -92 -36 894 0
-445 -401 475 895 0
-82 -250 -289 896 0
91 347 -500 897 0
117 -4 -160 898 0
-298 -486 386 899 0
-412 168 361 900 0
-335 143 483 901 0
-416 405 159 902 0
-216 389 -334 903 0
-180 -399 160 904 0
-16 466 -346 905 0
-296 -32 -188 906 0
268 340 -140 907 0
278 -174 -346 908 0
419 -254 246 909 0
-338 12 -377 910 0
-181 233 366 911 0
-351 241 377 912 0
200 -216 238 913 0
407 322 418 914 0
23 -221 134 915 0
-235 203 -338 916 0
246 98 -83 917 0
-465 -387 13 918 0
-209 285 240 919 0
282 -220 -391 920 0
-463 340 -456 921 0
158 -455 24 922 0
219 -350 -311 923 0
159 -469 -482 924 0
-212 1 -329 925 0
-126 330 -133 926 0
197 -385 92 927 0
-293 -135 -46 928 0
-330 167 -483 929 0
-226 152 156 930 0
191 -307 -357 931 0
-29 -79 -102 932 0
472 91 -33 933 0
196 96 52 934 0
-28 172 -378 935 0
476 51 -5 936 0
-429 -284 -25 937 0
229 -273 423 938 0
-395 266 -89 939 0
443 155 102 940 0
-67 -265 98 941 0
154 313 -414 942 0
59 -420 -36 943 0
23 177 -448 944 0
443 464 -73 945 0
25 171 288 946 0
-17 27 -236 947 0
-174 -102 -485 948 0
317 262 -25 949 0
-197 158 168 950 0
355 -329 -120 951 0
18 348 -42 952 0
-408 89 432 953 0
464 251 156 954 0
-357 -309 -377 955 0
-278 312 354 956 0
468 482 322 957 0
-485 94 341 958 0
-468 -70 -258 959 0
116 140 181 960 0
-60 -250 -421 961 0
240 -300 -445 962 0
298 -323 -482 963 0
-364 -374 -376 964 0
-106 -197 339 965 0
-249 -1 -271 966 0
79 -289 448 967 0
408 29 68 968 0
-285 -197 -437 969 0
474 -321 199 970 0
-86 -211 238 971 0
204 45 15 972 0
284 239 437 973 0
123 -244 255 974 0
-469 43 142 975 0
-278 -387 130 976 0
-281 336 272 977 0
349 -290 -70 978 0
126 -381 81 979 0
415 105 161 980 0
217 -328 -1 981 0
-64 291 126 982 0
-10 -82 443 983 0
-135 -291 -183 984 0
-306 203 -213 985 0
94 -477 304 986 0
479 55 319 987 0
361 429 244 988 0
-142 64 -492 989 0
-223 -53 383 990 0
164 289 61 991 0
322 -141 278 992 0
376 -229 34 993 0
-300 -10 -485 994 0
247 288 -230 995 0
342 223 135 996 0
-121 -282 262 997 0
16 -300 -278 998 0
-367 -469 357 999 0
-342 -489 395 1000 0
-168 88 460 1001 0
208 306 72 1002 0
474 435 210 1003 0
278 -92 -46 1004 0
403 349 71 1005 0
-194 -14 283 1006 0
296 334 476 1007 0
306 47 -434 1008 0
-182 -145 154 1009 0
-476 243 130 1010 0
69 152 364 1011 0
-48 -403 52 1012 0
-318 73 303 1013 0
-165 -383 -338 1014 0
327 -106 451 1015 0
-357 -239 -381 1016 0
-38 -99 -301 1017 0
236 -230 114 1018 0
-143 41 -242 1019 0
99 -17 -269 1020 0
-226 380 104 1021 0
-293 -346 307 1022 0
292 -30 -367 1023 0
371 138 -176 1024 0
-86 273 -366 1025 0
188 -34 -230 1026 0
298 462 52 1027 0
466 -414 383 1028 0
-205 -67 251 1029 0
-59 397 -222 1030 0
305 -199 -421 1031 0
425 -417 59 1032 0
-185 120 476 1033 0
-282 6 11 1034 0
-466 -382 -495 1035 0
-25 27 64 1036 0
-448 290 136 1037 0
321 -213 -49 1038 0
-373 475 -482 1039 0
-23 384 -179 1040 0
-353 -22 58 1041 0
-296 366 -374 1042 0
-485 228 194 1043 0
-441 404 478 1044 0
-191 289 -271 1045 0
-333 108 -135 1046 0
8 145 409 1047 0
-84 199 -306 1048 0
-26 167 201 1049 0
265 12 -177 1050 0
-121 -18 149 1051 0
-78 -383 116 1052 0
-62 198 -89 1053 0
-340 305 110 1054 0
462 -107 -310 1055 0
180 -89 325 1056 0
-16 35 376 1057 0
381 -321 -86 1058 0
281 400 -320 1059 0
123 -451 476 1060 0
-300 -432 312 1061 0
-488 327 -434 1062 0
303 -229 -103 1063 0
-429 -183 404 1064 0
317 -318 223 1065 0
317 423 -285 1066 0
-404 -270 430 1067 0
-14 -166 -343 1068 0
283 392 336 1069 0
-288 -2 419 1070 0
-1 108 -337 1071 0
-256 -88 152 1072 0
-148 -484 226 1073 0
460 -456 408 1074 0
-490 -93 -258 1075 0
-147 -452 -211 1076 0
-241 -400 60 1077 0
269 465 95 1078 0
82 211 340 1079 0
247 -383 398 1080 0
461 206 -428 1081 0
-426 210 103 1082 0
347 368 -472 1083 0
-8 -125 -464 1084 0
86 -282 71 1085 0
363 12 443 1086 0
-345 -430 -86 1087 0
333 -32 117 1088 0
23 62 -280 1089 0
415 459 -414 1090 0
-325 319 -34 1091 0
-430 -103 63 1092 0
-378 116 -108 1093 0
178 -275 67 1094 0
15 430 263 1095 0
-22 -41 -498 1096 0
357 200 349 1097 0
439 314 372 1098 0
408 -393 75 1099 0
255 -104 6 1100 0
-150 -312 457 1101 0
75 102 -488 1102 0
225 -451 162 1103 0
199 455 421 1104 0
321 270 237 1105 0
-104 -394 -182 1106 0
-114 131 228 1107 0
-21 -380 -456 1108 0
-72 67 39 1109 0
103 -294 -297 1110 0
-459 318 -41 1111 0
177 216 -398 1112 0
199 -344 -103 1113 0
191 -477 -171 1114 0
342 -205 231 1115 0
80 116 381 1116 0
65 -388 -338 1117 0
91 -117 -320 1118 0
312 77 -164 1119 0
45 -454 155 1120 0
-248 -3 -76 1121 0
238 288 408 1122 0
316 -285 -45 1123 0
-456 142 -205 1124 0
304 56 424 1125 0
-373 -269 -293 1126 0
-67 -42 -288 1127 0
-267 195 29 1128 0
-244 -455 343 1129 0
-477 328 -76 1130 0
-410 -13 -246 1131 0
-26 288 -180 1132 0
183 340 475 1133 0
-328 62 -297 1134 0
-436 88 -448 1135 0
148 32 181 1136 0
344 77 157 1137 0
-277 196 -331 1138 0
-406 -259 356 1139 0
486 247 311 1140 0
-36 290 305 1141 0
-324 -27 453 1142 0
-411 -427 136 1143 0
-491 -27 41 1144 0
311 -453 -353 1145 0
464 -7 485 1146 0
59 428 446 1147 0
320 -93 -183 1148 0
-447 62 371 1149 0
-339 -65 99 1150 0
75 442 -21 1151 0
480 -416 -48 1152 0
258 337 217 1153 0
254 -29 342 1154 0
-43 118 -185 1155 0
224 483 284 1156 0
-140 215 -279 1157 0
495 -493 45 1158 0
-214 -444 4 1159 0
289 -290 -130 1160 0
-221 -385 8 1161 0
-340 -480 -312 1162 0
-7 -297 -67 1163 0
426 -314 -247 1164 0
-150 -257 -141 1165 0
277 464 -298 1166 0
16 -41 -274 1167 0
490 146 -394 1168 0
-492 101 -86 1169 0
-61 248 472 1170 0
-425 355 277 1171 0
67 262 357 1172 0
-190 136 447 1173 0
356 -233 -104 1174 0
-362 150 -285 1175 0
-358 -461 225 1176 0
220 333 346 1177 0
-397 -44 386 1178 0
429 -342 -20 1179 0
-37 -487 -279 1180 0
219 -475 487 1181 0
-200 186 -449 1182 0
496 96 34 1183 0
476 425 281 1184 0
-172 -146 -190 1185 0
360 -255 253 1186 0
-306 179 -454 1187 0
230 341 498 1188 0
-138 -340 63 1189 0
377 -159 32 1190 0
-193 -317 89 1191 0
33 367 -46 1192 0
371 189 154 1193 0
-422 354 274 1194 0
-297 421 291 1195 0
314 83 240 1196 0
-206 278 -5 1197 0
134 83 -344 1198 0
-48 96 -4 1199 0
-252 -206 348 1200 0
-417 -204 495 1201 0
-424 361 353 1202 0
-352 440 269 1203 0
-173 -115 -269 1204 0
19 -14 -88 1205 0
257 30 18 1206 0
-320 227 -335 1207 0
-35 -195 17 1208 0
240 474 267 1209 0
-395 398 -297 1210 0
-321 421 -153 1211 0
-216 396 392 1212 0
-10 -447 -397 1213 0
-320 234 339 1214 0
434 -395 39 1215 0
-246 275 172 1216 0
-64 76 411 1217 0
10 -258 -265 1218 0
-352 330 265 1219 0
325 117 -107 1220 0
-260 176 476 1221 0
-267 -472 262 1222 0
39 444 -133 1223 0
-93 -50 294 1224 0
-41 318 -287 1225 0
-153 -215 95 1226 0
47 202 -496 1227 0
-491 -225 109 1228 0
431 -265 266 1229 0
152 -256 339 1230 0
-21 -67 390 1231 0
-221 6 -492 1232 0
95 -345 -115 1233 0
-148 106 316 1234 0
301 228 -41 1235 0
332 -317 -387 1236 0
404 -433 27 1237 0
394 372 68 1238 0
159 -438 51 1239 0
286 -43 -308 1240 0
-484 -43 -465 1241 0
-355 -393 151 1242 0
-228 45 243 1243 0
29 125 159 1244 0
-137 -364 239 1245 0
-243 169 -443 1246 0
-433 485 -439 1247 0
-171 -391 -106 1248 0
299 389 366 1249 0
-411 -164 -165 1250 0
300 -8 350 1251 0
-241 -242 351 1252 0
-359 79 283 1253 0
341 3 -24 1254 0
-370 29 320 1255 0
91 242 -332 1256 0
451 -481 489 1257 0
-56 -81 -500 1258 0
62 68 500 1259 0
55 362 428 1260 0
-449 166 133 1261 0
269 155 270 1262 0
436 365 12 1263 0
208 5 288 1264 0
229 -208 -202 1265 0
113 263 -12 1266 0
-239 -448 128 1267 0
40 -182 -333 1268 0
398 -3 82 1269 0
-86 371 -96 1270 0
-371 -121 315 1271 0
-361 417 367 1272 0
-404 6 -442 1273 0
-407 41 97 1274 0
295 185 -194 1275 0
-412 -331 34 1276 0
-315 397 -235 1277 0
-458 468 118 1278 0
183 -379 335 1279 0
-348 -229 195 1280 0
110 -45 -237 1281 0
447 127 -422 1282 0
-221 260 372 1283 0
-125 -302 228 1284 0
150 294 495 1285 0
206 372 342 1286 0
-278 451 95 1287 0
322 -344 -33 1288 0
-71 103 248 1289 0
-281 -333 -500 1290 0
433 -136 185 1291 0
-415 -201 330 1292 0
35 272 247 1293 0
102 -476 163 1294 0
-265 -217 440 1295 0
-385 114 -411 1296 0
252 360 -358 1297 0
169 166 -363 1298 0
-87 -62 326 1299 0
63 -263 -275 1300 0
71 323 143 1301 0
-143 146 187 1302 0
241 -286 -87 1303 0
79 375 -390 1304 0
-476 -115 196 1305 0
-416 -125 374 1306 0
-188 -494 282 1307 0
-334 -234 -69 1308 0
-375 275 -330 1309 0
353 -93 84 1310 0
438 486 149 1311 0
-222 208 331 1312 0
-374 -476 315 1313 0
-279 -265 -269 1314 0
34 -229 -4 1315 0
-106 3 392 1316 0
173 -448 -96 1317 0
398 144 55 1318 0
-207 -138 41 1319 0
229 427 -157 1320 0
-367 -347 291 1321 0
201 145 -280 1322 0
178 -195 -414 1323 0
56 -68 -220 1324 0
303 -390 65 1325 0
406 -15 403 1326 0
438 406 -400 1327 0
-499 -329 449 1328 0
-229 -389 9 1329 0
-474 64 -306 1330 0
259 36 -102 1331 0
-456 122 -449 1332 0
297 281 -439 1333 0
-257 -285 -303 1334 0
92 185 456 1335 0
-470 147 249 1336 0
79 126 -449 1337 0
-7 423 163 1338 0
-307 322 -291 1339 0
-304 -404 -441 1340 0
-195 -12 -273 1341 0
498 -301 23 1342 0
-458 -356 242 1343 0
158 -205 52 1344 0
104 375 281 1345 0
219 -443 267 1346 0
188 307 299 1347 0
-167 135 -468 1348 0
13 310 23 1349 0
283 -49 -38 1350 0
463 268 -116 1351 0
212 -157 -58 1352 0
-293 -199 -270 1353 0
-414 -373 360 1354 0
-98 -406 251 1355 0
-31 21 -123 1356 0
356 -316 -457 1357 0
134 367 -301 1358 0
444 491 -339 1359 0
-155 3 -486 1360 0
430 -199 370 1361 0
263 -344 -92 1362 0
66 387 -414 1363 0
-179 363 -475 1364 0
81 36 -136 1365 0
-201 177 -239 1366 0
-125 -313 -5 1367 0
451 -490 1 1368 0
225 -13 -424 1369 0
182 -238 -324 1370 0
-450 -38 261 1371 0
-58 329 202 1372 0
-496 -420 317 1373 0
489 -18 36 1374 0
309 -452 235 1375 0
-154 -6 -328 1376 0
357 167 123 1377 0
199 98 415 1378 0
-430 144 127 1379 0
210 -462 -278 1380 0
-488 -46 -445 1381 0
465 -50 248 1382 0
438 -414 319 1383 0
2 -327 470 1384 0
-492 -113 -371 1385 0
386 -489 -65 1386 0
370 282 -238 1387 0
446 -430 -445 1388 0
-135 -213 -63 1389 0
42 113 465 1390 0
-461 212 -193 1391 0
425 414 -95 1392 0
295 -153 254 1393 0
-111 221 -290 1394 0
359 -76 -188 1395 0
-355 29 79 1396 0
-384 477 -312 1397 0
-229 -135 -132 1398 0
477 178 192 1399 0
-369 184 -492 1400 0
-499 -422 210 1401 0
-361 223 453 1402 0
360 340 -481 1403 0
-142 29 176 1404 0
392 232 -75 1405 0
-211 -18 176 1406 0
419 -218 -60 1407 0
390 452 88 1408 0
-175 286 31 1409 0
-412 -10 219 1410 0
33 17 -495 1411 0
-397 251 40 1412 0
-342 69 26 1413 0
429 -267 275 1414 0
377 489 -414 1415 0
188 -202 -468 1416 0
-481 -372 243 1417 0
-110 -498 -62 1418 0
500 -147 397 1419 0
386 216 449 1420 0
481 25 413 1421 0
352 248 472 1422 0
-207 -342 9 1423 0
217 -255 373 1424 0
-357 -238 41 1425 0
85 346 -359 1426 0
-102 29 -353 1427 0
88 212 12 1428 0
418 -356 486 1429 0
311 -495 188 1430 0
163 -185 -116 1431 0
-418 -185 -124 1432 0
458 -225 -291 1433 0
-171 -492 -12 1434 0
-286 -228 452 1435 0
318 334 -362 1436 0
130 379 -340 1437 0
-416 -290 400 1438 0
172 34 -493 1439 0
-326 75 -472 1440 0
-49 -446 -138 1441 0
-171 113 89 1442 0
198 -32 -167 1443 0
486 -272 382 1444 0
-138 -229 -1 1445 0
-359 26 55 1446 0
-465 -433 -194 1447 0
439 -59 409 1448 0
-411 476 -423 1449 0
-331 251 -84 1450 0
-394 -288 -174 1451 0
-457 265 236 1452 0
149 288 -344 1453 0
165 181 -18 1454 0
468 -465 -375 1455 0
-45 -465 296 1456 0
406 422 -89 1457 0
3 35 129 1458 0
-469 199 -293 1459 0
-482 291 -282 1460 0
-440 210 330 1461 0
396 -310 -295 1462 0
98 -59 127 1463 0
-167 -127 254 1464 0
352 -493 -377 1465 0
250 329 23 1466 0
296 177 -456 1467 0
-338 -471 178 1468 0
456 -279 -187 1469 0
-408 -115 -324 1470 0
-361 461 -146 1471 0
-469 -434 -393 1472 0
157 194 -221 1473 0
-80 -436 203 1474 0
480 -96 -379 1475 0
-203 -243 420 1476 0
-292 -258 -306 1477 0
-423 -342 -315 1478 0
250 -494 -188 1479 0
-218 200 276 1480 0
-151 215 5 1481 0
364 -40 -224 1482 0
77 65 282 1483 0
193 484 -281 1484 0
-257 -443 239 1485 0
27 94 -138 1486 0
265 354 73 1487 0
109 -150 404 1488 0
98 -392 -83 1489 0
-301 -74 -364 1490 0
-264 -6 100 1491 0
-358 -144 -478 1492 0
463 289 -373 1493 0
-390 473 -372 1494 0
-479 -334 213 1495 0
-292 327 -133 1496 0
-392 152 104 1497 0
-67 -65 493 1498 0
-45 -146 -176 1499 0
-255 -357 228 1500 0
334 134 330 1501 0
-133 -162 -341 1502 0
96 11 -425 1503 0
28 197 -479 1504 0
-305 -227 -38 1505 0
285 -105 -418 1506 0
-222 -94 -62 1507 0
-399 -377 180 1508 0
417 187 413 1509 0
307 -444 6 1510 0
-450 -276 -159 1511 0
-451 46 111 1512 0
90 222 -400 1513 0
-42 352 -88 1514 0
179 -24 315 1515 0
145 174 -353 1516 0
-125 28 -377 1517 0
346 -282 180 1518 0
-270 69 -109 1519 0
176 -78 -383 1520 0
222 -439 496 1521 0
-269 -338 -32 1522 0
107 -175 -310 1523 0
-470 -17 193 1524 0
326 -23 -444 1525 0
-181 186 -48 1526 0
237 -57 36 1527 0
-386 -91 164 1528 0
-322 -163 -278 1529 0
-99 154 -133 1530 0
-281 348 16 1531 0
145 -236 243 1532 0
152 -375 20 1533 0
69 -148 -485 1534 0
174 345 -491 1535 0
216 48 266 1536 0
433 -302 129 1537 0
-96 177 -359 1538 0
146 -137 -161 1539 0
275 -413 154 1540 0
240 -390 -337 1541 0
-385 -80 288 1542 0
298 264 -295 1543 0
33 181 167 1544 0
318 -214 -53 1545 0
-392 495 286 1546 0
394 63 -362 1547 0
-184 -277 18 1548 0
471 278 138 1549 0
-305 -483 -385 1550 0
4 -182 345 1551 0
153 1 176 1552 0
-154 218 -242 1553 0
457 -22 -392 1554 0
-79 -268 -353 1555 0
-366 -451 -176 1556 0
-187 -7 -10 1557 0
500 258 -45 1558 0
-406 -181 111 1559 0
377 -368 362 1560 0
255 498 -352 1561 0
487 -322 183 1562 0
1 173 305 1563 0
498 62 13 1564 0
-475 6 155 1565 0
75 -50 412 1566 0
-28 380 -373 1567 0
192 322 -168 1568 0
287 363 -452 1569 0
-241 159 146 1570 0
138 300 -484 1571 0
-345 -216 364 1572 0
433 198 -245 1573 0
-363 -123 311 1574 0
-460 -158 97 1575 0
-405 -462 -17 1576 0
33 128 -138 1577 0
-375 -80 291 1578 0
119 277 394 1579 0
394 249 -360 1580 0
99 87 379 1581 0
183 -237 274 1582 0
-43 -254 -430 1583 0
-207 -5 -388 1584 0
133 161 81 1585 0
-374 -4 168 1586 0
322 -60 460 1587 0
-288 370 -326 1588 0
-53 369 -185 1589 0
29 -422 164 1590 0
-117 -388 -305 1591 0
186 60 -230 1592 0
-367 -214 485 1593 0
225 490 65 1594 0
259 478 -129 1595 0
-158 103 258 1596 0
176 55 -210 1597 0
-112 -48 246 1598 0
-461 -156 374 1599 0
20 117 479 1600 0
-363 -387 -84 1601 0
-66 291 206 1602 0
220 272 -448 1603 0
386 431 -334 1604 0
471 -174 373 1605 0
264 385 230 1606 0
221 308 312 1607 0
-390 -16 86 1608 0
199 122 319 1609 0
-18 215 239 1610 0
369 -396 173 1611 0
-480 -315 -343 1612 0
-36 234 -492 1613 0
207 -58 189 1614 0
-331 452 477 1615 0
-424 399 391 1616 0
-99 120 475 1617 0
-388 -215 99 1618 0
134 -401 -191 1619 0
278 -181 455 1620 0
-224 478 -371 1621 0
261 -93 -240 1622 0
-306 -203 -238 1623 0
-100 136 -391 1624 0
-45 235 -389 1625 0
-222 287 -472 1626 0
-93 -431 489 1627 0
3 309 270 1628 0
202 -318 -419 1629 0
27 384 -40 1630 0
187 93 276 1631 0
22 -45 -201 1632 0
-385 350 334 1633 0
446 162 -461 1634 0
137 -332 -373 1635 0
152 -163 446 1636 0
253 56 2 1637 0
-171 -263 101 1638 0
-5 40 -355 1639 0
313 -131 293 1640 0
467 444 -235 1641 0
-39 -118 -398 1642 0
477 154 419 1643 0
-258 -472 -37 1644 0
42 -322 -205 1645 0
120 -66 -180 1646 0
3 277 -377 1647 0
-396 71 -374 1648 0
234 -288 227 1649 0
-344 -282 178 1650 0
-64 142 273 1651 0
-38 -112 165 1652 0
7 -343 484 1653 0
-286 -143 -411 1654 0
-190 326 9 1655 0
-235 -200 198 1656 0
300 -426 456 1657 0
128 -235 -433 1658 0
343 82 -11 1659 0
-466 -21 61 1660 0
-417 249 67 1661 0
-253 -247 -290 1662 0
-71 456 262 1663 0
-390 -405 108 1664 0
-262 332 -319 1665 0
-436 391 433 1666 0
-215 -94 -71 1667 0
-30 -87 -150 1668 0
-118 -342 302 1669 0
-482 -391 -406 1670 0
497 453 -461 1671 0
377 -122 392 1672 0
-300 209 -187 1673 0
-203 191 -448 1674 0
121 -44 -235 1675 0
-334 466 144 1676 0
-241 -296 -492 1677 0
355 -342 91 1678 0
262 378 -356 1679 0
-252 -437 -105 1680 0
11 52 109 1681 0
-465 478 183 1682 0
152 141 6 1683 0
-348 332 -350 1684 0
-311 -365 252 1685 0
-376 86 -498 1686 0
9 257 -423 1687 0
-252 -484 430 1688 0
154 -498 -136 1689 0
219 303 80 1690 0
229 -220 -93 1691 0
373 -216 -88 1692 0
375 -19 -67 1693 0
-90 -27 466 1694 0
-231 52 -150 1695 0
-26 74 -42 1696 0
358 -471 202 1697 0
-240 171 -119 1698 0
464 -291 164 1699 0
390 -100 -79 1700 0
-378 -249 -237 1701 0
159 257 60 1702 0
194 261 -253 1703 0
-325 393 -362 1704 0
90 -359 369 1705 0
-179 7 436 1706 0
329 492 85 1707 0
-46 -401 -100 1708 0
179 -140 54 1709 0
-307 139 432 1710 0
21 -251 143 1711 0
-130 -225 346 1712 0
-75 136 -23 1713 0
-252 425 409 1714 0
214 -228 -351 1715 0
-49 477 -440 1716 0
191 256 -215 1717 0
280 -124 -379 1718 0
482 368 -152 1719 0
-109 96 -397 1720 0
-449 -117 11 1721 0
6 40 -428 1722 0
313 226 196 1723 0
411 -261 309 1724 0
330 414 -339 1725 0
-47 -90 -487 1726 0
-195 -383 496 1727 0
320 69 -339 1728 0
-396 -238 -432 1729 0
-199 -341 -62 1730 0
-359 469 378 1731 0
245 -23 261 1732 0
-342 -299 309 1733 0
-156 -110 -308 1734 0
-431 463 90 1735 0
-238 -301 -395 1736 0
35 145 -166 1737 0
96 -38 -173 1738 0
351 -149 -41 1739 0
-272 234 -59 1740 0
-209 -441 -304 1741 0
-342 413 217 1742 0
242 165 325 1743 0
-397 17 344 1744 0
460 -368 -287 1745 0
325 184 279 1746 0
-405 451 316 1747 0
-313 42 -155 1748 0
-153 -44 -496 1749 0
-149 452 -157 1750 0
-304 415 -277 1751 0
330 488 254 1752 0
-238 -452 172 1753 0
84 -52 452 1754 0
-47 247 216 1755 0
-114 -84 71 1756 0
-463 442 -367 1757 0
363 372 445 1758 0
-129 -261 -216 1759 0
-123 226 -371 1760 0
-222 -403 -393 1761 0
79 -312 127 1762 0
166 -498 -353 1763 0
-411 378 -248 1764 0
-387 -8 -407 1765 0
381 351 -150 1766 0
132 -118 -114 1767 0
294 238 496 1768 0
231 225 137 1769 0
-323 351 420 1770 0
-287 460 293 1771 0
219 -115 407 1772 0
-480 -276 145 1773 0
237 1 -19 1774 0
-481 114 153 1775 0
-137 479 386 1776 0
-289 -447 244 1777 0
-316 -443 -91 1778 0
169 434 331 1779 0
-357 -485 -142 1780 0
-86 56 -54 1781 0
-423 262 99 1782 0
-79 77 406 1783 0
248 34 -340 1784 0
-45 -71 -341 1785 0
415 -341 -452 1786 0
367 -28 -355 1787 0
-270 -485 -430 1788 0
71 -241 -495 1789 0
173 -243 102 1790 0
224 8 445 1791 0
409 200 -321 1792 0
-170 226 159 1793 0
-443 -468 9 1794 0
164 -385 99 1795 0
50 426 -108 1796 0
90 145 142 1797 0
408 433 117 1798 0
192 -485 -182 1799 0
-300 457 -97 1800 0
355 382 -260 1801 0
-346 227 155 1802 0
403 130 444 1803 0
184 -351 399 1804 0
-162 -18 180 1805 0
-284 81 -22 1806 0
-214 -147 226 1807 0
-198 77 211 1808 0
279 59 -222 1809 0
-26 -233 -439 1810 0
32 48 325 1811 0
383 -224 -247 1812 0
357 331 436 1813 0
310 -292 454 1814 0
-38 310 -10 1815 0
397 -254 33 1816 0
-227 496 -499 1817 0
290 -304 201 1818 0
-446 -165 -450 1819 0
62 332 -95 1820 0
-32 294 -202 1821 0
313 320 -341 1822 0
-124 -468 195 1823 0
356 63 479 1824 0
-183 -195 93 1825 0
-415 365 -413 1826 0
277 -479 -175 1827 0
-31 -306 248 1828 0
-435 160 339 1829 0
482 -400 53 1830 0
-495 -66 -168 1831 0
-330 -474 203 1832 0
201 -296 490 1833 0
-155 -487 -456 1834 0
-293 475 -167 1835 0
-393 -80 -467 1836 0
396 -394 -392 1837 0
-279 -24 130 1838 0
157 -5 158 1839 0
-52 107 357 1840 0
-317 479 90 1841 0
-464 -76 59 1842 0
-24 -419 305 1843 0
431 -47 241 1844 0
256 20 -330 1845 0
328 -157 -372 1846 0
-81 -216 -446 1847 0
-161 301 311 1848 0
392 -116 430 1849 0
221 217 -314 1850 0
-86 69 138 1851 0
439 137 -341 1852 0
-439 191 325 1853 0
-91 378 -122 1854 0
205 -428 447 1855 0
143 388 -348 1856 0
-148 346 -348 1857 0
459 -264 364 1858 0
298 460 -277 1859 0
163 -396 -182 1860 0
-170 -312 28 1861 0
418 -349 -357 1862 0
-419 174 -472 1863 0
205 315 -64 1864 0
-320 397 234 1865 0
-59 493 312 1866 0
-103 -106 -125 1867 0
440 -111 -295 1868 0
379 96 -101 1869 0
103 -352 -424 1870 0
-213 311 468 1871 0
196 437 -104 1872 0
1 -30 -79 1873 0
331 -218 -327 1874 0
496 -203 -475 1875 0
22 416 308 1876 0
480 -113 -7 1877 0
-346 -41 335 1878 0
-221 31 236 1879 0
295 387 -325 1880 0
-235 371 155 1881 0
445 -105 129 1882 0
222 -110 -358 1883 0
441 298 125 1884 0
251 -126 287 1885 0
114 240 -285 1886 0
327 -68 17 1887 0
-307 -158 -242 1888 0
279 177 -309 1889 0
-465 334 -28 1890 0
277 147 196 1891 0
67 -57 48 1892 0
489 -164 405 1893 0
-278 -344 26 1894 0
272 -96 -326 1895 0
115 -155 -450 1896 0
-90 -181 -307 1897 0
-205 379 -419 1898 0
447 435 500 1899 0
-147 -64 -209 1900 0
-202 331 416 1901 0
-166 310 324 1902 0
300 -447 -141 1903 0
-19 -299 416 1904 0
258 -467 -192 1905 0
383 375 397 1906 0
-126 489 -183 1907 0
-351 -127 138 1908 0
85 192 328 1909 0
-46 194 -401 1910 0
368 353 -352 1911 0
86 -326 -113 1912 0
-413 479 182 1913 0
378 -435 -9 1914 0
-226 -54 -474 1915 0
332 -240 -480 1916 0
-245 -114 369 1917 0
-268 -380 -359 1918 0
249 -316 -452 1919 0
-133 149 -378 1920 0
269 -129 138 1921 0
-10 -432 -331 1922 0
383 410 -226 1923 0
252 -395 -285 1924 0
-277 475 -365 1925 0
-294 -472 -249 1926 0
-246 -352 -472 1927 0
368 -436 -60 1928 0
-180 388 -73 1929 0
161 -165 58 1930 0
-152 212 74 1931 0
222 -66 -146 1932 0
452 195 -199 1933 0
-473 -361 288 1934 0
-258 226 -387 1935 0
178 -8 -53 1936 0
-481 -30 373 1937 0
45 66 183 1938 0
393 76 -222 1939 0
437 -450 -97 1940 0
-119 360 -393 1941 0
366 46 217 1942 0
113 117 -332 1943 0
447 456 367 1944 0
201 335 78 1945 0
-297 -289 462 1946 0
-171 176 45 1947 0
-169 -428 -251 1948 0
-77 59 -75 1949 0
-188 -139 91 1950 0
105 -181 89 1951 0
-120 -296 -401 1952 0
-177 308 236 1953 0
-289 315 129 1954 0
271 379 -37 1955 0
278 68 -46 1956 0
-217 -30 110 1957 0
-98 -17 256 1958 0
154 -252 -203 1959 0
307 -379 444 1960 0
490 473 15 1961 0
268 470 -80 1962 0
35 401 228 1963 0
-138 -30 212 1964 0
-170 199 -7 1965 0
310 444 -415 1966 0
257 93 -493 1967 0
-427 155 148 1968 0
228 -488 -196 1969 0
273 -105 -245 1970 0
-148 136 93 1971 0
383 181 52 1972 0
-485 157 -4 1973 0
417 -112 -121 1974 0
-363 -417 -315 1975 0
400 -203 -253 1976 0
-433 -85 448 1977 0
93 75 -379 1978 0
-441 32 -355 1979 0
465 -116 -73 1980 0
59 300 241 1981 0
366 421 231 1982 0
-438 353 -426 1983 0
-425 394 -259 1984 0
129 -172 -322 1985 0
181 187 -122 1986 0
127 -251 -474 1987 0
-313 -500 69 1988 0
-317 447 -90 1989 0
15 208 221 1990 0
208 -275 361 1991 0
-348 -312 -131 1992 0
2 209 211 1993 0
-209 -120 112 1994 0
23 -293 -302 1995 0
-445 196 -31 1996 0
-181 -45 -418 1997 0
284 50 278 1998 0
364 455 -400 1999 0
140 -169 -7 2000 0
-271 -220 -296 2001 0
383 243 139 2002 0
-426 -413 -76 2003 0
-156 -58 -18 2004 0
112 -221 309 2005 0
491 438 118 2006 0
453 -394 -126 2007 0
485 -21 -232 2008 0
-180 -123 264 2009 0
453 -284 391 2010 0
-243 -97 199 2011 0
239 492 -71 2012 0
-186 379 -420 2013 0
-253 328 -450 2014 0
35 236 472 2015 0
-427 389 386 2016 0
431 410 -24 2017 0
358 -162 -238 2018 0
272 -290 -312 2019 0
17 -267 -9 2020 0
120 254 -287 2021 0
-209 386 435 2022 0
133 -292 283 2023 0
-407 257 -295 2024 0
-419 395 -73 2025 0
6 -317 -452 2026 0
-302 331 -250 2027 0
-12 -50 70 2028 0
345 147 306 2029 0
211 385 -483 2030 0
335 158 -137 2031 0
36 -97 311 2032 0
479 255 -243 2033 0
70 -291 -388 2034 0
-160 -183 417 2035 0
-73 -72 116 2036 0
-87 -473 64 2037 0
-435 -449 113 2038 0
391 -42 265 2039 0
-410 -23 344 2040 0
-460 -47 -7 2041 0
20 357 115 2042 0
-311 -44 -38 2043 0
-245 -407 -9 2044 0
-338 390 110 2045 0
372 80 255 2046 0
-455 242 -281 2047 0
-388 -390 35 2048 0
-478 -106 215 2049 0
-68 479 471 2050 0
438 295 130 2051 0
-124 228 121 2052 0
6 -54 20 2053 0
-384 -59 -454 2054 0
435 -414 -370 2055 0
440 -459 -58 2056 0
-303 114 -226 2057 0
222 99 479 2058 0
-250 33 425 2059 0
115 -53 -277 2060 0
194 84 234 2061 0
360 -118 -264 2062 0
-400 -357 34 2063 0
343 30 -116 2064 0
-262 -39 -276 2065 0
208 -257 190 2066 0
135 477 -329 2067 0
-344 -110 -248 2068 0
387 161 -112 2069 0
-152 -113 115 2070 0
75 -210 -54 2071 0
-282 -232 -445 2072 0
-23 262 408 2073 0
234 -335 421 2074 0
-31 439 -83 2075 0
477 369 -327 2076 0
-228 -167 2 2077 0
332 351 -184 2078 0
-206 444 104 2079 0
-8 -330 -33 2080 0
-364 411 291 2081 0
159 -480 214 2082 0
152 -236 213 2083 0
253 -93 -86 2084 0
-419 333 -107 2085 0
136 78 -133 2086 0
66 -70 -90 2087 0
409 325 -466 2088 0
-446 39 -221 2089 0
-89 -419 343 2090 0
-112 -338 -163 2091 0
-486 5 -232 2092 0
-342 -201 205 2093 0
-434 450 -10 2094 0
41 -63 -406 2095 0
-33 -48 496 2096 0
-431 49 -150 2097 0
394 -285 -238 2098 0
146 -450 239 2099 0
-373 -12 -387 2100 0
-367 289 -56 2101 0
-389 480 433 2102 0
145 52 366 2103 0
-198 -210 -113 2104 0
-149 -240 459 2105 0
-114 340 12 2106 0
67 410 -230 2107 0
228 116 -7 2108 0
320 -274 -487 2109 0
115 -422 363 2110 0
150 306 -407 2111 0
-37 433 -344 2112 0
-147 329 472 2113 0
-240 -2 -214 2114 0
152 -407 34 2115 0
193 170 -465 2116 0
-260 365 297 2117 0
376 -311 -18 2118 0
112 -83 -268 2119 0
-235 455 364 2120 0
-480 346 447 2121 0
-412 -500 219 2122 0
-377 -205 -455 2123 0
-271 350 -80 2124 0
-466 -482 444 2125 0
276 -33 -45 2126 0
-336 -171 -125 2127 0
-217 299 444 2128 0
198 397 392 2129 0
-315 -394 -45 2130 0
246 442 -322 2131 0
-206 354 455 2132 0
401 -22 146 2133 0
-157 -223 411 2134 0
147 -62 87 2135 0
105 327 -453 2136 0
-231 376 -279 2137 0
463 239 -255 2138 0
-363 -290 -1 2139 0
-157 -195 -467 2140 0
219 59 173 2141 0
187 -337 23 2142 0
-293 55 -380 2143 0
383 219 118 2144 0
40 -66 155 2145 0
-140 -204 -478 2146 0
319 347 -414 2147 0
257 368 246 2148 0
-111 -231 -154 2149 0
-498 42 -54 2150 0
22 -123 -19 2151 0
-264 428 -436 2152 0
-329 -488 343 2153 0
446 271 -257 2154 0
401 18 480 2155 0
152 -83 444 2156 0
436 -372 162 2157 0
-330 310 -226 2158 0
427 -197 -395 2159 0
457 -160 103 2160 0
81 161 251 2161 0
-26 393 155 2162 0
-82 243 101 2163 0
75 -429 -173 2164 0
154 480 -461 2165 0
12 -306 31 2166 0
61 -425 -286 2167 0
-120 455 -295 2168 0
-461 486 243 2169 0
-476 -97 -498 2170 0
-461 291 259 2171 0
290 -321 375 2172 0
468 63 -179 2173 0
165 360 382 2174 0
-86 430 455 2175 0
-140 -489 242 2176 0
202 -288 -164 2177 0
-324 236 -444 2178 0
114 -276 -268 2179 0
438 -322 -212 2180 0
229 -241 179 2181 0
-172 -475 269 2182 0
135 -292 -261 2183 0
128 -162 490 2184 0
461 -151 494 2185 0
296 33 359 2186 0
281 -487 -445 2187 0
405 436 403 2188 0
-20 333 -251 2189 0
155 351 11 2190 0
412 -85 2 2191 0
303 -480 -340 2192 0
-181 473 -449 2193 0
-458 -387 290 2194 0
89 -400 -184 2195 0
325 -68 340 2196 0
-123 86 313 2197 0
-17 396 336 2198 0
325 -425 -463 2199 0
-414 -115 318 2200 0
355 -460 -315 2201 0
-263 268 -322 2202 0
378 -135 413 2203 0
-422 260 -412 2204 0
287 -28 -494 2205 0
-272 -365 54 2206 0
-485 112 123 2207 0
-265 43 13 2208 0
3 9 306 2209 0
148 424 -51 2210 0
16 -494 44 2211 0
69 -48 422 2212 0
-418 149 439 2213 0
-398 -298 -180 2214 0
156 -312 82 2215 0
11 150 91 2216 0
182 351 175 2217 0
333 122 303 2218 0
-289 -164 -216 2219 0
-237 -194 181 2220 0
-159 -413 375 2221 0
-371 162 215 2222 0
-23 113 -494 2223 0
-359 -162 -371 2224 0
-441 227 191 2225 0
-170 10 53 2226 0
22 -241 499 2227 0
366 238 -452 2228 0
-103 -326 484 2229 0
-114 -97 458 2230 0
-484 129 41 2231 0
-477 -235 -88 2232 0
475 -314 236 2233 0
239 426 -88 2234 0
178 149 -376 2235 0
66 -461 -24 2236 0
411 -71 -52 2237 0
-222 384 143 2238 0
-37 -288 164 2239 0
-425 394 -409 2240 0
-477 370 -193 2241 0
360 -313 -196 2242 0
-94 164 -24 2243 0
245 124 -302 2244 0
29 -467 365 2245 0
231 439 212 2246 0
230 363 -392 2247 0
124 154 -284 2248 0
-6 -195 201 2249 0
-287 -55 -480 2250 0
-239 -158 -184 2251 0
388 -257 -415 2252 0
255 -235 -240 2253 0
-69 92 -46 2254 0
144 157 488 2255 0
-169 -134 127 2256 0
-177 481 65 2257 0
-484 -233 218 2258 0
-50 102 79 2259 0
382 441 281 2260 0
414 -343 -251 2261 0
246 -322 432 2262 0
136 -312 325 2263 0
188 128 -126 2264 0
-323 342 73 2265 0
392 -472 -475 2266 0
-92 -289 -443 2267 0
446 181 -120 2268 0
361 -324 417 2269 0
-139 491 -16 2270 0
140 290 43 2271 0
80 342 -181 2272 0
477 -374 -324 2273 0
29 -228 269 2274 0
-116 -62 -94 2275 0
270 23 179 2276 0
-423 254 -110 2277 0
-240 -27 -39 2278 0
500 -364 432 2279 0
-364 379 -201 2280 0
147 80 430 2281 0
257 405 440 2282 0
-449 -147 191 2283 0
484 54 409 2284 0
476 169 -331 2285 0
-449 253 -37 2286 0
-207 -143 -114 2287 0
-203 242 444 2288 0
362 -371 138 2289 0
-419 277 -472 2290 0
158 490 285 2291 0
-302 348 366 2292 0
-296 250 -6 2293 0
208 -139 -216 2294 0
-350 -251 -465 2295 0
444 226 -36 2296 0
-34 -53 352 2297 0
-167 -415 43 2298 0
-343 476 -497 2299 0
318 29 -3 2300 0
311 -432 -82 2301 0
-487 -130 -373 2302 0
-361 -212 -118 2303 0
-250 238 -21 2304 0
57 -441 -125 2305 0
454 -156 132 2306 0
-15 384 100 2307 0
-494 40 73 2308 0
323 -85 -211 2309 0
480 -292 282 2310 0
340 59 -289 2311 0
409 179 -470 2312 0
234 99 -62 2313 0
-43 219 294 2314 0
-312 152 390 2315 0
487 460 -313 2316 0
33 372 -94 2317 0
-455 142 353 2318 0
-50 -203 -261 2319 0
459 -206 -299 2320 0
-262 -443 187 2321 0
-447 212 72 2322 0
-428 -500 -40 2323 0
400 -332 -333 2324 0
195 -310 -318 2325 0
-37 257 295 2326 0
-247 -216 -464 2327 0
-185 120 288 2328 0
-401 -238 -259 2329 0
393 -151 -311 2330 0
235 343 484 2331 0
383 66 -414 2332 0
-466 -445 282 2333 0
15 309 -398 2334 0
476 -248 128 2335 0
163 -55 -186 2336 0
-339 -463 361 2337 0
240 321 198 2338 0
-158 -362 -99 2339 0
368 -93 -325 2340 0
-143 147 202 2341 0
143 -6 -381 2342 0
-430 -157 496 2343 0
-69 -454 146 2344 0
-497 -308 346 2345 0
38 -402 -95 2346 0
-173 105 171 2347 0
-182 22 -254 2348 0
-263 430 338 2349 0
125 -132 -197 2350 0
265 -259 20 2351 0
345 476 109 2352 0
481 -40 -200 2353 0
221 -64 121 2354 0
167 -194 147 2355 0
-222 443 429 2356 0
252 231 76 2357 0
-465 -175 -186 2358 0
-481 105 145 2359 0
280 -196 314 2360 0
-118 338 -25 2361 0
217 -13 235 2362 0
-495 -346 -492 2363 0
213 195 312 2364 0
205 103 -180 2365 0
355 -142 149 2366 0
96 95 406 2367 0
336 -230 156 2368 0
13 -431 162 2369 0
-355 -42 -141 2370 0
269 100 37 2371 0
374 -475 390 2372 0
-232 -351 -429 2373 0
-88 374 -154 2374 0
445 -50 -465 2375 0
367 -171 180 2376 0
436 -362 -345 2377 0
101 72 -279 2378 0
443 492 496 2379 0
-219 174 319 2380 0
-349 354 -76 2381 0
369 -214 67 2382 0
30 -382 288 2383 0
96 32 20 2384 0
337 54 132 2385 0
-339 453 -466 2386 0
-213 173 307 2387 0
466 38 341 2388 0
-292 78 -409 2389 0
391 -49 144 2390 0
-478 -455 -53 2391 0
-170 -20 29 2392 0
-430 -34 59 2393 0
-382 490 -215 2394 0
-29 -340 189 2395 0
172 -97 58 2396 0
-454 -188 93 2397 0
-179 -461 -121 2398 0
38 -414 -347 2399 0
118 204 -117 2400 0
104 -48 380 2401 0
250 297 -112 2402 0
80 459 -409 2403 0
-189 204 395 2404 0
420 252 137 2405 0
-477 264 -193 2406 0
194 -446 56 2407 0
256 -435 -355 2408 0
104 163 53 2409 0
342 -324 121 2410 0
-476 109 415 2411 0
155 -31 -354 2412 0
-64 36 266 2413 0
-328 -492 414 2414 0
-398 -81 -303 2415 0
373 -77 231 2416 0
-348 -447 166 2417 0
353 138 124 2418 0
271 -6 -11 2419 0
39 -274 -388 2420 0
217 -135 -5 2421 0
319 -353 283 2422 0
8 144 -475 2423 0
-135 -379 397 2424 0
92 -290 259 2425 0
168 366 -410 2426 0
266 -301 468 2427 0
349 -390 331 2428 0
-259 284 248 2429 0
-25 335 281 2430 0
9 -24 -474 2431 0
430 -389 -237 2432 0
-373 -239 -400 2433 0
-479 -222 74 2434 0
-61 -215 34 2435 0
212 -396 -414 2436 0
189 -383 396 2437 0
-345 155 -250 2438 0
-380 -103 -493 2439 0
43 217 24 2440 0
-82 57 110 2441 0
342 -78 358 2442 0
-310 -420 42 2443 0
326 381 427 2444 0
-94 -195 -160 2445 0
313 485 -254 2446 0
421 297 -372 2447 0
-71 -5 -53 2448 0
-398 226 -465 2449 0
156 -458 150 2450 0
124 -488 -422 2451 0
-426 -430 135 2452 0
6 338 -146 2453 0
-254 -78 95 2454 0
-215 226 168 2455 0
216 -314 -489 2456 0
-403 -203 -201 2457 0
48 -406 8 2458 0
329 463 74 2459 0
145 -307 321 2460 0
-53 379 233 2461 0
-216 -317 296 2462 0
203 465 -180 2463 0
-265 357 -244 2464 0
382 -5 35 2465 0
54 -139 -176 2466 0
410 -171 -273 2467 0
329 40 -101 2468 0
-468 382 -346 2469 0
176 -343 -59 2470 0
184 279 -446 2471 0
-133 -441 -333 2472 0
-388 -188 -392 2473 0
18 351 426 2474 0
364 405 -223 2475 0
69 66 457 2476 0
343 -333 129 2477 0
-16 384 -420 2478 0
-373 -241 308 2479 0
-228 -54 -119 2480 0
434 481 317 2481 0
62 -11 -131 2482 0
281 -126 -277 2483 0
-49 -430 178 2484 0
-260 263 -7 2485 0
183 86 340 2486 0
58 -233 443 2487 0
215 491 3 2488 0
212 297 76 2489 0
396 263 471 2490 0
468 463 211 2491 0
-377 347 131 2492 0
144 350 27 2493 0
-365 104 -146 2494 0
152 -195 -462 2495 0
356 435 446 2496 0
-484 400 -489 2497 0
-402 33 84 2498 0
415 53 463 2499 0
-262 -411 -435 2500 0
-500 -113 -264 2501 0
-329 160 -114 2502 0
-409 190 -142 2503 0
-415 -369 -484 2504 0
186 -415 473 2505 0
-407 50 -96 2506 0
-426 -221 -46 2507 0
-464 -347 -62 2508 0
-366 425 -400 2509 0
136 159 -299 2510 0
-116 126 267 2511 0
-294 -370 435 2512 0
422 40 462 2513 0
-404 -70 166 2514 0
-251 71 353 2515 0
-347 -213 86 2516 0
381 -249 155 2517 0
-469 317 -230 2518 0
-27 -194 -417 2519 0
47 -397 153 2520 0
22 -136 58 2521 0
-151 -421 -275 2522 0
325 148 -456 2523 0
124 336 -350 2524 0
149 477 146 2525 0
-432 122 -247 2526 0
-263 -131 -433 2527 0
290 331 478 2528 0
-434 -495 -277 2529 0
28 -371 -434 2530 0
-458 388 -424 2531 0
307 -352 -376 2532 0
307 -451 -440 2533 0
144 192 -3 2534 0
-308 -46 195 2535 0
108 -226 25 2536 0
-260 -21 -176 2537 0
375 -248 -408 2538 0
-49 -471 -431 2539 0
-286 -227 -271 2540 0
-362 206 288 2541 0
-479 -491 71 2542 0
-116 -202 -341 2543 0
-45 220 -497 2544 0
28 6 -90 2545 0
340 -353 11 2546 0
-140 283 350 2547 0
-165 -72 159 2548 0
-194 -243 -63 2549 0
-92 310 -396 2550 0
245 145 -492 2551 0
152 433 -262 2552 0
-193 220 -312 2553 0
-87 -200 230 2554 0
-464 -463 -227 2555 0
-174 -24 188 2556 0
-291 128 -106 2557 0
-436 11 341 2558 0
345 302 -25 2559 0
1 -128 291 2560 0
-360 459 -94 2561 0
-255 186 27 2562 0
409 -141 498 2563 0
-206 -281 -283 2564 0
-473 6 123 2565 0
-87 118 -201 2566 0
312 382 -426 2567 0
-357 261 -262 2568 0
-403 -472 277 2569 0
-92 -377 -139 2570 0
-143 -332 -14 2571 0
-91 -317 -413 2572 0
105 69 33 2573 0
64 494 6 2574 0
152 21 -430 2575 0
-92 378 -62 2576 0
173 475 55 2577 0
-83 154 -58 2578 0
106 -425 -473 2579 0
343 387 -409 2580 0
-252 429 -449 2581 0
365 -318 -110 2582 0
-395 98 -201 2583 0
1 -141 -369 2584 0
491 90 126 2585 0
110 -55 -251 2586 0
-437 -358 -417 2587 0
183 -26 -486 2588 0
-87 -500 136 2589 0
195 -107 307 2590 0
-210 -359 -350 2591 0
-134 -500 325 2592 0
-497 213 82 2593 0
391 88 184 2594 0
-269 4 239 2595 0
268 53 439 2596 0
131 -217 -204 2597 0
260 -429 453 2598 0
406 206 168 2599 0
-390 172 194 2600 0
-20 -75 236 2601 0
-344 332 -72 2602 0
469 -102 -17 2603 0
-153 447 156 2604 0
-464 176 134 2605 0
201 -323 170 2606 0
-407 -4 -68 2607 0
-460 -328 278 2608 0
-228 189 460 2609 0
-356 -337 -438 2610 0
128 213 275 2611 0
486 -253 180 2612 0
425 290 490 2613 0
-72 145 -452 2614 0
-454 402 308 2615 0
399 -24 407 2616 0
117 -231 -76 2617 0
324 346 312 2618 0
-483 -227 -213 2619 0
-245 -419 279 2620 0
-141 185 214 2621 0
420 448 -308 2622 0
-151 -63 141 2623 0
-11 -224 62 2624 0
-250 -226 -123 2625 0
-139 -52 -393 2626 0
37 390 -277 2627 0
-51 366 367 2628 0
-495 -330 139 2629 0
-263 -376 -462 2630 0
107 150 232 2631 0
-447 235 -105 2632 0
-434 115 277 2633 0
-460 447 198 2634 0
-286 159 -58 2635 0
355 -92 269 2636 0
-168 -388 169 2637 0
70 -353 -181 2638 0
32 -67 -268 2639 0
-137 443 370 2640 0
-76 -234 -466 2641 0
37 253 -441 2642 0
-446 -325 437 2643 0
368 260 39 2644 0
-140 171 172 2645 0
-226 -488 363 2646 0
-55 -28 -51 2647 0
453 111 223 2648 0
-433 331 -26 2649 0
271 420 -244 2650 0
