p cnf 2650 2150
-44 -61 -205 501 0
245 -166 -252 502 0
285 -76 -49 503 0
-319 28 50 504 0
392 -108 120 505 0
-151 212 147 506 0
404 77 262 507 0
-467 -168 222 508 0
433 -387 126 509 0
-399 235 -128 510 0
416 -310 154 511 0
15 -142 -27 512 0
-292 -169 102 513 0
159 -400 404 514 0
479 -130 487 515 0
-308 -22 -73 516 0
69 -415 -432 517 0
477 -127 487 518 0
-111 -261 -35 519 0
-8 -187 37 520 0
357 297 107 521 0
266 34 -268 522 0
70 -259 198 523 0
-338 -59 306 524 0
-318 256 -236 525 0
462 -200 -42 526 0
-51 -253 -150 527 0
32 -441 194 528 0
-138 -109 255 529 0
314 -398 -2 530 0
-113 330 42 531 0
-157 -176 466 532 0
-373 155 479 533 0
-162 173 -222 534 0
379 -200 -367 535 0
-397 -226 498 536 0
-215 -313 388 537 0
282 115 -160 538 0
102 -218 -391 539 0
201 -3 -194 540 0
373 -73 -489 541 0
-488 -382 224 542 0
418 -477 -452 543 0
356 292 463 544 0
-140 -340 124 545 0
421 -161 460 546 0
-97 293 223 547 0
289 391 24 548 0
-87 63 -383 549 0
176 191 -325 550 0
34 22 -221 551 0
-303 276 171 552 0
401 496 -316 553 0
324 -63 114 554 0
126 -34 432 555 0
303 -137 -36 556 0
-158 268 -296 557 0
-244 43 -439 558 0
435 21 -315 559 0
258 -48 -125 560 0
89 -344 -480 561 0
-351 -446 473 562 0
73 -335 440 563 0
462 20 -484 564 0
-434 281 -373 565 0
248 236 123 566 0
-443 -399 -319 567 0
-499 -306 249 568 0
-148 -163 480 569 0
-87 -169 -462 570 0
-421 -450 149 571 0
87 207 130 572 0
-439 -449 321 573 0
260 247 -60 574 0
-353 -378 97 575 0
339 44 -125 576 0
-197 -285 167 577 0
-34 -469 72 578 0
464 293 -12 579 0
379 -63 -315 580 0
57 273 500 581 0
-230 172 389 582 0
27 289 230 583 0
-345 338 196 584 0
348 -53 236 585 0
-132 493 -416 586 0
169 -277 72 587 0
471 279 -90 588 0
-204 -391 362 589 0
58 -90 -10 590 0
-389 335 296 591 0
-458 274 -129 592 0
150 167 -198 593 0
-461 -143 -235 594 0
38 -386 83 595 0
-254 22 126 596 0
232 18 -372 597 0
229 -351 117 598 0
242 -183 46 599 0
133 277 74 600 0
-136 -287 202 601 0
440 -358 -31 602 0
51 -329 331 603 0
178 -224 -211 604 0
348 -110 69 605 0
279 -247 -24 606 0
-161 -183 -150 607 0
257 -233 -161 608 0
-180 -40 254 609 0
62 261 289 610 0
251 -114 420 611 0
-40 -400 -331 612 0
-229 121 -137 613 0
-465 -80 372 614 0
111 -68 243 615 0
478 -442 -183 616 0
428 -260 133 617 0
489 381 -318 618 0
80 -407 -453 619 0
-68 152 -220 620 0
335 438 313 621 0
173 -471 38 622 0
232 32 -317 623 0
-349 40 489 624 0
-44 -74 248 625 0
-456 254 -122 626 0
169 407 -115 627 0
-258 89 371 628 0
261 60 -389 629 0
-324 -401 -219 630 0
447 400 278 631 0
336 177 41 632 0
2 398 94 633 0
25 21 -313 634 0
-335 394 378 635 0
-284 -340 452 636 0
-130 -460 -324 637 0
-123 -207 54 638 0
239 -465 -194 639 0
-78 -374 -471 640 0
-176 375 493 641 0
-420 -458 -468 642 0
-364 408 -245 643 0
-407 20 -328 644 0
-486 407 -95 645 0
-176 -293 -477 646 0
-423 134 -397 647 0
-277 73 313 648 0
-221 -397 55 649 0
112 -39 -201 650 0
28 -202 13 651 0
197 307 -270 652 0
-264 -234 96 653 0
36 -20 -163 654 0
-36 -462 185 655 0
25 -269 -41 656 0
-41 421 -366 657 0
-198 256 -431 658 0
-37 409 -448 659 0
394 396 -313 660 0
69 324 275 661 0
438 -156 341 662 0
-240 165 -218 663 0
239 -363 -135 664 0
-492 -406 58 665 0
137 -499 -173 666 0
-435 -30 -392 667 0
-213 80 367 668 0
208 347 38 669 0
-69 -25 -45 670 0
-442 -469 -421 671 0
304 366 -137 672 0
-4 482 417 673 0
-198 -104 345 674 0
313 144 472 675 0
-61 -467 72 676 0
-301 139 461 677 0
-300 290 126 678 0
-202 -50 -49 679 0
48 -395 -414 680 0
-64 -401 -342 681 0
-184 312 295 682 0
-334 343 -194 683 0
-305 -74 -459 684 0
198 -107 320 685 0
235 222 106 686 0
-65 -256 281 687 0
255 -363 -62 688 0
347 359 -240 689 0
418 63 -360 690 0
244 -141 -409 691 0
-122 -104 -317 692 0
430 172 -455 693 0
-133 -21 371 694 0
445 -175 500 695 0
-304 141 -309 696 0
-117 359 -467 697 0
79 255 48 698 0
-247 -184 70 699 0
2 110 480 700 0
-55 -130 179 701 0
25 202 7 702 0
372 -235 394 703 0
-86 -6 -440 704 0
457 412 -153 705 0
205 -55 439 706 0
-16 -302 275 707 0
485 305 260 708 0
-199 -34 497 709 0
-307 -367 263 710 0
263 -65 355 711 0
460 -388 -40 712 0
-136 -401 69 713 0
28 -355 -200 714 0
-236 135 -325 715 0
215 -19 164 716 0
-21 144 -477 717 0
-262 -114 456 718 0
474 -335 -447 719 0
-301 253 -388 720 0
-179 257 422 721 0
416 216 483 722 0
-173 69 -369 723 0
162 -491 40 724 0
-490 218 -368 725 0
147 -105 -72 726 0
109 221 278 727 0
56 -451 -290 728 0
451 -52 -473 729 0
58 -381 -228 730 0
25 -84 165 731 0
-149 -409 482 732 0
254 170 -22 733 0
430 -369 402 734 0
-334 -109 -192 735 0
-271 -479 351 736 0
121 -385 346 737 0
-365 -185 179 738 0
-383 176 -247 739 0
306 -9 -108 740 0
-281 142 81 741 0
442 -16 -258 742 0
-25 -120 -333 743 0
122 -183 -468 744 0
-97 -216 43 745 0
-262 -31 -376 746 0
69 -113 64 747 0
-362 -338 -477 748 0
-63 2 -267 749 0
-25 207 -326 750 0
-252 -373 -186 751 0
-58 299 155 752 0
50 362 -422 753 0
331 -395 484 754 0
-1 19 400 755 0
21 288 -355 756 0
485 94 350 757 0
358 116 207 758 0
-326 396 140 759 0
-464 -279 211 760 0
196 -166 -374 761 0
124 -382 389 762 0
471 -289 -271 763 0
-414 -389 -252 764 0
98 -131 -219 765 0
-320 495 -451 766 0
-175 -147 195 767 0
-277 135 324 768 0
494 369 -471 769 0
7 419 257 770 0
-151 -65 483 771 0
-107 -127 -47 772 0
278 -21 -494 773 0
-93 -160 127 774 0
429 155 -304 775 0
-37 -35 373 776 0
235 188 -166 777 0
273 290 -362 778 0
-125 106 -496 779 0
16 47 132 780 0
-194 17 173 781 0
490 483 -408 782 0
301 -297 -182 783 0
279 231 286 784 0
-432 -256 463 785 0
-7 -417 97 786 0
494 -365 -40 787 0
229 -208 309 788 0
472 -240 277 789 0
423 321 165 790 0
398 -447 228 791 0
274 -471 396 792 0
11 -217 363 793 0
-313 233 494 794 0
97 -377 89 795 0
225 78 132 796 0
-8 160 132 797 0
339 467 -252 798 0
-132 -208 -307 799 0
-464 -432 101 800 0
-452 -366 -496 801 0
-164 -77 -242 802 0
418 141 224 803 0
88 460 -355 804 0
-57 -305 405 805 0
116 454 -455 806 0
241 -118 434 807 0
282 -176 -329 808 0
202 -499 -167 809 0
-275 286 -250 810 0
353 463 323 811 0
427 -124 -314 812 0
-316 -68 382 813 0
363 -179 307 814 0
419 -475 308 815 0
485 123 -20 816 0
166 294 105 817 0
-143 77 -29 818 0
-91 -10 456 819 0
116 -117 -417 820 0
-155 246 295 821 0
445 185 127 822 0
313 -129 -235 823 0
5 -224 -77 824 0
170 88 -5 825 0
-335 -312 27 826 0
406 53 -214 827 0
-88 353 -347 828 0
172 473 296 829 0
354 302 -349 830 0
230 177 253 831 0
150 -201 256 832 0
-172 -316 -381 833 0
-258 -433 416 834 0
-381 99 -68 835 0
392 183 -452 836 0
-27 -296 392 837 0
-90 -465 -9 838 0
-162 18 114 839 0
318 -172 -138 840 0
385 274 333 841 0
-138 -280 -346 842 0
260 -290 263 843 0
47 254 -421 844 0
-428 364 446 845 0
317 158 -194 846 0
450 53 259 847 0
32 -188 393 848 0
-262 -431 -254 849 0
50 -370 -246 850 0
305 94 479 851 0
260 -30 28 852 0
92 295 -394 853 0
-457 176 -301 854 0
-177 -148 267 855 0
441 -191 119 856 0
108 467 106 857 0
-413 158 216 858 0
-403 -317 -106 859 0
134 493 327 860 0
136 221 71 861 0
-468 367 341 862 0
-38 421 275 863 0
2 310 452 864 0
107 329 324 865 0
-332 -66 -348 866 0
-439 25 360 867 0
144 142 131 868 0
156 -98 -340 869 0
207 -134 229 870 0
293 363 -397 871 0
161 195 19 872 0
-162 454 -138 873 0
284 -97 333 874 0
-210 391 444 875 0
-93 -261 32 876 0
40 250 -138 877 0
495 212 43 878 0
443 -125 227 879 0
-30 -219 -439 880 0
-483 432 180 881 0
-147 417 -224 882 0
-186 368 218 883 0
-468 -238 -397 884 0
467 -14 402 885 0
-492 -476 -429 886 0
-451 75 481 887 0
4 -260 -303 888 0
449 84 -404 889 0
-477 234 -453 890 0
448 -132 -52 891 0
234 -48 -183 892 0
-75 -238 -63 893 0
-128 -21 27 894 0
147 -186 -54 895 0
-421 443 487 896 0
-437 63 346 897 0
429 89 276 898 0
22 464 -175 899 0
198 -322 408 900 0
-170 125 -423 901 0
37 41 107 902 0
-146 28 -360 903 0
-61 52 64 904 0
465 98 238 905 0
-19 68 454 906 0
443 -208 -316 907 0
339 459 -370 908 0
432 -100 417 909 0
298 245 -149 910 0
-479 -195 102 911 0
255 435 -294 912 0
-45 410 212 913 0
-386 -431 344 914 0
384 -251 489 915 0
-21 -416 411 916 0
472 -248 187 917 0
-382 -367 -238 918 0
8 50 -221 919 0
166 60 147 920 0
355 151 386 921 0
-355 197 -436 922 0
-415 -200 182 923 0
281 438 77 924 0
-79 -41 475 925 0
144 -416 118 926 0
490 -145 -147 927 0
-385 473 64 928 0
195 -343 16 929 0
-384 30 234 930 0
-317 -309 489 931 0
-354 -21 138 932 0
190 -414 -271 933 0
284 151 -153 934 0
-96 -201 399 935 0
-203 -286 -196 936 0
365 -242 215 937 0
160 466 188 938 0
-186 105 194 939 0
-380 463 36 940 0
13 -73 -57 941 0
-413 216 1 942 0
-325 39 427 943 0
-332 232 177 944 0
-318 -359 98 945 0
258 -204 489 946 0
43 386 293 947 0
417 -197 425 948 0
-173 -447 -134 949 0
133 -494 -477 950 0
-389 55 -234 951 0
-338 -278 -2 952 0
-417 426 250 953 0
-269 428 17 954 0
10 -361 414 955 0
346 -23 336 956 0
-312 190 -467 957 0
3 -279 68 958 0
88 -354 369 959 0
-499 151 327 960 0
-407 202 266 961 0
-246 465 -158 962 0
-254 -322 6 963 0
-362 -18 -366 964 0
-422 -102 361 965 0
-20 -401 268 966 0
225 361 107 967 0
-130 243 261 968 0
-91 260 343 969 0
235 314 -198 970 0
150 -245 -70 971 0
-492 383 -343 972 0
395 259 287 973 0
338 -298 437 974 0
-327 449 -225 975 0
-426 442 3 976 0
197 -440 -40 977 0
-298 263 444 978 0
-92 337 191 979 0
102 65 147 980 0
-243 -104 -394 981 0
7 -47 157 982 0
-244 162 212 983 0
44 299 -85 984 0
430 14 441 985 0
183 -78 -91 986 0
-123 440 449 987 0
-248 -334 -464 988 0
28 -215 156 989 0
-271 32 -49 990 0
84 127 262 991 0
-227 268 477 992 0
-333 -387 -441 993 0
-407 -465 -102 994 0
-490 -279 -320 995 0
-382 -373 -113 996 0
321 14 -139 997 0
-500 -98 165 998 0
-483 -353 316 999 0
60 485 295 1000 0
52 -176 -458 1001 0
-337 -286 -36 1002 0
197 416 -411 1003 0
-181 442 -400 1004 0
-79 -169 -3 1005 0
-180 37 -491 1006 0
-114 163 -382 1007 0
-68 106 -433 1008 0
404 -482 273 1009 0
218 126 -159 1010 0
-164 8 463 1011 0
-493 -167 132 1012 0
57 -316 -60 1013 0
-457 469 473 1014 0
160 -140 -343 1015 0
-187 231 276 1016 0
13 268 -27 1017 0
196 376 -451 1018 0
-417 105 441 1019 0
207 -85 335 1020 0
478 -117 329 1021 0
-388 198 -204 1022 0
-27 -112 -310 1023 0
354 -134 -133 1024 0
-11 252 -442 1025 0
-211 372 209 1026 0
413 -382 -119 1027 0
-76 399 -66 1028 0
381 120 -225 1029 0
416 -386 -315 1030 0
365 -263 -16 1031 0
-159 34 312 1032 0
430 412 -45 1033 0
-350 -271 -363 1034 0
307 -496 -264 1035 0
212 -82 -80 1036 0
-426 -475 -106 1037 0
398 239 -403 1038 0
301 335 -409 1039 0
-355 243 -359 1040 0
336 -282 -299 1041 0
285 243 -488 1042 0
485 463 88 1043 0
-187 -444 454 1044 0
-417 -28 -302 1045 0
-319 9 -416 1046 0
-104 44 38 1047 0
-214 437 -341 1048 0
328 -236 69 1049 0
102 -279 263 1050 0
-183 270 436 1051 0
115 152 121 1052 0
30 428 -282 1053 0
-413 253 -257 1054 0
-340 -42 139 1055 0
292 -26 -87 1056 0
-492 -334 318 1057 0
-383 -199 -393 1058 0
-15 355 -233 1059 0
492 -390 -68 1060 0
-369 391 -464 1061 0
151 -485 80 1062 0
-141 339 -117 1063 0
464 168 -123 1064 0
433 54 410 1065 0
126 417 -247 1066 0
-390 -418 104 1067 0
-167 154 57 1068 0
-356 215 218 1069 0
51 -161 -68 1070 0
439 -98 201 1071 0
60 441 -11 1072 0
-25 -193 270 1073 0
-20 -131 -157 1074 0
145 364 245 1075 0
-213 167 -421 1076 0
-473 176 444 1077 0
340 300 -479 1078 0
-47 -222 -416 1079 0
441 187 -156 1080 0
-273 -337 -185 1081 0
440 -79 411 1082 0
-191 330 189 1083 0
381 382 -204 1084 0
99 -305 -290 1085 0
321 27 297 1086 0
-74 -360 92 1087 0
-83 -268 -84 1088 0
-244 333 291 1089 0
482 -427 33 1090 0
-16 -308 117 1091 0
-221 -303 -8 1092 0
146 -328 -305 1093 0
-265 369 -485 1094 0
-490 192 18 1095 0
210 -169 -184 1096 0
-93 403 374 1097 0
-46 -376 -454 1098 0
-38 396 -258 1099 0
173 490 323 1100 0
-375 -22 311 1101 0
118 -323 -327 1102 0
434 -119 345 1103 0
-154 366 452 1104 0
-193 -16 -352 1105 0
-103 162 309 1106 0
151 -230 290 1107 0
307 -74 -50 1108 0
25 -49 353 1109 0
380 229 -374 1110 0
-433 489 56 1111 0
170 426 -172 1112 0
77 283 -275 1113 0
449 337 -267 1114 0
-473 -216 158 1115 0
324 -202 242 1116 0
96 -172 -314 1117 0
422 34 377 1118 0
109 -7 400 1119 0
-185 -83 197 1120 0
14 -95 -261 1121 0
306 -105 -26 1122 0
-455 32 123 1123 0
164 447 463 1124 0
47 -99 -123 1125 0
-115 -6 -208 1126 0
260 -80 431 1127 0
-377 142 -320 1128 0
190 127 346 1129 0
-12 -3 -159 1130 0
-89 -254 27 1131 0
199 -37 -274 1132 0
435 -118 -459 1133 0
-194 334 119 1134 0
486 -248 294 1135 0
260 366 20 1136 0
214 -16 -341 1137 0
398 -245 -261 1138 0
-485 -35 -335 1139 0
399 -327 368 1140 0
-182 486 340 1141 0
268 422 -466 1142 0
9 252 -110 1143 0
-318 -398 -423 1144 0
287 -492 459 1145 0
-231 -428 -410 1146 0
-160 -327 94 1147 0
-249 -348 -183 1148 0
-55 275 85 1149 0
289 -348 246 1150 0
460 -462 90 1151 0
101 -72 -203 1152 0
-485 -213 -51 1153 0
-34 399 -134 1154 0
444 -305 445 1155 0
337 291 474 1156 0
-486 37 -118 1157 0
279 409 -305 1158 0
-72 6 -287 1159 0
58 493 -106 1160 0
458 -183 113 1161 0
-121 -388 94 1162 0
194 -43 -57 1163 0
186 22 -31 1164 0
-41 -21 -364 1165 0
277 390 -206 1166 0
-419 -345 -160 1167 0
116 434 -287 1168 0
-477 30 36 1169 0
148 -305 -319 1170 0
1 -18 481 1171 0
307 164 -403 1172 0
255 -336 327 1173 0
158 347 224 1174 0
395 -296 -96 1175 0
34 -162 -83 1176 0
406 3 -237 1177 0
-111 5 217 1178 0
-16 -250 -491 1179 0
240 189 -477 1180 0
-42 -231 -307 1181 0
-170 93 37 1182 0
-497 -89 6 1183 0
-270 100 -450 1184 0
-494 -98 182 1185 0
-139 -7 187 1186 0
-478 410 -331 1187 0
-34 -246 115 1188 0
358 -57 238 1189 0
-40 -5 433 1190 0
161 170 88 1191 0
283 430 -480 1192 0
-75 -259 -419 1193 0
-158 -122 -80 1194 0
70 361 -298 1195 0
324 -443 -84 1196 0
-488 141 -453 1197 0
122 -291 21 1198 0
-498 -461 -290 1199 0
-369 30 292 1200 0
29 -327 -446 1201 0
-181 -221 -84 1202 0
-31 456 250 1203 0
-283 -440 -31 1204 0
-129 -431 481 1205 0
-157 -107 376 1206 0
77 -227 433 1207 0
-157 -407 -143 1208 0
35 -279 206 1209 0
93 -341 -411 1210 0
-404 -111 -298 1211 0
-330 -460 162 1212 0
191 -296 -47 1213 0
-264 -114 -124 1214 0
-369 132 -231 1215 0
411 -448 207 1216 0
-144 372 212 1217 0
-432 435 -434 1218 0
-33 424 -36 1219 0
455 -480 92 1220 0
211 -33 66 1221 0
-460 459 -217 1222 0
413 415 348 1223 0
48 162 219 1224 0
102 396 -205 1225 0
384 442 -376 1226 0
-390 -157 27 1227 0
90 -308 -58 1228 0
416 435 -25 1229 0
73 -353 22 1230 0
-334 438 332 1231 0
-227 -45 -374 1232 0
112 132 190 1233 0
91 301 -206 1234 0
490 -456 -229 1235 0
113 -372 -56 1236 0
93 439 83 1237 0
243 308 -385 1238 0
375 -237 281 1239 0
-119 334 266 1240 0
93 287 480 1241 0
-288 183 89 1242 0
-302 -423 -20 1243 0
29 -245 -351 1244 0
115 -331 -395 1245 0
-259 -499 204 1246 0
205 -254 -252 1247 0
-205 -282 465 1248 0
243 20 -242 1249 0
-325 -252 -28 1250 0
151 259 -180 1251 0
-203 98 -464 1252 0
-106 332 -231 1253 0
-431 244 371 1254 0
173 27 323 1255 0
14 -447 83 1256 0
-446 428 15 1257 0
309 -203 -263 1258 0
336 -310 -345 1259 0
73 107 332 1260 0
-362 -82 -116 1261 0
-16 -241 322 1262 0
-35 -184 113 1263 0
381 -282 169 1264 0
-314 399 285 1265 0
476 144 -468 1266 0
24 -396 -217 1267 0
-45 -137 -75 1268 0
-248 -445 400 1269 0
223 -13 -171 1270 0
-353 52 302 1271 0
103 -223 -302 1272 0
-13 277 42 1273 0
-13 334 -119 1274 0
388 -50 -474 1275 0
440 -11 472 1276 0
27 45 -62 1277 0
-309 123 -14 1278 0
60 309 284 1279 0
340 -241 23 1280 0
231 -247 -450 1281 0
-56 397 137 1282 0
130 92 387 1283 0
-190 209 -111 1284 0
141 -205 -340 1285 0
292 349 236 1286 0
410 -404 -66 1287 0
-135 271 257 1288 0
73 98 380 1289 0
-3 327 440 1290 0
-202 412 450 1291 0
49 287 -402 1292 0
192 -44 -292 1293 0
12 -281 -345 1294 0
88 -163 497 1295 0
-163 178 463 1296 0
445 389 -203 1297 0
232 -205 -378 1298 0
-377 -220 484 1299 0
297 -192 -100 1300 0
240 -203 281 1301 0
184 221 -429 1302 0
298 -403 59 1303 0
83 319 332 1304 0
-120 -128 -316 1305 0
-142 -198 -229 1306 0
269 -374 -317 1307 0
152 295 342 1308 0
361 479 140 1309 0
112 410 -462 1310 0
-125 -293 234 1311 0
149 472 -359 1312 0
-80 -436 319 1313 0
234 -394 -371 1314 0
-292 -212 382 1315 0
479 100 108 1316 0
405 330 -45 1317 0
468 -77 104 1318 0
190 -298 -328 1319 0
426 -222 38 1320 0
123 -388 296 1321 0
412 364 155 1322 0
4 -72 -16 1323 0
-268 -125 -478 1324 0
-478 -6 35 1325 0
-121 164 494 1326 0
367 300 -348 1327 0
287 61 -341 1328 0
-442 -166 -318 1329 0
256 -436 13 1330 0
294 -244 487 1331 0
288 -457 -258 1332 0
-335 -498 413 1333 0
308 452 267 1334 0
27 470 -224 1335 0
206 -438 471 1336 0
342 309 -460 1337 0
176 177 19 1338 0
328 213 -35 1339 0
-449 -201 340 1340 0
68 -413 -240 1341 0
123 -351 9 1342 0
301 477 228 1343 0
50 145 488 1344 0
281 -125 -164 1345 0
-427 -254 -66 1346 0
-118 -389 163 1347 0
-325 51 -210 1348 0
-74 -232 314 1349 0
-296 268 220 1350 0
-194 -310 291 1351 0
-369 -329 333 1352 0
-385 428 351 1353 0
68 -342 441 1354 0
6 -236 44 1355 0
-470 457 -439 1356 0
57 -105 -66 1357 0
-204 -440 193 1358 0
422 -353 -354 1359 0
-11 -48 458 1360 0
215 -165 483 1361 0
-188 -203 -151 1362 0
486 -260 22 1363 0
469 170 -395 1364 0
286 70 452 1365 0
271 -192 -248 1366 0
-191 -433 -416 1367 0
109 -19 198 1368 0
-8 468 -395 1369 0
-82 -385 405 1370 0
305 -316 -389 1371 0
393 -103 17 1372 0
-364 -446 264 1373 0
261 242 -430 1374 0
-30 98 16 1375 0
-54 78 90 1376 0
-106 191 -263 1377 0
288 -260 -358 1378 0
106 -243 443 1379 0
-430 44 375 1380 0
93 -208 -416 1381 0
-339 -444 -406 1382 0
39 379 -87 1383 0
210 151 -288 1384 0
382 154 99 1385 0
-251 284 -12 1386 0
499 -72 -309 1387 0
-2 -164 388 1388 0
17 173 47 1389 0
415 250 180 1390 0
461 68 459 1391 0
-427 149 -171 1392 0
208 -296 -460 1393 0
-113 -131 268 1394 0
197 -358 152 1395 0
-27 -339 296 1396 0
354 -313 152 1397 0
284 243 -401 1398 0
-397 116 466 1399 0
-274 -157 -303 1400 0
-55 225 173 1401 0
380 -149 58 1402 0
-419 -45 37 1403 0
-85 -326 27 1404 0
-85 148 105 1405 0
190 -17 3 1406 0
46 54 123 1407 0
108 -312 -299 1408 0
319 -176 67 1409 0
-170 -313 -62 1410 0
-156 -141 -457 1411 0
-435 -273 -454 1412 0
-355 187 145 1413 0
-133 31 -186 1414 0
-483 320 -473 1415 0
83 -255 -449 1416 0
-80 -167 101 1417 0
-353 320 -273 1418 0
-74 -255 39 1419 0
141 -78 -417 1420 0
-357 -488 -167 1421 0
-338 109 -321 1422 0
-336 473 -29 1423 0
-225 -495 -461 1424 0
382 168 310 1425 0
-428 419 -36 1426 0
94 -456 244 1427 0
360 -315 335 1428 0
236 -181 184 1429 0
-364 477 152 1430 0
-431 112 181 1431 0
-42 -385 -168 1432 0
487 43 86 1433 0
59 -40 88 1434 0
-301 -46 25 1435 0
-234 480 -371 1436 0
353 -290 70 1437 0
-68 -98 -18 1438 0
-375 376 454 1439 0
-95 474 370 1440 0
-367 -414 42 1441 0
365 414 464 1442 0
-346 103 98 1443 0
224 -31 -322 1444 0
324 -46 153 1445 0
453 374 268 1446 0
132 250 -4 1447 0
-41 -12 56 1448 0
-121 130 299 1449 0
-470 478 203 1450 0
-480 -27 134 1451 0
402 -298 324 1452 0
-220 -173 -205 1453 0
-74 349 94 1454 0
-22 -90 396 1455 0
23 230 212 1456 0
-239 -97 320 1457 0
-41 172 92 1458 0
-166 -8 -170 1459 0
441 -302 74 1460 0
-130 -317 -117 1461 0
331 -50 -188 1462 0
-260 -5 -288 1463 0
-2 301 258 1464 0
-418 491 -339 1465 0
205 227 -129 1466 0
-252 229 -405 1467 0
-208 496 153 1468 0
14 470 -254 1469 0
-427 163 332 1470 0
243 39 -366 1471 0
-348 -385 -372 1472 0
-210 -340 -321 1473 0
19 -445 370 1474 0
388 249 307 1475 0
-113 -296 -441 1476 0
-9 -107 245 1477 0
-35 -296 340 1478 0
-251 333 -164 1479 0
-184 18 8 1480 0
189 110 301 1481 0
-76 -180 488 1482 0
-197 335 217 1483 0
255 -392 159 1484 0
394 -437 -35 1485 0
377 -483 -61 1486 0
-456 -324 -228 1487 0
-351 450 -413 1488 0
-228 -18 284 1489 0
-182 298 -102 1490 0
470 102 63 1491 0
-227 400 -308 1492 0
354 425 236 1493 0
-436 376 -392 1494 0
112 350 500 1495 0
-68 381 -228 1496 0
346 381 326 1497 0
345 -34 -405 1498 0
210 347 -173 1499 0
-81 -192 124 1500 0
-306 -344 -449 1501 0
-7 -428 -475 1502 0
318 -323 90 1503 0
186 29 12 1504 0
-123 403 -307 1505 0
263 380 -148 1506 0
-244 55 -352 1507 0
-316 -368 311 1508 0
-348 -356 158 1509 0
116 333 -437 1510 0
-399 406 -466 1511 0
-477 -359 -308 1512 0
15 139 -351 1513 0
-326 330 156 1514 0
-454 273 211 1515 0
-340 416 450 1516 0
8 361 132 1517 0
499 -168 -16 1518 0
88 -255 -258 1519 0
440 -160 -366 1520 0
-90 -44 -137 1521 0
130 291 378 1522 0
-445 373 -121 1523 0
241 252 -454 1524 0
-488 -184 100 1525 0
-489 -28 -466 1526 0
30 129 340 1527 0
300 -395 -454 1528 0
-3 386 -309 1529 0
-177 -215 -69 1530 0
133 7 -359 1531 0
295 -292 90 1532 0
-375 -416 334 1533 0
272 152 469 1534 0
292 117 -482 1535 0
337 -29 -25 1536 0
464 -108 305 1537 0
428 247 63 1538 0
142 -365 396 1539 0
161 -88 346 1540 0
-247 -372 129 1541 0
-355 -214 -253 1542 0
426 369 324 1543 0
299 191 -148 1544 0
-352 466 118 1545 0
436 376 -168 1546 0
-284 298 167 1547 0
342 -191 -170 1548 0
-139 -485 53 1549 0
-293 411 331 1550 0
423 -499 43 1551 0
94 -313 -129 1552 0
343 223 -29 1553 0
-133 495 -348 1554 0
-123 16 52 1555 0
500 -258 -396 1556 0
500 115 -496 1557 0
281 192 -342 1558 0
-84 177 7 1559 0
32 -215 294 1560 0
500 -342 72 1561 0
-250 -442 -228 1562 0
362 260 -43 1563 0
490 484 -205 1564 0
-343 -361 -147 1565 0
-307 285 408 1566 0
-315 27 262 1567 0
94 162 171 1568 0
138 307 -308 1569 0
-158 -286 -301 1570 0
-362 -426 94 1571 0
-112 232 262 1572 0
-45 89 -231 1573 0
401 272 70 1574 0
493 -444 415 1575 0
-225 306 -296 1576 0
68 418 425 1577 0
-391 90 321 1578 0
-248 12 -480 1579 0
473 280 402 1580 0
-234 -388 256 1581 0
97 444 204 1582 0
-242 -445 404 1583 0
-252 -105 147 1584 0
-85 42 -6 1585 0
-479 -249 483 1586 0
385 -178 -207 1587 0
420 74 332 1588 0
16 344 -376 1589 0
292 -92 168 1590 0
-290 -156 -351 1591 0
-138 153 461 1592 0
415 295 -29 1593 0
294 -455 168 1594 0
-277 486 -381 1595 0
341 -240 -90 1596 0
268 -252 312 1597 0
102 -115 -363 1598 0
-412 -463 -368 1599 0
-401 7 -306 1600 0
485 238 198 1601 0
192 256 455 1602 0
320 -219 -426 1603 0
-102 -57 -354 1604 0
1 179 -230 1605 0
-398 67 82 1606 0
-266 -421 -438 1607 0
-449 -232 33 1608 0
-482 -203 -130 1609 0
-204 -23 284 1610 0
-308 51 265 1611 0
334 -390 -405 1612 0
-215 -184 -212 1613 0
339 -25 373 1614 0
-301 -297 -36 1615 0
311 462 34 1616 0
-320 -238 -383 1617 0
-496 460 112 1618 0
107 -383 143 1619 0
208 366 -399 1620 0
-149 271 330 1621 0
358 -162 -164 1622 0
309 71 -334 1623 0
-490 -441 -219 1624 0
-117 -69 489 1625 0
-333 -207 336 1626 0
63 97 113 1627 0
89 97 -219 1628 0
348 234 -211 1629 0
-443 435 324 1630 0
-382 -123 310 1631 0
108 -186 345 1632 0
-271 3 333 1633 0
409 450 -435 1634 0
-492 297 479 1635 0
-228 -38 449 1636 0
450 -236 481 1637 0
419 -375 -373 1638 0
-58 211 -391 1639 0
246 -403 -183 1640 0
-448 245 -123 1641 0
-29 72 -199 1642 0
259 378 8 1643 0
-454 98 429 1644 0
439 -488 313 1645 0
-482 360 149 1646 0
159 466 359 1647 0
-159 72 217 1648 0
82 59 310 1649 0
257 262 189 1650 0
341 -418 -255 1651 0
244 -189 59 1652 0
-235 430 -13 1653 0
421 297 -113 1654 0
-152 -123 433 1655 0
-238 -440 435 1656 0
285 -478 278 1657 0
-422 -28 346 1658 0
349 -12 -416 1659 0
-181 287 -394 1660 0
-409 -101 -23 1661 0
-142 429 -488 1662 0
327 409 249 1663 0
-305 322 -58 1664 0
-333 10 129 1665 0
-151 293 285 1666 0
-146 -389 186 1667 0
139 -471 -49 1668 0
-375 175 -285 1669 0
392 449 439 1670 0
-406 457 208 1671 0
94 232 311 1672 0
17 358 459 1673 0
-265 -252 231 1674 0
-80 -321 -275 1675 0
-293 -229 -430 1676 0
-446 239 -351 1677 0
-350 32 -196 1678 0
22 -51 217 1679 0
-475 -301 -69 1680 0
21 -114 -106 1681 0
147 -329 -336 1682 0
-209 456 -33 1683 0
-442 148 -335 1684 0
242 229 479 1685 0
73 -175 -188 1686 0
-95 151 369 1687 0
185 -357 303 1688 0
459 343 1 1689 0
239 -43 231 1690 0
-488 -53 55 1691 0
-478 71 153 1692 0
-467 -476 487 1693 0
316 -336 74 1694 0
251 414 93 1695 0
294 -248 421 1696 0
-78 356 498 1697 0
254 -233 259 1698 0
90 24 56 1699 0
-324 -246 -485 1700 0
-6 345 120 1701 0
146 90 6 1702 0
-6 280 -468 1703 0
-315 -125 -108 1704 0
351 -126 76 1705 0
-108 -375 -249 1706 0
-110 -398 395 1707 0
247 490 -386 1708 0
114 48 395 1709 0
-10 -114 -16 1710 0
91 -330 -164 1711 0
-268 347 -290 1712 0
99 273 -318 1713 0
473 -123 109 1714 0
51 -434 387 1715 0
154 -194 331 1716 0
-374 -15 -351 1717 0
224 325 265 1718 0
79 125 143 1719 0
128 -486 -429 1720 0
164 480 372 1721 0
-203 346 -333 1722 0
-432 -387 126 1723 0
310 388 270 1724 0
246 199 -279 1725 0
-171 24 -381 1726 0
88 362 54 1727 0
481 72 -269 1728 0
-337 148 349 1729 0
310 195 -147 1730 0
-38 -303 474 1731 0
15 181 485 1732 0
392 -461 -426 1733 0
58 465 344 1734 0
260 -396 -185 1735 0
-500 -492 403 1736 0
-236 323 110 1737 0
423 -455 276 1738 0
17 419 360 1739 0
93 -86 312 1740 0
54 -364 145 1741 0
498 18 67 1742 0
457 -246 339 1743 0
-188 199 -456 1744 0
261 277 -198 1745 0
374 -411 61 1746 0
-115 178 -169 1747 0
-413 128 335 1748 0
-69 -18 -9 1749 0
182 490 -465 1750 0
448 83 -402 1751 0
-31 129 17 1752 0
327 303 91 1753 0
431 292 18 1754 0
38 294 295 1755 0
31 -459 346 1756 0
-114 30 -359 1757 0
-377 317 52 1758 0
384 307 334 1759 0
457 136 -246 1760 0
-173 -134 140 1761 0
-410 148 260 1762 0
381 283 225 1763 0
-171 477 419 1764 0
-95 369 436 1765 0
-346 412 -212 1766 0
-159 -188 130 1767 0
-303 -316 -64 1768 0
96 414 -449 1769 0
-431 -37 -447 1770 0
231 149 -284 1771 0
487 -237 -166 1772 0
407 87 -50 1773 0
467 140 433 1774 0
-233 61 -283 1775 0
-339 -500 473 1776 0
-110 18 247 1777 0
298 -341 -443 1778 0
464 -478 -184 1779 0
70 353 109 1780 0
488 -158 -455 1781 0
-498 -298 158 1782 0
133 447 -230 1783 0
191 -439 -38 1784 0
193 -449 343 1785 0
325 119 -67 1786 0
-16 18 305 1787 0
43 -416 -16 1788 0
-37 289 -265 1789 0
79 -68 5 1790 0
267 -79 -143 1791 0
475 -476 485 1792 0
356 -488 -327 1793 0
-375 84 9 1794 0
-222 -270 489 1795 0
-49 -359 -72 1796 0
62 270 287 1797 0
415 -1 -196 1798 0
260 -459 -388 1799 0
340 -385 59 1800 0
259 -270 320 1801 0
496 389 91 1802 0
-105 -170 38 1803 0
39 498 -481 1804 0
-209 -439 423 1805 0
26 1 -48 1806 0
-197 14 -123 1807 0
-280 19 465 1808 0
-76 265 182 1809 0
390 -133 -404 1810 0
42 -436 193 1811 0
126 -357 51 1812 0
-97 426 346 1813 0
205 -306 -435 1814 0
-69 272 443 1815 0
76 394 250 1816 0
434 -262 327 1817 0
217 -191 -358 1818 0
189 107 29 1819 0
94 369 252 1820 0
159 481 355 1821 0
371 -422 433 1822 0
343 195 339 1823 0
377 -480 -408 1824 0
405 -445 -336 1825 0
24 -67 101 1826 0
319 -253 -23 1827 0
-413 -437 -99 1828 0
402 274 206 1829 0
-235 -285 251 1830 0
-204 -20 -444 1831 0
394 -87 -469 1832 0
-61 -353 203 1833 0
391 326 30 1834 0
-366 -182 -211 1835 0
173 271 -107 1836 0
-273 -487 -240 1837 0
470 311 156 1838 0
42 61 133 1839 0
334 -400 93 1840 0
-184 -67 -260 1841 0
-208 322 -459 1842 0
479 248 143 1843 0
29 -5 427 1844 0
184 -19 10 1845 0
-46 -119 265 1846 0
178 -94 80 1847 0
342 92 137 1848 0
65 -403 53 1849 0
285 401 -205 1850 0
-394 217 10 1851 0
-393 413 145 1852 0
335 -229 -146 1853 0
-124 -298 -313 1854 0
-443 -468 179 1855 0
-307 -241 -256 1856 0
-21 -102 333 1857 0
95 -117 -383 1858 0
216 207 144 1859 0
-400 -216 -147 1860 0
211 75 334 1861 0
178 246 -419 1862 0
-40 311 -178 1863 0
274 -235 -156 1864 0
-355 -78 391 1865 0
389 406 391 1866 0
485 30 -461 1867 0
-368 216 -182 1868 0
-182 -30 -84 1869 0
31 459 79 1870 0
-185 403 -146 1871 0
330 205 400 1872 0
-353 461 179 1873 0
138 227 -65 1874 0
289 237 335 1875 0
371 -491 -435 1876 0
37 -489 -183 1877 0
294 -268 -144 1878 0
-426 103 473 1879 0
-348 125 87 1880 0
-375 -136 449 1881 0
-20 -139 -151 1882 0
-230 285 141 1883 0
-59 -338 -40 1884 0
-460 424 467 1885 0
271 -134 35 1886 0
465 377 -316 1887 0
-256 181 -376 1888 0
-269 176 392 1889 0
302 -496 -497 1890 0
128 20 -452 1891 0
232 -147 -114 1892 0
492 -127 -254 1893 0
100 -489 -250 1894 0
290 -376 369 1895 0
-370 296 -271 1896 0
139 -10 290 1897 0
-427 475 11 1898 0
-265 -181 -102 1899 0
130 326 -216 1900 0
125 -149 -41 1901 0
-112 422 205 1902 0
-59 162 -359 1903 0
33 144 362 1904 0
333 267 -442 1905 0
-446 88 -204 1906 0
71 -128 346 1907 0
375 -203 -494 1908 0
-99 -65 104 1909 0
436 164 171 1910 0
-284 -382 -438 1911 0
-76 -264 -69 1912 0
170 13 410 1913 0
-74 468 -467 1914 0
336 -96 325 1915 0
-253 47 -38 1916 0
92 125 449 1917 0
113 -190 -292 1918 0
-109 384 -213 1919 0
67 293 75 1920 0
310 -9 -458 1921 0
41 -337 -319 1922 0
499 -194 184 1923 0
479 -334 -300 1924 0
246 63 -449 1925 0
-9 -241 469 1926 0
-75 -391 -483 1927 0
292 -180 22 1928 0
-214 384 -477 1929 0
48 -435 202 1930 0
416 442 -34 1931 0
-291 -7 231 1932 0
181 -45 493 1933 0
-132 82 -157 1934 0
433 -9 111 1935 0
338 -370 21 1936 0
-303 -347 -322 1937 0
-379 -488 -309 1938 0
352 -434 -425 1939 0
140 388 21 1940 0
408 -118 491 1941 0
246 -19 -321 1942 0
472 400 -161 1943 0
497 -1 149 1944 0
-368 -282 310 1945 0
-139 316 -87 1946 0
184 -319 -113 1947 0
47 273 -83 1948 0
468 82 89 1949 0
310 -278 -396 1950 0
-121 465 -13 1951 0
-487 -478 195 1952 0
346 335 155 1953 0
191 184 342 1954 0
232 409 -219 1955 0
350 -273 363 1956 0
-210 153 169 1957 0
-499 165 -461 1958 0
-320 -483 -369 1959 0
100 -163 -206 1960 0
-242 -135 307 1961 0
198 406 -233 1962 0
303 18 -430 1963 0
-21 386 480 1964 0
314 -64 -82 1965 0
402 368 342 1966 0
-210 -267 495 1967 0
-392 -311 294 1968 0
9 -113 -33 1969 0
30 376 -220 1970 0
-27 307 202 1971 0
-363 -451 -11 1972 0
181 -421 126 1973 0
264 258 -275 1974 0
320 230 -305 1975 0
-89 -319 415 1976 0
-339 -417 406 1977 0
469 488 383 1978 0
409 -398 -87 1979 0
-293 408 -17 1980 0
-306 230 -125 1981 0
402 -401 273 1982 0
-153 87 -196 1983 0
-319 -20 91 1984 0
-339 487 -201 1985 0
390 -8 -76 1986 0
-110 -105 204 1987 0
309 374 -81 1988 0
386 500 8 1989 0
160 391 201 1990 0
-478 59 -94 1991 0
-307 179 -248 1992 0
-232 -192 83 1993 0
-122 288 443 1994 0
315 52 -238 1995 0
283 280 281 1996 0
-106 170 -153 1997 0
445 260 -40 1998 0
215 -387 -500 1999 0
220 185 -27 2000 0
-137 316 11 2001 0
-75 315 406 2002 0
453 -358 318 2003 0
-418 -159 -132 2004 0
322 -362 -445 2005 0
-241 -233 -152 2006 0
258 -211 -425 2007 0
70 308 -345 2008 0
-117 235 -270 2009 0
92 296 -165 2010 0
-200 154 -460 2011 0
230 -240 348 2012 0
458 -348 -487 2013 0
-469 -110 82 2014 0
41 -360 -213 2015 0
462 212 -245 2016 0
46 -244 151 2017 0
-59 433 -307 2018 0
282 -84 418 2019 0
-213 146 252 2020 0
-437 -457 276 2021 0
134 -109 -113 2022 0
-385 -467 357 2023 0
171 -346 161 2024 0
-361 -372 -77 2025 0
-88 -337 -13 2026 0
94 -84 78 2027 0
-345 -433 380 2028 0
494 405 -478 2029 0
-149 -193 322 2030 0
-481 87 -492 2031 0
374 191 -370 2032 0
337 382 391 2033 0
-55 -33 481 2034 0
-308 -298 -353 2035 0
-175 370 -69 2036 0
-69 -362 -227 2037 0
359 -433 -273 2038 0
-169 402 -208 2039 0
319 -413 -227 2040 0
98 428 401 2041 0
-82 -352 228 2042 0
-132 455 314 2043 0
471 42 261 2044 0
334 451 -189 2045 0
132 -45 446 2046 0
26 419 204 2047 0
335 148 106 2048 0
311 224 -166 2049 0
277 58 -35 2050 0
25 -491 459 2051 0
85 233 -423 2052 0
273 -61 125 2053 0
387 -97 -91 2054 0
-154 113 -178 2055 0
-482 294 -249 2056 0
-91 -338 48 2057 0
371 -329 91 2058 0
-365 -441 -35 2059 0
482 -392 52 2060 0
161 197 483 2061 0
108 17 -255 2062 0
223 -60 216 2063 0
32 57 -217 2064 0
-43 344 279 2065 0
277 -319 176 2066 0
304 -49 175 2067 0
181 -68 127 2068 0
-75 126 -148 2069 0
-219 270 -322 2070 0
275 134 -432 2071 0
-224 -78 332 2072 0
484 184 -492 2073 0
44 159 -270 2074 0
184 251 -86 2075 0
-224 -28 131 2076 0
402 -411 -430 2077 0
244 254 179 2078 0
-62 -463 345 2079 0
-126 -258 -415 2080 0
-372 -142 331 2081 0
294 -12 345 2082 0
124 52 170 2083 0
-119 -2 72 2084 0
129 126 -457 2085 0
-92 -30 -247 2086 0
87 -216 95 2087 0
269 -161 444 2088 0
3 422 397 2089 0
91 304 190 2090 0
-14 395 189 2091 0
-69 497 119 2092 0
185 65 107 2093 0
181 -365 -438 2094 0
464 -113 -159 2095 0
267 -429 485 2096 0
129 188 476 2097 0
21 248 281 2098 0
103 366 461 2099 0
43 -413 120 2100 0
-125 52 -272 2101 0
-296 -18 -247 2102 0
73 109 57 2103 0
498 22 -310 2104 0
124 283 -303 2105 0
89 300 -155 2106 0
137 -458 261 2107 0
-463 302 399 2108 0
-442 -84 -354 2109 0
307 -9 18 2110 0
-336 76 -187 2111 0
103 289 -49 2112 0
193 404 277 2113 0
424 -261 378 2114 0
28 500 239 2115 0
414 143 -286 2116 0
-120 -196 110 2117 0
-14 223 -178 2118 0
385 -254 -419 2119 0
-334 -247 -495 2120 0
443 102 -116 2121 0
-84 -203 -362 2122 0
-488 299 -145 2123 0
105 281 -349 2124 0
-369 -52 56 2125 0
395 -461 439 2126 0
-485 -315 254 2127 0
-284 445 194 2128 0
381 83 249 2129 0
-308 197 -365 2130 0
373 289 -295 2131 0
109 390 -74 2132 0
-379 -301 467 2133 0
-107 -453 -363 2134 0
227 313 -38 2135 0
-453 226 -289 2136 0
274 491 -317 2137 0
-224 -139 -384 2138 0
-61 8 -20 2139 0
117 270 421 2140 0
-330 -394 20 2141 0
-459 46 -192 2142 0
-101 405 -128 2143 0
-82 400 -95 2144 0
309 262 477 2145 0
260 -37 -363 2146 0
274 470 -287 2147 0
128 -158 459 2148 0
326 -27 398 2149 0
353 239 7 2150 0
-240 -146 -256 2151 0
71 347 -318 2152 0
-405 -442 45 2153 0
-37 -167 -211 2154 0
344 -435 110 2155 0
268 -302 -180 2156 0
-340 -434 4 2157 0
-18 265 147 2158 0
-117 -417 83 2159 0
-394 303 184 2160 0
-247 -149 167 2161 0
162 158 225 2162 0
230 255 -465 2163 0
12 202 65 2164 0
-436 -287 469 2165 0
-105 471 -97 2166 0
123 234 346 2167 0
-307 -96 232 2168 0
-197 -347 265 2169 0
497 221 464 2170 0
-42 36 -226 2171 0
-181 -360 -6 2172 0
77 316 -244 2173 0
-95 -278 -148 2174 0
-372 -331 -74 2175 0
414 423 -139 2176 0
-250 405 155 2177 0
-367 284 -455 2178 0
-92 -35 475 2179 0
224 81 425 2180 0
458 113 -297 2181 0
89 234 -271 2182 0
38 319 -237 2183 0
-139 355 414 2184 0
39 425 193 2185 0
-231 470 -171 2186 0
237 -477 -95 2187 0
-157 406 -300 2188 0
70 455 308 2189 0
-147 -34 373 2190 0
100 382 -312 2191 0
-46 -375 -128 2192 0
23 316 -169 2193 0
-54 -332 62 2194 0
-236 195 -199 2195 0
-368 -15 -195 2196 0
195 100 213 2197 0
-167 450 380 2198 0
197 378 -156 2199 0
85 -498 411 2200 0
425 -197 -370 2201 0
272 224 -313 2202 0
-132 54 120 2203 0
-37 399 -326 2204 0
218 258 208 2205 0
-74 233 280 2206 0
-418 -275 -252 2207 0
172 450 -292 2208 0
-353 -127 373 2209 0
-326 384 -405 2210 0
-179 460 -324 2211 0
238 -433 178 2212 0
-83 186 140 2213 0
249 371 150 2214 0
-256 321 493 2215 0
-481 44 333 2216 0
-394 -241 -313 2217 0
262 362 440 2218 0
40 101 -265 2219 0
-309 349 -186 2220 0
-62 -7 -354 2221 0
-194 -190 -371 2222 0
-11 26 -479 2223 0
463 472 29 2224 0
382 141 -493 2225 0
488 -54 -404 2226 0
74 383 20 2227 0
474 217 438 2228 0
-470 -415 492 2229 0
-411 362 -4 2230 0
-254 -83 -29 2231 0
-365 -49 -220 2232 0
20 385 -485 2233 0
266 -24 28 2234 0
-221 460 -276 2235 0
-8 370 448 2236 0
93 -358 35 2237 0
337 53 -203 2238 0
-395 -490 -333 2239 0
-455 58 106 2240 0
165 -329 -315 2241 0
-147 323 -434 2242 0
381 233 -266 2243 0
348 -172 -115 2244 0
453 354 213 2245 0
-346 -91 -156 2246 0
468 -181 35 2247 0
-455 -195 288 2248 0
28 -409 -41 2249 0
-370 -104 -409 2250 0
-391 -480 342 2251 0
-367 158 447 2252 0
106 422 31 2253 0
163 334 -200 2254 0
-11 200 219 2255 0
-387 32 187 2256 0
-42 495 -375 2257 0
-447 404 418 2258 0
-237 -302 64 2259 0
138 119 143 2260 0
382 -71 263 2261 0
-41 448 -18 2262 0
-253 46 341 2263 0
-235 376 -399 2264 0
-125 343 -229 2265 0
-130 253 -32 2266 0
383 121 -300 2267 0
433 303 -169 2268 0
-88 -164 -209 2269 0
258 -222 -41 2270 0
267 -90 -272 2271 0
-366 -262 -429 2272 0
-50 -423 145 2273 0
251 -280 -204 2274 0
345 -456 -13 2275 0
-326 145 -190 2276 0
170 431 77 2277 0
-245 -12 178 2278 0
118 -12 358 2279 0
344 473 -142 2280 0
250 -345 -433 2281 0
-166 -21 100 2282 0
1 -78 -87 2283 0
355 395 130 2284 0
-37 -167 201 2285 0
-85 80 218 2286 0
402 -72 211 2287 0
23 426 72 2288 0
-197 126 432 2289 0
339 461 473 2290 0
67 204 -482 2291 0
-195 481 469 2292 0
231 -289 345 2293 0
-464 111 -233 2294 0
-287 491 65 2295 0
-109 337 206 2296 0
372 307 -73 2297 0
355 -108 -64 2298 0
-176 -485 -123 2299 0
-55 121 -357 2300 0
-339 -240 -426 2301 0
-434 479 147 2302 0
-466 -173 47 2303 0
12 118 -83 2304 0
-244 166 -386 2305 0
7 385 -465 2306 0
-428 -211 -488 2307 0
-215 13 -90 2308 0
-485 -352 335 2309 0
188 -47 -478 2310 0
310 356 337 2311 0
200 253 -466 2312 0
132 -490 56 2313 0
123 -75 221 2314 0
-92 -107 388 2315 0
458 206 480 2316 0
92 -162 -51 2317 0
325 -27 -223 2318 0
245 -255 -287 2319 0
-153 -160 -447 2320 0
204 223 331 2321 0
-281 -312 52 2322 0
-415 58 382 2323 0
345 454 420 2324 0
-199 -193 -30 2325 0
127 463 323 2326 0
-91 406 -294 2327 0
-328 480 -111 2328 0
-147 -321 39 2329 0
-405 -186 -15 2330 0
450 366 70 2331 0
55 -398 372 2332 0
-301 -69 425 2333 0
14 457 -235 2334 0
25 -351 261 2335 0
92 116 356 2336 0
-390 -271 -367 2337 0
-291 -424 338 2338 0
-63 294 420 2339 0
323 227 148 2340 0
-247 338 -486 2341 0
248 -52 -389 2342 0
399 -281 -248 2343 0
-103 353 139 2344 0
494 473 418 2345 0
376 439 -108 2346 0
281 455 333 2347 0
385 46 468 2348 0
494 -338 -257 2349 0
-321 238 262 2350 0
-397 368 178 2351 0
-76 -339 389 2352 0
-85 207 233 2353 0
43 410 -16 2354 0
-406 356 -443 2355 0
-115 443 398 2356 0
-31 -85 25 2357 0
450 134 456 2358 0
486 -105 233 2359 0
208 -311 -11 2360 0
346 140 481 2361 0
154 98 391 2362 0
8 -111 -270 2363 0
148 -174 468 2364 0
-49 -412 322 2365 0
-277 354 -165 2366 0
141 -5 -63 2367 0
109 -465 229 2368 0
-193 312 404 2369 0
420 328 176 2370 0
189 153 398 2371 0
294 89 404 2372 0
89 -176 -4 2373 0
139 86 172 2374 0
208 204 188 2375 0
298 -210 89 2376 0
-215 -5 288 2377 0
-80 36 421 2378 0
387 -193 -448 2379 0
407 -211 249 2380 0
254 -94 457 2381 0
-134 87 270 2382 0
457 422 -142 2383 0
-201 -106 224 2384 0
277 -359 217 2385 0
-122 -339 50 2386 0
474 3 2 2387 0
450 194 -108 2388 0
-310 -149 -27 2389 0
-175 40 130 2390 0
59 161 386 2391 0
212 10 -167 2392 0
-85 -167 -420 2393 0
-60 346 479 2394 0
498 138 -53 2395 0
-409 -493 -177 2396 0
-157 -34 -259 2397 0
-321 313 178 2398 0
227 -403 -122 2399 0
138 -440 -366 2400 0
-34 -15 124 2401 0
-320 -405 -327 2402 0
254 -196 -444 2403 0
-110 451 -322 2404 0
487 207 -227 2405 0
-111 -81 -441 2406 0
215 138 230 2407 0
-29 -316 -379 2408 0
-129 -381 -327 2409 0
248 158 -359 2410 0
184 -161 -235 2411 0
211 -436 -213 2412 0
37 107 485 2413 0
-431 393 -59 2414 0
-292 461 288 2415 0
107 379 111 2416 0
-152 308 -384 2417 0
275 461 -449 2418 0
-483 30 446 2419 0
-84 -347 -193 2420 0
463 437 134 2421 0
163 -368 -247 2422 0
156 -16 5 2423 0
221 -368 -338 2424 0
-386 353 -134 2425 0
497 375 -165 2426 0
439 468 -371 2427 0
239 149 -282 2428 0
27 114 -57 2429 0
62 196 -331 2430 0
-299 156 445 2431 0
271 255 -90 2432 0
295 -251 59 2433 0
259 -425 -268 2434 0
445 140 378 2435 0
88 203 137 2436 0
292 -396 -445 2437 0
-150 394 412 2438 0
-138 370 159 2439 0
207 14 414 2440 0
475 -17 -241 2441 0
-275 -164 -264 2442 0
356 219 -420 2443 0
-277 -475 42 2444 0
156 -254 -47 2445 0
-346 60 231 2446 0
-298 245 -268 2447 0
409 271 88 2448 0
-446 276 -25 2449 0
-385 -449 188 2450 0
-110 491 164 2451 0
152 286 -350 2452 0
332 -96 -444 2453 0
-191 357 -495 2454 0
-2 148 -335 2455 0
415 -284 354 2456 0
359 64 24 2457 0
-208 -383 166 2458 0
244 171 140 2459 0
-256 358 419 2460 0
87 -108 316 2461 0
-114 357 25 2462 0
296 -11 -391 2463 0
19 -292 -218 2464 0
311 138 324 2465 0
-338 -225 -172 2466 0
95 481 -337 2467 0
440 281 443 2468 0
411 -30 267 2469 0
-455 365 -143 2470 0
184 260 -189 2471 0
-452 -217 222 2472 0
402 310 -23 2473 0
-324 -152 490 2474 0
46 -210 457 2475 0
315 103 -15 2476 0
-163 -306 315 2477 0
380 187 -249 2478 0
-6 -279 141 2479 0
97 -198 -254 2480 0
-43 6 -268 2481 0
42 -252 -402 2482 0
-286 -72 202 2483 0
-496 301 122 2484 0
-94 423 -47 2485 0
259 -40 -125 2486 0
-406 319 -50 2487 0
366 475 87 2488 0
-77 -402 262 2489 0
385 -144 -350 2490 0
-177 459 307 2491 0
-81 -355 300 2492 0
-332 272 252 2493 0
375 -486 421 2494 0
402 -41 168 2495 0
469 -209 149 2496 0
117 -421 57 2497 0
112 113 70 2498 0
-233 -203 -297 2499 0
441 -491 408 2500 0
-280 387 -411 2501 0
-409 22 63 2502 0
-310 -83 278 2503 0
-60 -467 -461 2504 0
-272 -268 -168 2505 0
18 -31 275 2506 0
156 -403 -52 2507 0
-236 332 -182 2508 0
116 465 444 2509 0
-167 -80 140 2510 0
354 296 466 2511 0
-185 87 -417 2512 0
-432 -171 -46 2513 0
399 -231 -354 2514 0
-449 -60 -124 2515 0
285 73 193 2516 0
16 -346 340 2517 0
-80 395 -189 2518 0
26 -120 -206 2519 0
472 106 -98 2520 0
-143 421 -158 2521 0
-417 84 -64 2522 0
-106 266 158 2523 0
215 -8 316 2524 0
-156 -146 -355 2525 0
-3 -101 -335 2526 0
370 -145 395 2527 0
-232 130 -406 2528 0
-360 376 -234 2529 0
427 384 331 2530 0
387 -254 294 2531 0
-367 -78 486 2532 0
-9 -322 -357 2533 0
459 2 -60 2534 0
-445 -418 -459 2535 0
-438 -56 -373 2536 0
-431 152 489 2537 0
-429 -77 169 2538 0
216 -250 -211 2539 0
-255 123 126 2540 0
370 385 -76 2541 0
-60 -335 -367 2542 0
-422 62 111 2543 0
-115 -76 149 2544 0
-402 404 428 2545 0
-310 -407 179 2546 0
167 -493 -297 2547 0
51 341 -287 2548 0
281 -81 -212 2549 0
165 12 24 2550 0
119 -315 -107 2551 0
346 264 -277 2552 0
-201 -36 -392 2553 0
116 -480 400 2554 0
-5 158 278 2555 0
170 -470 -494 2556 0
-49 434 119 2557 0
-495 -208 457 2558 0
-296 160 17 2559 0
-261 307 -301 2560 0
279 328 -374 2561 0
230 -278 338 2562 0
121 270 335 2563 0
-445 182 376 2564 0
62 422 487 2565 0
-54 114 327 2566 0
269 -211 -37 2567 0
73 183 400 2568 0
-92 -170 -13 2569 0
-9 -405 318 2570 0
-38 -122 -330 2571 0
180 -50 -366 2572 0
409 -50 -324 2573 0
444 469 163 2574 0
31 -195 257 2575 0
476 48 159 2576 0
-194 -100 -256 2577 0
80 298 -455 2578 0
-222 431 -450 2579 0
138 117 384 2580 0
72 -98 426 2581 0
390 -363 71 2582 0
-196 52 -465 2583 0
-19 313 -45 2584 0
258 -344 -321 2585 0
-102 -437 -252 2586 0
-355 -251 -466 2587 0
-326 -84 47 2588 0
-444 193 -230 2589 0
426 55 104 2590 0
80 -499 -11 2591 0
356 295 156 2592 0
2 110 -355 2593 0
376 -97 -408 2594 0
91 38 362 2595 0
-445 222 -433 2596 0
148 306 -269 2597 0
288 435 200 2598 0
-364 -319 215 2599 0
-257 -172 474 2600 0
181 378 69 2601 0
-481 -476 278 2602 0
312 498 24 2603 0
129 291 480 2604 0
325 301 231 2605 0
-138 131 -401 2606 0
-235 42 132 2607 0
54 -485 -294 2608 0
172 -180 -439 2609 0
-27 -195 -323 2610 0
-480 379 -153 2611 0
-431 -38 486 2612 0
-429 372 -290 2613 0
-198 258 345 2614 0
-26 -264 -459 2615 0
236 -353 283 2616 0
-304 89 235 2617 0
-451 456 164 2618 0
393 452 41 2619 0
-370 275 -140 2620 0
372 -268 -249 2621 0
-41 397 -446 2622 0
218 -346 302 2623 0
-23 126 -457 2624 0
-239 213 -309 2625 0
-249 -364 300 2626 0
495 183 -369 2627 0
422 329 236 2628 0
-414 -266 371 2629 0
487 -387 -223 2630 0
-278 339 382 2631 0
-485 -231 248 2632 0
300 -231 42 2633 0
424 -450 -68 2634 0
327 -88 479 2635 0
190 38 -168 2636 0
-311 243 389 2637 0
4 -133 -466 2638 0
-376 -372 -120 2639 0
472 -290 405 2640 0
223 132 55 2641 0
-352 110 456 2642 0
343 -259 402 2643 0
-411 320 32 2644 0
-216 -288 -102 2645 0
-344 -271 421 2646 0
-349 -351 410 2647 0
-92 140 -296 2648 0
171 9 -355 2649 0
345 -55 -290 2650 0
