p cnf 2650 2150
135 204 -355 501 0
51 182 428 502 0
-52 427 371 503 0
226 -366 495 504 0
103 262 239 505 0
-240 -183 -119 506 0
-89 98 1 507 0
286 -198 15 508 0
-360 131 68 509 0
-177 244 -257 510 0
356 -339 -325 511 0
-418 -262 -234 512 0
169 181 -415 513 0
-63 -234 -16 514 0
-197 81 -292 515 0
214 -46 -176 516 0
297 118 131 517 0
257 -314 -494 518 0
63 166 -335 519 0
83 -309 472 520 0
-414 116 -402 521 0
368 -83 72 522 0
-384 -430 200 523 0
354 -217 135 524 0
-14 360 149 525 0
-51 -444 115 526 0
-236 484 -38 527 0
-101 427 482 528 0
-298 -245 232 529 0
79 49 364 530 0
313 420 -23 531 0
362 115 -409 532 0
-449 270 166 533 0
-437 146 57 534 0
-268 -144 -158 535 0
-258 -15 147 536 0
-90 318 -241 537 0
-50 -494 325 538 0
-477 -470 310 539 0
116 437 302 540 0
491 -80 -123 541 0
356 -249 -477 542 0
-445 330 171 543 0
244 -451 -3 544 0
57 -86 382 545 0
168 420 303 546 0
-353 234 -352 547 0
483 -250 32 548 0
292 486 -272 549 0
-115 -283 -21 550 0
149 147 -479 551 0
-98 337 -278 552 0
278 -19 -231 553 0
-13 332 386 554 0
168 460 451 555 0
500 153 232 556 0
-372 37 -370 557 0
-273 -480 426 558 0
129 14 -191 559 0
8 -210 436 560 0
-481 91 -16 561 0
217 224 -188 562 0
472 -375 152 563 0
455 -75 -111 564 0
-285 168 140 565 0
372 295 290 566 0
195 224 40 567 0
218 -137 120 568 0
255 301 -38 569 0
57 499 316 570 0
-329 -302 -488 571 0
4 343 42 572 0
142 -497 324 573 0
-317 -309 -449 574 0
435 394 -147 575 0
103 384 287 576 0
-338 -171 -166 577 0
-230 -423 282 578 0
287 -376 305 579 0
247 361 -473 580 0
-415 359 326 581 0
-224 193 -150 582 0
402 256 177 583 0
36 -184 -124 584 0
423 495 -100 585 0
165 273 85 586 0
-262 -165 -258 587 0
-20 -162 196 588 0
125 -374 96 589 0
-172 -268 296 590 0
292 -291 498 591 0
-97 247 -468 592 0
461 340 13 593 0
-356 145 483 594 0
-493 -197 476 595 0
496 -160 -388 596 0
-225 -95 17 597 0
372 -172 58 598 0
60 171 -31 599 0
-138 -305 -296 600 0
-123 482 170 601 0
-491 -284 338 602 0
-405 338 121 603 0
100 -390 351 604 0
476 186 396 605 0
440 -4 -82 606 0
-472 49 109 607 0
-192 -14 456 608 0
-6 -392 -383 609 0
-373 240 470 610 0
495 288 -124 611 0
-148 -240 415 612 0
388 -465 -197 613 0
434 123 170 614 0
467 358 493 615 0
199 269 -401 616 0
270 126 -484 617 0
289 30 -482 618 0
-288 -55 75 619 0
263 428 -113 620 0
431 -306 -287 621 0
168 -64 -18 622 0
-458 -330 439 623 0
143 345 -395 624 0
-490 197 -86 625 0
-231 -324 -215 626 0
-283 376 440 627 0
-437 -77 75 628 0
192 -187 -3 629 0
450 -267 60 630 0
-459 134 243 631 0
393 -193 -490 632 0
173 81 -260 633 0
-448 451 -10 634 0
-366 -101 45 635 0
-350 -480 -372 636 0
-28 -84 -431 637 0
-5 320 455 638 0
153 -235 -139 639 0
-39 355 86 640 0
328 -29 -51 641 0
-457 462 -110 642 0
-79 229 -76 643 0
-54 -134 495 644 0
10 -290 132 645 0
152 -402 -455 646 0
296 120 -33 647 0
193 381 70 648 0
-280 -362 478 649 0
-157 347 472 650 0
135 -134 -224 651 0
-125 -4 374 652 0
242 341 -448 653 0
-214 -403 491 654 0
-458 -151 58 655 0
-54 -409 -217 656 0
412 437 -475 657 0
17 245 -91 658 0
238 474 -224 659 0
31 -413 314 660 0
-459 -20 -46 661 0
160 207 -256 662 0
183 140 -101 663 0
-425 -17 -136 664 0
-204 -462 -201 665 0
396 13 423 666 0
487 -169 338 667 0
-412 -158 104 668 0
361 472 -117 669 0
37 270 -251 670 0
18 15 218 671 0
-430 -465 157 672 0
-42 -44 457 673 0
473 -102 -464 674 0
29 44 148 675 0
490 -386 -483 676 0
99 272 43 677 0
156 -471 45 678 0
-214 1 219 679 0
367 -222 331 680 0
77 423 -37 681 0
-403 -146 -317 682 0
353 -460 75 683 0
384 296 -395 684 0
-449 300 128 685 0
-169 -290 -379 686 0
-461 46 253 687 0
-169 185 -125 688 0
-51 127 -294 689 0
491 -329 134 690 0
481 264 -31 691 0
-24 -7 -428 692 0
-416 214 -463 693 0
124 49 490 694 0
-51 -163 203 695 0
368 -474 305 696 0
-204 -87 152 697 0
322 86 -195 698 0
250 -19 -18 699 0
-118 -293 247 700 0
-55 -127 8 701 0
276 -67 -140 702 0
189 19 395 703 0
67 -121 363 704 0
91 3 -397 705 0
113 340 146 706 0
-295 -54 -422 707 0
-333 50 187 708 0
57 -366 -398 709 0
-108 -500 269 710 0
-491 -428 -343 711 0
-309 -81 356 712 0
372 359 500 713 0
-30 -383 -486 714 0
40 -189 434 715 0
-168 343 277 716 0
-155 -259 -349 717 0
-31 -363 -129 718 0
-392 4 164 719 0
372 264 91 720 0
430 -13 168 721 0
183 287 467 722 0
-339 -12 206 723 0
-482 50 -251 724 0
-86 17 -367 725 0
16 -309 -13 726 0
268 73 -371 727 0
268 -58 -345 728 0
173 296 -465 729 0
-329 493 -234 730 0
-262 -373 -240 731 0
-239 -90 134 732 0
-108 -10 441 733 0
-120 -345 289 734 0
-455 401 244 735 0
-98 393 316 736 0
65 -258 -459 737 0
394 261 365 738 0
288 178 -187 739 0
435 172 -279 740 0
85 -401 125 741 0
248 -315 -308 742 0
165 414 -261 743 0
-189 241 101 744 0
-430 -108 248 745 0
-58 -168 151 746 0
266 309 290 747 0
-191 -444 -243 748 0
-427 408 158 749 0
-461 -373 -117 750 0
52 148 100 751 0
43 302 49 752 0
-126 383 -216 753 0
-57 340 297 754 0
-318 456 197 755 0
-268 -46 475 756 0
-167 372 -241 757 0
-413 -395 184 758 0
-387 -419 317 759 0
-414 -7 441 760 0
-179 -460 156 761 0
114 80 350 762 0
-335 -306 492 763 0
-484 50 406 764 0
211 190 -63 765 0
72 -18 -224 766 0
-240 439 482 767 0
-167 -418 -448 768 0
-97 464 248 769 0
81 -454 -392 770 0
-489 311 157 771 0
216 495 64 772 0
-345 -109 -336 773 0
-311 406 -358 774 0
-448 -62 -276 775 0
-245 75 45 776 0
-410 95 310 777 0
405 -51 498 778 0
-24 22 -294 779 0
-396 -371 -270 780 0
378 -266 480 781 0
474 193 -116 782 0
-297 -145 -252 783 0
-333 -137 -176 784 0
-312 136 41 785 0
-246 474 -141 786 0
-416 155 247 787 0
-268 202 77 788 0
407 -364 360 789 0
469 -291 56 790 0
-186 -142 -63 791 0
258 -131 251 792 0
-360 -139 -425 793 0
238 101 121 794 0
-413 142 100 795 0
394 -407 -157 796 0
453 28 -193 797 0
297 161 151 798 0
-115 237 85 799 0
290 -426 -47 800 0
2 -69 217 801 0
204 362 61 802 0
-122 289 383 803 0
399 -288 -166 804 0
-89 388 -411 805 0
393 498 223 806 0
-323 24 -252 807 0
310 382 468 808 0
-37 -225 -21 809 0
300 214 310 810 0
-92 87 -238 811 0
-111 61 329 812 0
-254 455 -214 813 0
-378 -495 327 814 0
85 19 295 815 0
-285 -55 -499 816 0
-27 182 384 817 0
13 -402 329 818 0
425 -262 -214 819 0
472 -204 79 820 0
370 221 -213 821 0
20 223 -370 822 0
323 -393 468 823 0
-220 419 -417 824 0
85 260 -114 825 0
-224 -351 -75 826 0
-415 -397 -103 827 0
-349 109 -243 828 0
-166 -401 -492 829 0
462 -312 -78 830 0
80 -165 189 831 0
-289 -193 -40 832 0
-260 -44 -28 833 0
396 37 -143 834 0
61 -120 399 835 0
485 -358 240 836 0
180 384 -297 837 0
336 -263 355 838 0
-180 57 -153 839 0
-81 -360 -265 840 0
43 -320 499 841 0
242 -89 -189 842 0
466 272 268 843 0
44 283 -316 844 0
380 146 377 845 0
227 -129 -236 846 0
292 -345 -163 847 0
-319 79 413 848 0
-383 -135 -385 849 0
-103 289 -224 850 0
490 453 -101 851 0
173 -413 436 852 0
467 389 206 853 0
332 -472 -117 854 0
-20 212 370 855 0
47 384 155 856 0
334 -472 178 857 0
93 -20 425 858 0
-204 212 -215 859 0
402 252 -372 860 0
-85 -400 100 861 0
144 -425 -183 862 0
-456 -437 -140 863 0
-471 -415 -489 864 0
-409 -169 65 865 0
-207 -128 -388 866 0
-61 463 -441 867 0
-273 124 -459 868 0
95 148 -257 869 0
242 -88 -220 870 0
49 181 -458 871 0
-127 265 250 872 0
56 -232 55 873 0
-373 -356 250 874 0
46 -435 -407 875 0
36 328 10 876 0
479 -153 -213 877 0
-123 -8 337 878 0
-123 434 423 879 0
-279 45 281 880 0
34 -97 -459 881 0
460 214 296 882 0
-81 -401 458 883 0
-335 142 -137 884 0
107 -133 454 885 0
-443 -335 -376 886 0
25 -424 98 887 0
-247 -494 167 888 0
-395 112 -354 889 0
324 348 -224 890 0
-492 -184 316 891 0
-295 -180 233 892 0
130 -60 372 893 0
300 220 -147 894 0
-227 -160 -155 895 0
455 497 -414 896 0
277 -364 265 897 0
215 -207 404 898 0
-432 -79 382 899 0
-52 354 -194 900 0
-94 -272 327 901 0
-496 -486 -448 902 0
-20 -495 68 903 0
-339 -391 411 904 0
63 23 -485 905 0
-373 -422 -469 906 0
-431 159 -466 907 0
-478 385 -197 908 0
146 199 51 909 0
20 -6 100 910 0
44 316 260 911 0
-411 38 -230 912 0
138 456 89 913 0
-429 -453 295 914 0
-383 119 446 915 0
462 -203 -303 916 0
-347 -274 340 917 0
-44 211 479 918 0
439 -214 240 919 0
496 -315 266 920 0
-18 -185 103 921 0
165 305 -214 922 0
-46 390 71 923 0
-494 281 -54 924 0
269 -475 381 925 0
264 -362 -331 926 0
176 80 -34 927 0
-61 58 -64 928 0
185 -265 92 929 0
-449 337 -249 930 0
-408 445 193 931 0
-350 -289 -202 932 0
-306 165 219 933 0
-298 -442 486 934 0
55 -343 352 935 0
-19 -172 280 936 0
425 447 -258 937 0
81 341 382 938 0
-433 407 2 939 0
497 -65 -134 940 0
361 338 466 941 0
-229 276 414 942 0
-17 453 202 943 0
421 -84 301 944 0
222 12 169 945 0
123 -316 -24 946 0
103 373 416 947 0
351 -176 342 948 0
59 318 -342 949 0
4 -335 -30 950 0
-26 28 -71 951 0
-186 26 214 952 0
179 81 476 953 0
-20 -350 -425 954 0
-497 3 -415 955 0
49 473 444 956 0
-270 -126 -91 957 0
-325 194 292 958 0
218 -314 131 959 0
-80 -231 94 960 0
453 137 -385 961 0
-484 155 -188 962 0
415 -182 485 963 0
169 122 217 964 0
362 252 -325 965 0
167 132 311 966 0
-447 -401 -302 967 0
185 481 -434 968 0
-340 388 109 969 0
482 -76 -261 970 0
-143 -497 6 971 0
-212 77 -278 972 0
-369 -348 498 973 0
-279 437 387 974 0
233 -440 77 975 0
330 -159 -230 976 0
184 49 -363 977 0
28 436 -105 978 0
-96 490 -418 979 0
-317 332 264 980 0
204 -105 304 981 0
423 -386 -191 982 0
479 -323 25 983 0
331 486 -64 984 0
-282 -380 -40 985 0
409 163 450 986 0
-498 -414 60 987 0
-310 -376 -149 988 0
-211 454 -460 989 0
192 -154 164 990 0
-59 -256 292 991 0
-60 -113 -339 992 0
126 -435 186 993 0
455 -222 -458 994 0
-277 386 -133 995 0
241 -95 357 996 0
49 307 434 997 0
-436 243 -308 998 0
-500 472 -77 999 0
148 136 398 1000 0
362 147 -295 1001 0
85 425 484 1002 0
-48 -377 -256 1003 0
284 -221 -218 1004 0
-119 -51 -108 1005 0
324 -214 131 1006 0
109 401 342 1007 0
-365 114 307 1008 0
258 -457 -213 1009 0
62 92 -271 1010 0
174 52 -465 1011 0
-346 -416 -242 1012 0
224 85 -39 1013 0
-33 -219 -212 1014 0
365 -458 371 1015 0
-469 -417 147 1016 0
-291 477 -232 1017 0
387 364 285 1018 0
183 -257 59 1019 0
-129 183 -94 1020 0
-76 -156 -261 1021 0
-291 -365 308 1022 0
-17 -381 31 1023 0
474 -220 404 1024 0
39 -8 474 1025 0
-317 -114 68 1026 0
-121 69 -203 1027 0
399 -326 138 1028 0
12 380 -200 1029 0
86 -299 455 1030 0
346 -93 245 1031 0
447 134 274 1032 0
192 -39 463 1033 0
414 337 453 1034 0
-341 184 -418 1035 0
296 124 32 1036 0
-191 -9 221 1037 0
333 -444 -302 1038 0
442 -5 359 1039 0
-222 323 -383 1040 0
-351 -402 187 1041 0
-56 394 -169 1042 0
40 -5 179 1043 0
418 356 121 1044 0
-137 -479 -369 1045 0
229 -289 -369 1046 0
-224 402 -477 1047 0
16 -487 345 1048 0
-233 280 -152 1049 0
-296 131 -301 1050 0
357 -187 -330 1051 0
-26 -150 -499 1052 0
-427 368 -500 1053 0
471 203 498 1054 0
131 219 193 1055 0
345 265 -460 1056 0
464 -43 124 1057 0
127 95 -321 1058 0
466 175 -85 1059 0
-90 -391 -307 1060 0
172 -76 -370 1061 0
-191 34 167 1062 0
-100 69 76 1063 0
464 -224 326 1064 0
125 -206 331 1065 0
-193 -295 -432 1066 0
-442 81 392 1067 0
-85 333 263 1068 0
-155 -392 447 1069 0
341 -164 -484 1070 0
-355 -499 18 1071 0
-343 307 351 1072 0
-448 -445 -310 1073 0
266 377 418 1074 0
-39 -348 -239 1075 0
213 -172 -268 1076 0
211 57 -29 1077 0
-323 202 296 1078 0
84 39 268 1079 0
218 131 119 1080 0
169 -235 343 1081 0
-64 450 482 1082 0
480 127 -30 1083 0
122 -248 -310 1084 0
77 373 -220 1085 0
300 -332 166 1086 0
-270 -386 -332 1087 0
350 256 392 1088 0
126 -247 -138 1089 0
-316 278 -463 1090 0
-191 101 -351 1091 0
264 -291 413 1092 0
19 177 92 1093 0
105 -26 -334 1094 0
-287 365 9 1095 0
-433 -413 74 1096 0
187 -300 236 1097 0
-431 -34 -20 1098 0
7 -168 -352 1099 0
20 -167 293 1100 0
75 -494 -188 1101 0
-473 150 251 1102 0
39 -374 -301 1103 0
-453 264 43 1104 0
-420 -28 -244 1105 0
-487 -2 -266 1106 0
374 300 55 1107 0
130 286 -232 1108 0
-208 -228 -285 1109 0
-391 -164 -458 1110 0
99 134 -499 1111 0
77 361 245 1112 0
94 -221 -123 1113 0
-493 -488 -118 1114 0
-77 -183 384 1115 0
-215 393 413 1116 0
207 -328 310 1117 0
-14 -290 314 1118 0
486 125 -149 1119 0
-168 -176 -287 1120 0
500 -357 -404 1121 0
258 461 -264 1122 0
-362 354 -482 1123 0
299 -204 -188 1124 0
-170 -316 190 1125 0
-461 -312 124 1126 0
-252 -450 28 1127 0
-409 295 196 1128 0
213 470 -151 1129 0
-497 -144 -47 1130 0
-316 -115 356 1131 0
482 217 188 1132 0
-362 197 -212 1133 0
-90 51 -185 1134 0
8 147 -132 1135 0
-34 -449 -74 1136 0
-486 -23 -56 1137 0
-299 -168 -113 1138 0
60 -298 143 1139 0
442 -468 -459 1140 0
143 210 92 1141 0
-324 -25 445 1142 0
387 352 167 1143 0
42 315 -498 1144 0
51 312 477 1145 0
-153 -255 -368 1146 0
-49 203 -60 1147 0
-144 -143 239 1148 0
80 485 83 1149 0
404 -452 -136 1150 0
460 -6 -454 1151 0
209 -334 239 1152 0
230 -202 387 1153 0
54 -68 71 1154 0
-357 -313 30 1155 0
46 -470 438 1156 0
-311 479 -424 1157 0
-122 306 -405 1158 0
180 -324 152 1159 0
411 391 223 1160 0
415 471 212 1161 0
-413 24 -437 1162 0
-221 -424 -319 1163 0
-60 355 31 1164 0
234 -442 -312 1165 0
-371 308 -481 1166 0
-178 -49 -161 1167 0
370 314 -140 1168 0
-169 -286 453 1169 0
-202 4 398 1170 0
101 -312 -18 1171 0
130 95 316 1172 0
381 -321 -199 1173 0
30 224 -436 1174 0
339 -60 166 1175 0
-136 194 130 1176 0
210 269 -97 1177 0
313 458 468 1178 0
-228 105 146 1179 0
-220 298 210 1180 0
-2 421 21 1181 0
-198 216 270 1182 0
-371 80 192 1183 0
377 -227 141 1184 0
-6 -213 287 1185 0
15 74 -435 1186 0
63 -335 -41 1187 0
-164 393 -461 1188 0
235 33 352 1189 0
397 287 -496 1190 0
-83 -378 -491 1191 0
348 470 92 1192 0
127 354 429 1193 0
-413 -261 55 1194 0
397 336 -359 1195 0
408 -120 465 1196 0
-273 191 153 1197 0
7 269 37 1198 0
-23 301 -477 1199 0
-199 446 -134 1200 0
-189 -480 89 1201 0
18 -367 -453 1202 0
-374 82 -5 1203 0
299 -67 -445 1204 0
-436 -460 130 1205 0
-394 -396 -376 1206 0
290 217 350 1207 0
-479 25 236 1208 0
408 -302 366 1209 0
87 82 187 1210 0
-256 -47 354 1211 0
-328 -55 -315 1212 0
-40 376 -260 1213 0
-136 -293 -250 1214 0
311 -356 423 1215 0
-166 368 82 1216 0
-58 -129 -280 1217 0
73 -251 -59 1218 0
-179 -318 -437 1219 0
23 339 373 1220 0
-74 34 89 1221 0
207 -395 -365 1222 0
486 277 -187 1223 0
-123 -461 -478 1224 0
433 -168 193 1225 0
-433 -472 301 1226 0
-416 221 436 1227 0
329 -321 57 1228 0
-9 37 -310 1229 0
444 -240 -274 1230 0
-135 75 -431 1231 0
-264 -327 128 1232 0
164 -122 -389 1233 0
63 -253 -338 1234 0
-274 396 -131 1235 0
-49 -59 92 1236 0
374 -73 -102 1237 0
94 -374 -64 1238 0
-105 240 445 1239 0
-39 326 -266 1240 0
-27 162 169 1241 0
-289 -362 -175 1242 0
-339 367 311 1243 0
367 275 -271 1244 0
434 6 325 1245 0
-86 443 500 1246 0
-115 313 292 1247 0
248 146 413 1248 0
53 -437 -394 1249 0
-396 253 -104 1250 0
-141 100 238 1251 0
-209 290 -291 1252 0
214 -452 202 1253 0
156 -211 375 1254 0
-321 -140 206 1255 0
-215 205 471 1256 0
340 -389 -351 1257 0
-176 -127 323 1258 0
23 -280 -313 1259 0
257 -291 -393 1260 0
-33 325 -255 1261 0
-139 143 -84 1262 0
-109 185 97 1263 0
-141 264 364 1264 0
475 -175 -293 1265 0
-48 469 413 1266 0
-269 42 -463 1267 0
-345 -18 -127 1268 0
-498 -475 -169 1269 0
-345 7 -50 1270 0
69 -237 -381 1271 0
-226 -101 379 1272 0
150 -134 386 1273 0
356 138 79 1274 0
220 -141 455 1275 0
46 368 -160 1276 0
208 119 -176 1277 0
378 -269 354 1278 0
103 33 377 1279 0
54 -77 -167 1280 0
-456 -9 80 1281 0
181 244 -424 1282 0
461 -278 319 1283 0
100 352 -263 1284 0
-327 81 -163 1285 0
-254 -128 -260 1286 0
-158 34 -260 1287 0
-486 -85 320 1288 0
-217 405 -87 1289 0
154 -242 -389 1290 0
-221 483 -386 1291 0
-115 -201 102 1292 0
39 -255 358 1293 0
-247 234 -259 1294 0
-96 87 -3 1295 0
265 172 391 1296 0
324 108 474 1297 0
273 -130 -50 1298 0
-407 157 -245 1299 0
76 -466 498 1300 0
147 380 -330 1301 0
225 390 42 1302 0
7 -284 -476 1303 0
119 -378 -147 1304 0
387 277 -461 1305 0
359 -424 125 1306 0
156 153 255 1307 0
126 -456 -77 1308 0
-108 49 -78 1309 0
-169 46 -19 1310 0
61 -150 218 1311 0
-492 294 -202 1312 0
-345 453 334 1313 0
257 119 -421 1314 0
343 402 -166 1315 0
42 -488 -247 1316 0
-490 -447 89 1317 0
-51 -9 -44 1318 0
-242 8 58 1319 0
-414 -451 -294 1320 0
-53 48 -83 1321 0
56 -323 125 1322 0
28 -489 -213 1323 0
47 91 -81 1324 0
-126 382 -412 1325 0
-265 -105 -221 1326 0
-470 -401 -262 1327 0
188 274 384 1328 0
91 50 -134 1329 0
-3 224 399 1330 0
267 -33 483 1331 0
-271 -144 -459 1332 0
-51 -232 -221 1333 0
224 403 -225 1334 0
-311 -289 333 1335 0
-328 253 24 1336 0
4 -119 46 1337 0
200 146 373 1338 0
-83 496 130 1339 0
263 -351 -186 1340 0
-73 491 431 1341 0
371 172 226 1342 0
-444 94 -102 1343 0
-269 -81 389 1344 0
-337 496 46 1345 0
58 35 -204 1346 0
-15 -305 357 1347 0
268 26 -228 1348 0
179 -189 -375 1349 0
-235 -427 -262 1350 0
-446 289 -239 1351 0
2 490 318 1352 0
154 393 -178 1353 0
-160 -428 -186 1354 0
-452 183 479 1355 0
-80 -445 183 1356 0
185 345 -216 1357 0
470 -228 348 1358 0
-190 472 -417 1359 0
449 409 -117 1360 0
40 41 359 1361 0
-461 443 380 1362 0
42 241 397 1363 0
151 -260 -370 1364 0
-267 -197 -476 1365 0
192 -386 -3 1366 0
437 -6 206 1367 0
317 -220 288 1368 0
274 65 -319 1369 0
400 444 -374 1370 0
445 -4 -199 1371 0
-92 -445 426 1372 0
-66 119 357 1373 0
426 410 -216 1374 0
249 -205 260 1375 0
-14 -280 -483 1376 0
-86 387 -422 1377 0
443 269 -115 1378 0
468 -228 -385 1379 0
-366 -197 253 1380 0
225 486 175 1381 0
366 -484 -164 1382 0
395 -3 -229 1383 0
427 -233 263 1384 0
-128 -387 -126 1385 0
-335 130 484 1386 0
476 492 60 1387 0
88 -107 -140 1388 0
-26 -261 -391 1389 0
-288 -246 -487 1390 0
-132 -406 -92 1391 0
313 490 -53 1392 0
156 262 221 1393 0
-15 78 208 1394 0
-184 136 202 1395 0
373 -94 -411 1396 0
200 -274 272 1397 0
-498 255 -110 1398 0
-470 172 -165 1399 0
-422 31 153 1400 0
215 -407 -194 1401 0
-147 -328 471 1402 0
315 135 -356 1403 0
196 112 -203 1404 0
-294 313 414 1405 0
-325 -424 367 1406 0
-244 216 204 1407 0
-346 72 -334 1408 0
210 -258 169 1409 0
-279 -258 482 1410 0
356 493 481 1411 0
90 284 -487 1412 0
159 -373 228 1413 0
466 -471 34 1414 0
181 257 -40 1415 0
472 -11 58 1416 0
-327 391 -110 1417 0
-135 -197 -117 1418 0
133 295 132 1419 0
418 374 -165 1420 0
410 492 68 1421 0
-126 -83 -343 1422 0
283 100 -145 1423 0
-208 -45 368 1424 0
-479 387 -150 1425 0
125 204 -449 1426 0
-430 419 294 1427 0
117 61 -232 1428 0
-362 228 -64 1429 0
322 -242 -114 1430 0
120 -38 -489 1431 0
194 -131 297 1432 0
255 289 343 1433 0
352 -206 184 1434 0
98 -492 -109 1435 0
447 441 -157 1436 0
-198 44 151 1437 0
475 -288 487 1438 0
309 144 -361 1439 0
291 50 -299 1440 0
-217 491 -452 1441 0
322 -141 110 1442 0
200 -332 472 1443 0
-282 423 196 1444 0
-163 26 -406 1445 0
-479 403 44 1446 0
454 -248 149 1447 0
390 -412 261 1448 0
190 300 55 1449 0
73 -278 62 1450 0
320 495 239 1451 0
-265 -441 -254 1452 0
347 -459 -425 1453 0
144 -307 -223 1454 0
-32 -428 -253 1455 0
-94 -466 439 1456 0
-265 427 318 1457 0
-150 245 381 1458 0
141 100 -64 1459 0
-91 58 228 1460 0
207 481 178 1461 0
63 -202 250 1462 0
-418 144 164 1463 0
376 241 -256 1464 0
314 -144 -201 1465 0
250 159 203 1466 0
-357 45 -196 1467 0
7 122 175 1468 0
-364 -38 -152 1469 0
284 196 140 1470 0
-88 -131 411 1471 0
467 -321 344 1472 0
-150 -486 369 1473 0
397 98 406 1474 0
-271 -89 111 1475 0
-121 -481 -99 1476 0
479 -146 -141 1477 0
-162 -120 314 1478 0
245 346 -350 1479 0
-298 -279 295 1480 0
424 449 417 1481 0
-40 231 -11 1482 0
206 197 -465 1483 0
39 157 22 1484 0
349 268 273 1485 0
472 -348 -313 1486 0
165 -212 -418 1487 0
-354 448 160 1488 0
-297 -238 139 1489 0
401 353 434 1490 0
104 152 120 1491 0
386 -122 87 1492 0
176 95 249 1493 0
-216 -84 -403 1494 0
-74 283 -124 1495 0
-117 -202 277 1496 0
315 -465 438 1497 0
-274 -145 -493 1498 0
-284 200 -80 1499 0
-20 -84 -500 1500 0
124 402 20 1501 0
-143 -461 344 1502 0
-99 450 -316 1503 0
-8 233 -97 1504 0
-373 82 -4 1505 0
-303 156 -181 1506 0
-276 -59 471 1507 0
-263 225 55 1508 0
-239 -377 -413 1509 0
286 -470 363 1510 0
331 -360 23 1511 0
-118 -84 -318 1512 0
-250 134 140 1513 0
380 -216 -292 1514 0
-438 379 -45 1515 0
-105 440 -253 1516 0
20 -355 -451 1517 0
76 244 -128 1518 0
-400 -31 140 1519 0
-118 43 211 1520 0
409 -30 -179 1521 0
482 -449 446 1522 0
-285 -486 -388 1523 0
190 -493 -439 1524 0
22 79 133 1525 0
-99 -77 400 1526 0
350 -83 211 1527 0
400 229 -299 1528 0
-441 -128 -457 1529 0
-329 273 352 1530 0
-53 90 216 1531 0
205 -329 -278 1532 0
-264 -210 -167 1533 0
426 -249 -93 1534 0
-389 -264 -170 1535 0
-190 292 -326 1536 0
114 -385 34 1537 0
-352 -16 -225 1538 0
-253 -250 -426 1539 0
-228 -130 -169 1540 0
471 -52 -265 1541 0
-244 41 134 1542 0
159 445 281 1543 0
331 -60 -160 1544 0
450 215 -341 1545 0
75 105 14 1546 0
329 307 100 1547 0
-186 -351 -177 1548 0
-169 -476 -275 1549 0
-140 356 -40 1550 0
241 297 -344 1551 0
364 228 -281 1552 0
208 193 443 1553 0
47 62 -192 1554 0
-9 56 186 1555 0
117 -424 349 1556 0
241 193 -84 1557 0
238 -138 170 1558 0
95 -416 126 1559 0
-411 -110 273 1560 0
81 21 -85 1561 0
83 -415 476 1562 0
342 -191 18 1563 0
101 -301 -136 1564 0
-139 216 486 1565 0
326 273 329 1566 0
281 -54 378 1567 0
285 457 -44 1568 0
-164 -35 -348 1569 0
-295 393 101 1570 0
-275 -222 -274 1571 0
-441 -316 191 1572 0
-416 -235 -117 1573 0
460 -347 351 1574 0
335 -349 -342 1575 0
112 137 226 1576 0
183 -370 -277 1577 0
-296 -188 211 1578 0
234 462 -334 1579 0
264 -472 -446 1580 0
-33 55 197 1581 0
-480 -262 138 1582 0
271 258 358 1583 0
-302 21 -419 1584 0
470 -201 -136 1585 0
-207 460 -103 1586 0
356 -429 -104 1587 0
406 374 -168 1588 0
-128 -51 357 1589 0
-285 375 -332 1590 0
174 -266 245 1591 0
97 433 -335 1592 0
-266 471 225 1593 0
-325 -95 364 1594 0
-98 88 421 1595 0
-90 467 -175 1596 0
-79 -264 69 1597 0
314 -427 -286 1598 0
-270 -141 17 1599 0
143 -135 -232 1600 0
289 98 368 1601 0
-150 -388 168 1602 0
67 79 -393 1603 0
15 288 31 1604 0
-448 160 -135 1605 0
173 498 -477 1606 0
435 -137 -331 1607 0
-139 -249 12 1608 0
306 254 246 1609 0
-41 -345 373 1610 0
500 -471 -7 1611 0
-391 390 -397 1612 0
267 -45 434 1613 0
-147 -401 439 1614 0
-441 450 166 1615 0
-352 -60 464 1616 0
-115 357 248 1617 0
205 -51 -92 1618 0
-440 73 251 1619 0
303 -250 -140 1620 0
133 197 -294 1621 0
-380 404 495 1622 0
217 -175 -16 1623 0
-104 -341 -67 1624 0
-61 -224 -382 1625 0
181 337 -464 1626 0
-31 340 -396 1627 0
-72 373 -415 1628 0
-49 -275 261 1629 0
243 304 -186 1630 0
92 367 -286 1631 0
-360 329 122 1632 0
-357 343 481 1633 0
-467 -42 -431 1634 0
-77 18 -14 1635 0
392 33 -117 1636 0
-431 -453 -11 1637 0
-244 -366 -56 1638 0
-488 45 282 1639 0
-313 -211 485 1640 0
-96 -323 439 1641 0
-31 453 -136 1642 0
-221 222 9 1643 0
-201 -243 465 1644 0
-145 -33 -418 1645 0
385 373 -76 1646 0
-459 67 55 1647 0
-182 -219 -27 1648 0
231 -163 -149 1649 0
463 379 116 1650 0
395 417 -369 1651 0
304 391 33 1652 0
345 -463 371 1653 0
-245 46 73 1654 0
-167 25 166 1655 0
153 4 -461 1656 0
331 -312 252 1657 0
-419 -210 -328 1658 0
-85 -240 176 1659 0
-411 -360 323 1660 0
21 -8 248 1661 0
243 -396 14 1662 0
-385 481 443 1663 0
336 -169 453 1664 0
-326 144 -103 1665 0
23 429 -201 1666 0
-451 -373 -482 1667 0
-495 -273 -298 1668 0
490 -207 304 1669 0
-321 -330 -72 1670 0
357 -124 -405 1671 0
-419 -402 -104 1672 0
464 307 -318 1673 0
-119 -453 108 1674 0
127 492 142 1675 0
-186 434 256 1676 0
-304 343 -239 1677 0
139 254 -391 1678 0
-330 -197 252 1679 0
-418 -285 -296 1680 0
-52 335 -369 1681 0
-304 333 86 1682 0
-169 -459 -343 1683 0
251 -471 -60 1684 0
-479 410 -493 1685 0
303 433 -495 1686 0
486 -76 -125 1687 0
362 -423 479 1688 0
253 -497 119 1689 0
-73 -31 414 1690 0
493 244 -265 1691 0
-441 -89 -309 1692 0
-24 -232 28 1693 0
9 -231 -374 1694 0
-55 -4 -73 1695 0
-323 -158 258 1696 0
-296 -448 156 1697 0
-202 384 401 1698 0
-468 -370 -94 1699 0
-63 476 -162 1700 0
470 111 59 1701 0
-457 -347 24 1702 0
14 391 -256 1703 0
-417 -70 -299 1704 0
268 -146 390 1705 0
-498 467 -73 1706 0
150 -386 446 1707 0
-165 267 344 1708 0
477 -411 278 1709 0
63 -455 -24 1710 0
429 -162 -345 1711 0
-399 -481 -282 1712 0
380 -96 286 1713 0
152 219 -67 1714 0
-53 -200 -459 1715 0
404 447 27 1716 0
-280 457 388 1717 0
-242 -483 436 1718 0
96 -231 402 1719 0
-396 222 -337 1720 0
95 3 87 1721 0
-110 482 -338 1722 0
410 2 -168 1723 0
218 -403 -308 1724 0
226 473 199 1725 0
-459 112 351 1726 0
-441 124 -384 1727 0
228 203 -32 1728 0
-182 67 -473 1729 0
328 -455 -130 1730 0
-290 191 136 1731 0
15 -324 83 1732 0
-29 -398 -328 1733 0
294 417 -373 1734 0
142 -254 -27 1735 0
371 307 105 1736 0
-311 -157 216 1737 0
-301 103 228 1738 0
407 -282 -442 1739 0
206 10 -226 1740 0
263 -193 -410 1741 0
395 -426 405 1742 0
-260 -68 476 1743 0
-416 119 3 1744 0
499 4 -26 1745 0
-393 368 291 1746 0
200 -131 102 1747 0
449 13 -152 1748 0
180 -53 236 1749 0
-329 -317 80 1750 0
-427 -350 65 1751 0
401 -298 228 1752 0
-482 -413 18 1753 0
-156 470 -459 1754 0
-106 475 -412 1755 0
474 204 -171 1756 0
-392 -111 -452 1757 0
329 129 -228 1758 0
375 -360 25 1759 0
429 224 -399 1760 0
167 352 -275 1761 0
-458 161 217 1762 0
210 -297 149 1763 0
-424 253 -371 1764 0
243 33 387 1765 0
141 90 -453 1766 0
-169 72 -342 1767 0
135 -283 -145 1768 0
-69 304 -403 1769 0
-47 395 -237 1770 0
-482 -289 274 1771 0
318 435 328 1772 0
31 155 304 1773 0
269 63 101 1774 0
-396 433 393 1775 0
42 249 59 1776 0
310 -2 479 1777 0
477 -241 -92 1778 0
214 439 325 1779 0
-443 -94 203 1780 0
-480 -414 -75 1781 0
61 -62 228 1782 0
-63 -111 -81 1783 0
-439 431 15 1784 0
-41 -282 -440 1785 0
144 278 -109 1786 0
442 474 -34 1787 0
110 -104 -49 1788 0
255 324 -114 1789 0
-309 228 12 1790 0
-410 -458 205 1791 0
355 -320 -471 1792 0
-387 -409 408 1793 0
172 54 -51 1794 0
-307 -139 -352 1795 0
386 -135 497 1796 0
-22 92 -298 1797 0
437 -196 -112 1798 0
-444 -127 149 1799 0
435 203 167 1800 0
215 146 -313 1801 0
-397 27 -255 1802 0
-336 209 297 1803 0
-244 -492 -66 1804 0
-322 407 -106 1805 0
-64 -299 411 1806 0
-116 -19 -425 1807 0
489 55 10 1808 0
155 142 -304 1809 0
-485 -14 450 1810 0
433 123 -181 1811 0
-259 162 -164 1812 0
-63 428 221 1813 0
435 108 77 1814 0
-372 -437 -15 1815 0
-13 54 -332 1816 0
-111 36 98 1817 0
269 413 -84 1818 0
-68 217 -261 1819 0
-92 -165 377 1820 0
-329 -71 -304 1821 0
32 301 333 1822 0
-454 -303 -305 1823 0
83 -189 -283 1824 0
163 -248 430 1825 0
295 236 -100 1826 0
-76 460 85 1827 0
-92 -163 -267 1828 0
-279 291 317 1829 0
237 -9 288 1830 0
410 400 264 1831 0
-406 -375 172 1832 0
199 -328 230 1833 0
-238 -208 -440 1834 0
-29 -417 -104 1835 0
478 -83 -335 1836 0
45 34 466 1837 0
83 -232 -129 1838 0
-281 -27 -139 1839 0
472 462 -232 1840 0
72 115 -109 1841 0
-182 122 -396 1842 0
55 -125 -9 1843 0
-193 -245 -475 1844 0
372 -29 123 1845 0
107 -352 151 1846 0
-392 -116 -149 1847 0
54 5 -34 1848 0
-331 -274 -184 1849 0
122 115 -426 1850 0
141 218 481 1851 0
-271 -140 424 1852 0
132 75 197 1853 0
-218 270 -419 1854 0
-66 317 240 1855 0
351 297 -196 1856 0
349 40 -208 1857 0
95 20 406 1858 0
3 -373 205 1859 0
245 -166 474 1860 0
175 -395 64 1861 0
226 -388 -170 1862 0
86 -188 -318 1863 0
-350 388 330 1864 0
15 93 376 1865 0
67 -188 187 1866 0
122 -92 339 1867 0
412 168 -469 1868 0
-74 200 214 1869 0
-436 -425 -64 1870 0
-84 -444 -277 1871 0
-396 -154 256 1872 0
230 -107 -441 1873 0
-487 146 -204 1874 0
236 416 -385 1875 0
52 -240 220 1876 0
-257 -159 317 1877 0
298 15 -341 1878 0
-66 -228 -122 1879 0
439 240 285 1880 0
-158 367 289 1881 0
128 143 198 1882 0
346 392 19 1883 0
257 -175 236 1884 0
-471 218 -131 1885 0
-89 296 359 1886 0
360 -469 493 1887 0
473 -270 -492 1888 0
-107 -72 -85 1889 0
-300 -155 -158 1890 0
477 263 143 1891 0
370 61 -331 1892 0
-401 -421 265 1893 0
222 -314 221 1894 0
-123 -119 -272 1895 0
-323 491 -475 1896 0
21 423 55 1897 0
421 234 456 1898 0
443 -414 97 1899 0
47 -258 -253 1900 0
-172 -328 -458 1901 0
143 -493 178 1902 0
-459 492 278 1903 0
6 -186 -205 1904 0
-145 -241 30 1905 0
-281 -133 92 1906 0
38 250 232 1907 0
158 -497 452 1908 0
336 -49 245 1909 0
-475 -106 -114 1910 0
285 -287 -157 1911 0
-346 214 -165 1912 0
269 86 -41 1913 0
-284 262 -382 1914 0
-29 -291 -246 1915 0
66 267 394 1916 0
210 399 319 1917 0
-112 181 139 1918 0
-348 62 -222 1919 0
29 -213 97 1920 0
-354 -190 -184 1921 0
210 380 236 1922 0
96 -75 -39 1923 0
-283 -199 463 1924 0
257 -87 83 1925 0
-267 -282 -232 1926 0
6 16 145 1927 0
-197 215 -497 1928 0
-233 380 -284 1929 0
258 -265 148 1930 0
-264 -177 453 1931 0
-359 -66 31 1932 0
119 496 -376 1933 0
-284 124 196 1934 0
-248 362 -430 1935 0
18 -84 -241 1936 0
355 -163 248 1937 0
-87 119 227 1938 0
-426 402 483 1939 0
-116 170 269 1940 0
261 -340 73 1941 0
422 -178 122 1942 0
95 -107 -206 1943 0
-382 119 258 1944 0
198 111 355 1945 0
-33 -302 -390 1946 0
-395 -480 -38 1947 0
445 17 373 1948 0
199 474 -343 1949 0
96 -210 404 1950 0
-480 419 333 1951 0
191 -115 -370 1952 0
91 -50 -396 1953 0
-408 482 -168 1954 0
-414 -382 -167 1955 0
24 71 169 1956 0
154 -294 -360 1957 0
-236 -47 335 1958 0
265 299 44 1959 0
-95 22 68 1960 0
-275 -142 -93 1961 0
-399 -228 -445 1962 0
-202 261 -372 1963 0
471 117 -187 1964 0
181 -406 385 1965 0
3 164 350 1966 0
439 35 104 1967 0
200 123 264 1968 0
-478 308 88 1969 0
-153 -465 386 1970 0
-430 490 492 1971 0
-352 127 402 1972 0
332 -135 455 1973 0
-495 88 -383 1974 0
160 121 211 1975 0
-325 -199 -55 1976 0
227 -64 97 1977 0
264 211 -386 1978 0
230 -110 -291 1979 0
351 -335 -89 1980 0
-454 -376 -254 1981 0
383 -251 -215 1982 0
-384 -457 -500 1983 0
-175 392 456 1984 0
-387 -272 -254 1985 0
-25 -152 -184 1986 0
-126 403 437 1987 0
365 416 369 1988 0
418 -199 149 1989 0
-160 -149 122 1990 0
-240 -35 139 1991 0
-384 -14 -452 1992 0
-427 59 -400 1993 0
80 261 210 1994 0
-146 -490 422 1995 0
17 483 -369 1996 0
-13 92 -91 1997 0
355 51 -461 1998 0
-208 441 -233 1999 0
-334 -302 169 2000 0
21 -473 -83 2001 0
-90 381 121 2002 0
-202 414 10 2003 0
139 283 255 2004 0
-278 192 -55 2005 0
-131 306 35 2006 0
-385 -371 -359 2007 0
-105 -372 -403 2008 0
-371 419 -440 2009 0
96 131 -427 2010 0
414 297 -438 2011 0
33 149 -367 2012 0
-162 274 241 2013 0
384 -428 -416 2014 0
-169 172 60 2015 0
75 181 -240 2016 0
25 -55 -493 2017 0
129 -118 422 2018 0
128 496 346 2019 0
106 402 464 2020 0
-488 455 369 2021 0
-343 -365 -272 2022 0
-449 -304 -436 2023 0
400 -234 76 2024 0
254 -433 471 2025 0
-357 -399 240 2026 0
55 -33 -473 2027 0
-186 -278 -480 2028 0
-263 -438 -433 2029 0
-294 393 226 2030 0
371 -176 254 2031 0
312 -347 183 2032 0
-165 470 111 2033 0
251 118 498 2034 0
-218 264 -172 2035 0
337 -113 -217 2036 0
289 -197 -193 2037 0
433 187 288 2038 0
196 337 -24 2039 0
144 -101 -440 2040 0
-338 -177 279 2041 0
343 185 -225 2042 0
61 478 -160 2043 0
443 250 318 2044 0
128 70 -357 2045 0
-280 483 -170 2046 0
365 372 -405 2047 0
138 500 -144 2048 0
478 -291 385 2049 0
-103 341 197 2050 0
-301 -82 -117 2051 0
187 17 465 2052 0
-479 48 -123 2053 0
24 221 488 2054 0
-93 41 -238 2055 0
233 -317 353 2056 0
211 -354 84 2057 0
159 -136 21 2058 0
-415 -303 137 2059 0
490 -361 -287 2060 0
435 -87 -233 2061 0
292 -290 -4 2062 0
-472 167 -465 2063 0
-438 82 -232 2064 0
-397 431 421 2065 0
130 -150 -196 2066 0
480 -104 -174 2067 0
28 -316 -49 2068 0
298 225 72 2069 0
245 -108 454 2070 0
231 -23 103 2071 0
-29 124 110 2072 0
131 -283 367 2073 0
366 400 263 2074 0
-187 350 -77 2075 0
-290 163 -95 2076 0
-241 20 365 2077 0
-475 -401 483 2078 0
181 -121 -293 2079 0
122 153 -390 2080 0
89 -498 -2 2081 0
76 -454 131 2082 0
-96 86 -8 2083 0
458 -287 5 2084 0
394 -483 -277 2085 0
290 19 -127 2086 0
-457 -485 295 2087 0
-298 -461 1 2088 0
-380 447 -423 2089 0
-51 79 -47 2090 0
-144 231 -337 2091 0
-338 128 160 2092 0
14 380 -344 2093 0
-38 -494 -55 2094 0
-155 120 36 2095 0
-407 -475 309 2096 0
-391 -24 -463 2097 0
461 99 143 2098 0
399 74 -236 2099 0
-376 -422 -179 2100 0
-445 -44 -431 2101 0
-222 434 -352 2102 0
-384 -408 95 2103 0
470 471 104 2104 0
488 -389 80 2105 0
-408 -487 -68 2106 0
-41 -164 447 2107 0
-173 255 -358 2108 0
-312 289 -222 2109 0
-269 -93 -318 2110 0
281 -484 -235 2111 0
-338 -385 -238 2112 0
227 -200 158 2113 0
-125 -327 -374 2114 0
4 -480 136 2115 0
-289 178 -446 2116 0
-110 -42 115 2117 0
492 -164 -17 2118 0
16 14 -217 2119 0
-446 113 -187 2120 0
242 -327 340 2121 0
-285 -496 377 2122 0
-73 -476 -384 2123 0
3 389 -425 2124 0
-210 -350 176 2125 0
45 -93 360 2126 0
-284 -19 313 2127 0
-26 382 462 2128 0
-209 -193 -207 2129 0
-48 227 -114 2130 0
-18 -253 217 2131 0
-191 322 -405 2132 0
-349 420 212 2133 0
-232 -211 -472 2134 0
351 136 -226 2135 0
-340 387 -85 2136 0
326 -71 234 2137 0
238 313 36 2138 0
99 -135 377 2139 0
44 9 67 2140 0
-276 99 326 2141 0
317 260 -398 2142 0
287 324 73 2143 0
186 449 495 2144 0
193 112 367 2145 0
495 74 46 2146 0
146 444 -107 2147 0
18 108 -246 2148 0
20 -228 -92 2149 0
78 349 -458 2150 0
-142 -487 -491 2151 0
95 224 388 2152 0
-330 -205 -485 2153 0
-79 -280 370 2154 0
-120 331 114 2155 0
29 342 -352 2156 0
220 422 -21 2157 0
290 107 321 2158 0
-429 175 107 2159 0
170 465 456 2160 0
-206 -415 -173 2161 0
-487 307 314 2162 0
43 208 442 2163 0
18 -380 271 2164 0
248 315 90 2165 0
430 -386 -14 2166 0
137 -140 -462 2167 0
-431 -332 -1 2168 0
56 -393 -446 2169 0
60 236 -97 2170 0
-132 319 350 2171 0
-194 -161 244 2172 0
-198 -2 -60 2173 0
151 -462 -366 2174 0
475 -124 173 2175 0
-243 -234 -390 2176 0
206 -195 -419 2177 0
-430 -419 150 2178 0
-49 -251 151 2179 0
481 -401 388 2180 0
-364 219 3 2181 0
-472 272 290 2182 0
152 253 265 2183 0
474 172 38 2184 0
457 332 119 2185 0
-474 -345 -173 2186 0
404 -232 -196 2187 0
321 -382 -393 2188 0
-54 -65 218 2189 0
-456 -293 90 2190 0
-259 -137 16 2191 0
304 -285 272 2192 0
-457 415 -28 2193 0
-280 -212 -1 2194 0
-129 -467 149 2195 0
377 -368 -14 2196 0
-310 391 97 2197 0
396 -419 269 2198 0
-82 -96 -489 2199 0
-42 150 -195 2200 0
-351 -203 499 2201 0
-87 362 -387 2202 0
438 -441 440 2203 0
-80 75 326 2204 0
-485 226 -181 2205 0
312 471 384 2206 0
-201 -490 -181 2207 0
351 -147 -5 2208 0
175 -265 370 2209 0
-153 235 -325 2210 0
426 -300 -100 2211 0
229 -498 40 2212 0
266 242 154 2213 0
-352 -175 -315 2214 0
-40 -193 80 2215 0
203 -229 -437 2216 0
-164 -137 200 2217 0
3 -121 -178 2218 0
226 -292 286 2219 0
97 -323 271 2220 0
174 -47 -205 2221 0
-457 410 403 2222 0
260 -245 5 2223 0
-230 -360 -253 2224 0
180 260 424 2225 0
-288 -415 436 2226 0
252 -35 317 2227 0
-108 48 -19 2228 0
-109 223 -283 2229 0
129 -110 160 2230 0
-399 -228 143 2231 0
-355 -242 -383 2232 0
-411 -34 470 2233 0
-175 145 320 2234 0
280 -276 360 2235 0
40 -491 166 2236 0
409 -327 470 2237 0
260 297 222 2238 0
-213 253 -1 2239 0
-338 -480 -4 2240 0
-122 412 -353 2241 0
433 106 342 2242 0
74 233 171 2243 0
152 499 -432 2244 0
-120 -251 462 2245 0
309 -25 289 2246 0
47 88 354 2247 0
269 364 -340 2248 0
374 5 333 2249 0
-449 357 44 2250 0
9 -226 73 2251 0
239 37 309 2252 0
447 89 -250 2253 0
-311 -444 189 2254 0
-489 420 -491 2255 0
169 -134 325 2256 0
-27 -322 -295 2257 0
-47 -27 29 2258 0
426 -116 -138 2259 0
234 55 172 2260 0
-294 389 -94 2261 0
349 135 -480 2262 0
-174 424 209 2263 0
-351 163 -111 2264 0
116 112 -41 2265 0
29 475 141 2266 0
239 238 249 2267 0
167 123 334 2268 0
-193 -367 -165 2269 0
213 468 -340 2270 0
245 34 -413 2271 0
217 304 75 2272 0
62 -305 148 2273 0
219 93 223 2274 0
353 -438 -316 2275 0
126 -257 165 2276 0
-5 241 -359 2277 0
-458 184 -266 2278 0
-475 280 368 2279 0
-33 252 -219 2280 0
-49 226 -398 2281 0
-315 107 281 2282 0
171 499 -317 2283 0
458 439 396 2284 0
-273 333 -353 2285 0
225 492 -27 2286 0
290 291 45 2287 0
-354 251 362 2288 0
-198 -478 424 2289 0
379 75 145 2290 0
-313 -19 -194 2291 0
-102 -32 458 2292 0
448 76 -192 2293 0
-38 -1 210 2294 0
386 445 -481 2295 0
124 69 318 2296 0
405 268 422 2297 0
-141 443 79 2298 0
-46 -142 -498 2299 0
-320 338 245 2300 0
162 234 -177 2301 0
-105 406 -220 2302 0
355 -327 -409 2303 0
156 -8 71 2304 0
-2 410 27 2305 0
-1 -13 3 2306 0
268 273 180 2307 0
-21 261 195 2308 0
219 -184 255 2309 0
486 -215 130 2310 0
-334 184 346 2311 0
378 479 -424 2312 0
106 384 -145 2313 0
-226 358 -77 2314 0
-339 -496 244 2315 0
388 186 -464 2316 0
460 -55 142 2317 0
227 487 158 2318 0
10 297 137 2319 0
-42 296 -174 2320 0
-499 -115 -443 2321 0
156 79 490 2322 0
-299 -456 -398 2323 0
163 -440 -154 2324 0
350 -366 -207 2325 0
-387 374 -402 2326 0
-137 375 -264 2327 0
483 133 309 2328 0
-149 354 -81 2329 0
-131 293 109 2330 0
-229 422 -114 2331 0
126 -224 107 2332 0
458 290 -272 2333 0
-340 207 196 2334 0
81 -240 -340 2335 0
237 497 12 2336 0
318 -183 98 2337 0
458 417 -342 2338 0
107 -62 -414 2339 0
439 177 448 2340 0
365 -3 53 2341 0
91 160 471 2342 0
-391 -309 -213 2343 0
154 369 483 2344 0
392 -258 270 2345 0
-362 -482 286 2346 0
-370 -138 -381 2347 0
354 -122 -44 2348 0
-178 -280 -64 2349 0
-463 376 7 2350 0
-185 -353 -305 2351 0
-162 -309 368 2352 0
403 -218 478 2353 0
221 315 -135 2354 0
186 69 247 2355 0
121 -295 -468 2356 0
-101 -46 476 2357 0
-264 -105 283 2358 0
216 262 -136 2359 0
499 492 313 2360 0
-4 -166 -313 2361 0
-189 179 315 2362 0
-118 -120 151 2363 0
139 -467 -486 2364 0
-231 -102 338 2365 0
387 465 57 2366 0
-332 -159 488 2367 0
208 -328 -74 2368 0
-276 -208 113 2369 0
248 371 -177 2370 0
-484 323 416 2371 0
247 -38 -24 2372 0
-357 253 -27 2373 0
-382 -360 -161 2374 0
30 483 308 2375 0
239 -202 93 2376 0
441 -58 88 2377 0
-423 -406 467 2378 0
-468 133 379 2379 0
414 -339 -380 2380 0
116 -320 164 2381 0
9 -143 186 2382 0
-485 -325 229 2383 0
-459 454 109 2384 0
94 -389 -231 2385 0
27 -206 370 2386 0
392 -484 -157 2387 0
440 -276 122 2388 0
360 -193 145 2389 0
-54 250 362 2390 0
5 -134 138 2391 0
-76 -87 -98 2392 0
-484 -433 -347 2393 0
218 74 -306 2394 0
359 -375 71 2395 0
427 90 144 2396 0
284 483 256 2397 0
56 -304 158 2398 0
259 -223 276 2399 0
37 -489 94 2400 0
-378 346 -336 2401 0
-334 -421 -54 2402 0
-24 87 203 2403 0
179 15 139 2404 0
129 413 390 2405 0
488 -93 386 2406 0
-412 -208 -327 2407 0
337 -189 -295 2408 0
-401 448 -257 2409 0
89 -25 195 2410 0
-37 -216 -66 2411 0
-256 89 -34 2412 0
-299 -130 275 2413 0
-420 16 329 2414 0
-221 219 302 2415 0
496 -411 -365 2416 0
-129 335 -324 2417 0
-410 340 94 2418 0
256 459 -46 2419 0
231 -52 111 2420 0
-364 486 -71 2421 0
371 -102 -377 2422 0
324 -195 26 2423 0
11 -470 -45 2424 0
60 -248 -71 2425 0
-341 -319 -394 2426 0
-237 290 -6 2427 0
-442 -393 261 2428 0
-359 -481 -438 2429 0
-405 43 -280 2430 0
59 -358 348 2431 0
11 450 487 2432 0
-282 -347 -202 2433 0
267 -398 120 2434 0
-69 360 243 2435 0
336 439 -323 2436 0
-383 -370 -110 2437 0
-462 -362 -206 2438 0
-265 407 -58 2439 0
-141 -353 499 2440 0
274 -460 451 2441 0
-140 -435 -474 2442 0
334 405 -448 2443 0
-343 221 340 2444 0
-189 -164 172 2445 0
-174 65 -41 2446 0
-213 280 -322 2447 0
-311 225 -51 2448 0
366 46 101 2449 0
-184 408 -305 2450 0
-292 392 134 2451 0
-366 136 -89 2452 0
-65 -197 -131 2453 0
99 32 -230 2454 0
223 453 -428 2455 0
-414 -463 493 2456 0
186 196 324 2457 0
-495 -102 425 2458 0
304 -237 325 2459 0
335 -358 468 2460 0
10 118 -260 2461 0
24 118 -402 2462 0
405 265 352 2463 0
349 134 -179 2464 0
253 -145 -373 2465 0
-252 447 -323 2466 0
73 252 424 2467 0
-241 -283 125 2468 0
-12 -399 -277 2469 0
143 188 337 2470 0
-477 89 245 2471 0
-496 148 -13 2472 0
1 458 -500 2473 0
387 402 150 2474 0
-235 -389 359 2475 0
209 -69 -76 2476 0
-467 -381 289 2477 0
-213 -100 441 2478 0
-427 448 -211 2479 0
-126 162 151 2480 0
218 -287 -145 2481 0
97 335 -462 2482 0
-188 77 -241 2483 0
-31 498 148 2484 0
413 498 -13 2485 0
-24 98 236 2486 0
262 -356 214 2487 0
19 -154 341 2488 0
-237 -467 171 2489 0
-318 -107 -307 2490 0
137 108 388 2491 0
383 -227 252 2492 0
162 40 103 2493 0
-126 191 -297 2494 0
324 223 285 2495 0
-343 -420 428 2496 0
-472 32 193 2497 0
222 54 -162 2498 0
475 -492 176 2499 0
205 182 -349 2500 0
424 272 229 2501 0
222 401 -136 2502 0
-71 352 488 2503 0
256 -6 -27 2504 0
-329 277 289 2505 0
179 159 50 2506 0
432 -381 -2 2507 0
-183 -1 34 2508 0
-46 78 -478 2509 0
334 360 -485 2510 0
-1 383 323 2511 0
-54 269 -261 2512 0
-351 465 -81 2513 0
-267 -301 142 2514 0
388 10 223 2515 0
329 297 -332 2516 0
1 244 -498 2517 0
-62 -98 207 2518 0
87 -143 -387 2519 0
20 -423 331 2520 0
142 243 427 2521 0
-399 -244 482 2522 0
497 -454 427 2523 0
411 -483 -255 2524 0
454 -481 140 2525 0
-168 365 -52 2526 0
-320 408 409 2527 0
-272 134 470 2528 0
493 -383 -17 2529 0
-128 -226 -366 2530 0
-119 116 496 2531 0
44 325 402 2532 0
-104 -29 301 2533 0
-222 -418 261 2534 0
-57 84 138 2535 0
93 251 150 2536 0
152 -403 -277 2537 0
49 360 -225 2538 0
-208 -323 -35 2539 0
-248 -496 344 2540 0
-89 -316 216 2541 0
115 -363 -353 2542 0
211 -3 -413 2543 0
214 -403 -310 2544 0
74 -435 -296 2545 0
230 197 -115 2546 0
148 313 222 2547 0
-365 122 -252 2548 0
-23 -25 434 2549 0
336 165 93 2550 0
446 -411 17 2551 0
171 -179 -378 2552 0
239 191 175 2553 0
2 55 31 2554 0
419 234 -112 2555 0
-287 -72 -85 2556 0
364 93 488 2557 0
76 450 45 2558 0
-8 347 278 2559 0
-288 -189 -218 2560 0
-406 -84 58 2561 0
-25 -389 -12 2562 0
-139 -65 44 2563 0
162 147 -266 2564 0
272 -209 -147 2565 0
290 -111 -306 2566 0
261 241 457 2567 0
118 -308 438 2568 0
234 400 204 2569 0
-9 312 207 2570 0
42 -284 -338 2571 0
-293 148 -136 2572 0
-370 302 163 2573 0
-286 -65 -210 2574 0
-379 -411 133 2575 0
-474 296 -58 2576 0
479 -334 -351 2577 0
327 395 350 2578 0
-310 405 -313 2579 0
-26 -348 -423 2580 0
305 -318 -58 2581 0
-286 -6 -460 2582 0
-98 362 -364 2583 0
384 -19 404 2584 0
64 -268 355 2585 0
108 -109 359 2586 0
325 497 -439 2587 0
49 -342 184 2588 0
-60 70 -319 2589 0
-336 266 339 2590 0
410 187 379 2591 0
47 -103 93 2592 0
177 -253 145 2593 0
-289 96 -90 2594 0
-289 446 239 2595 0
257 -437 83 2596 0
375 490 274 2597 0
34 -392 135 2598 0
-426 483 -162 2599 0
-152 -180 463 2600 0
263 -446 292 2601 0
-10 285 -144 2602 0
106 65 -150 2603 0
-494 67 131 2604 0
-483 127 351 2605 0
-92 -339 257 2606 0
-308 -313 151 2607 0
-181 -36 -173 2608 0
-152 270 287 2609 0
-214 126 -367 2610 0
181 -77 51 2611 0
-418 -169 129 2612 0
79 143 229 2613 0
-421 -460 -306 2614 0
235 428 364 2615 0
413 -62 -173 2616 0
220 -342 -229 2617 0
167 415 155 2618 0
-299 -494 100 2619 0
135 -58 373 2620 0
145 450 -328 2621 0
312 -400 318 2622 0
46 -183 -486 2623 0
-363 500 462 2624 0
187 -352 -232 2625 0
-283 68 75 2626 0
-364 277 -117 2627 0
-168 -454 1 2628 0
-390 -310 103 2629 0
-396 -107 80 2630 0
-289 71 -88 2631 0
142 278 -21 2632 0
164 461 390 2633 0
384 192 16 2634 0
308 309 298 2635 0
40 -104 133 2636 0
245 -190 -235 2637 0
236 284 -82 2638 0
309 -208 -172 2639 0
332 -243 150 2640 0
272 235 92 2641 0
-141 153 301 2642 0
99 -47 68 2643 0
300 258 239 2644 0
-329 256 -47 2645 0
-355 93 -1 2646 0
130 -451 -405 2647 0
-385 351 174 2648 0
128 417 444 2649 0
334 25 -377 2650 0
