p cnf 2650 2150
162 90 -88 501 0
432 232 -384 502 0
-234 -315 -52 503 0
214 -394 277 504 0
396 -32 302 505 0
252 343 -321 506 0
278 479 -302 507 0
181 -54 71 508 0
420 88 43 509 0
-287 456 -246 510 0
-416 -485 375 511 0
-350 358 -252 512 0
40 -55 -389 513 0
333 168 -41 514 0
-99 -377 -253 515 0
-123 310 -234 516 0
-475 334 -59 517 0
244 211 -158 518 0
63 292 9 519 0
33 -55 -290 520 0
-280 492 102 521 0
-60 -302 -47 522 0
-303 -325 -6 523 0
273 -204 484 524 0
-277 397 282 525 0
192 -5 199 526 0
-104 -19 485 527 0
133 -11 -165 528 0
-100 -362 216 529 0
391 413 -430 530 0
216 -212 163 531 0
296 -232 -192 532 0
400 140 -88 533 0
-412 493 -304 534 0
151 -8 -187 535 0
317 40 -200 536 0
374 420 -89 537 0
404 -21 135 538 0
315 -84 -308 539 0
-383 433 -297 540 0
-179 406 324 541 0
-211 308 49 542 0
34 -63 207 543 0
298 -213 -196 544 0
-255 -467 276 545 0
458 -264 188 546 0
-278 -363 -283 547 0
-31 -150 -72 548 0
-339 222 78 549 0
390 143 -319 550 0
-66 354 53 551 0
143 -323 12 552 0
-79 247 -431 553 0
162 482 -343 554 0
409 -181 403 555 0
204 -99 375 556 0
-472 357 202 557 0
-356 20 272 558 0
127 487 267 559 0
-179 79 -228 560 0
433 88 -326 561 0
204 56 -446 562 0
369 -17 352 563 0
-340 -384 376 564 0
134 484 54 565 0
-56 452 -270 566 0
-41 359 -203 567 0
497 -108 123 568 0
53 -264 -492 569 0
333 349 -2 570 0
-499 252 -109 571 0
49 190 337 572 0
252 132 -143 573 0
-112 73 -291 574 0
487 343 -427 575 0
-121 448 189 576 0
-353 184 152 577 0
-76 69 -483 578 0
130 -105 -425 579 0
-24 -107 -286 580 0
31 325 -428 581 0
246 60 57 582 0
273 22 -89 583 0
68 20 102 584 0
-477 -109 -378 585 0
-481 171 -376 586 0
-14 370 -492 587 0
-425 -69 101 588 0
-446 -23 187 589 0
-3 26 331 590 0
138 388 284 591 0
-468 -49 -452 592 0
379 400 243 593 0
155 102 238 594 0
322 -450 -177 595 0
-419 156 -425 596 0
463 480 475 597 0
432 4 -35 598 0
-66 -106 -265 599 0
361 -311 -139 600 0
-417 126 -382 601 0
74 8 -312 602 0
100 486 432 603 0
-216 -103 168 604 0
-420 237 434 605 0
-410 236 181 606 0
-290 -270 123 607 0
288 277 93 608 0
-177 397 -56 609 0
298 -474 321 610 0
123 328 -19 611 0
-143 275 43 612 0
-98 77 126 613 0
-441 -347 -392 614 0
-329 -430 7 615 0
492 -97 -419 616 0
265 136 -361 617 0
-42 308 -388 618 0
-438 -195 -371 619 0
193 199 -225 620 0
-379 -21 -282 621 0
-495 -102 446 622 0
19 -153 -173 623 0
42 -403 -322 624 0
81 399 -308 625 0
493 -278 381 626 0
-187 -214 276 627 0
359 -286 -464 628 0
-210 -52 416 629 0
-233 -125 282 630 0
451 35 339 631 0
-365 481 -3 632 0
-499 484 -472 633 0
-65 -275 -54 634 0
354 424 -495 635 0
-258 -319 -262 636 0
495 -31 490 637 0
131 -394 269 638 0
-376 50 -189 639 0
52 331 126 640 0
-120 -40 304 641 0
-49 481 -443 642 0
-497 -85 -352 643 0
218 194 115 644 0
-399 -325 455 645 0
121 177 -311 646 0
-275 147 463 647 0
-191 -290 -223 648 0
81 -90 -363 649 0
383 -352 -49 650 0
209 -236 -416 651 0
-395 491 -15 652 0
-157 -166 317 653 0
-57 135 219 654 0
-430 324 202 655 0
170 -75 467 656 0
108 -453 8 657 0
-215 -316 -498 658 0
-352 272 -251 659 0
-255 254 -230 660 0
456 -4 -407 661 0
-266 22 143 662 0
84 193 -344 663 0
-186 92 -318 664 0
400 -353 167 665 0
-21 -255 58 666 0
92 -24 36 667 0
112 222 -26 668 0
218 386 -160 669 0
61 275 -97 670 0
-131 457 -149 671 0
-405 60 -36 672 0
89 -311 44 673 0
-92 -409 51 674 0
234 -426 -231 675 0
-494 -71 -129 676 0
312 -489 -113 677 0
-89 274 14 678 0
478 397 -473 679 0
-493 303 379 680 0
-46 -367 -442 681 0
257 413 320 682 0
-463 -156 418 683 0
12 489 406 684 0
-301 -225 330 685 0
-350 -221 -163 686 0
436 -213 55 687 0
67 344 -25 688 0
272 156 -386 689 0
-142 -444 196 690 0
-46 -409 102 691 0
174 120 471 692 0
-191 -29 378 693 0
-55 -300 26 694 0
212 -88 -320 695 0
36 45 -204 696 0
451 376 -186 697 0
-474 -44 -410 698 0
472 247 322 699 0
-473 351 -430 700 0
468 -146 -313 701 0
476 -361 20 702 0
453 -125 -71 703 0
-253 -478 -239 704 0
-25 -125 -345 705 0
164 -401 262 706 0
-69 -384 -359 707 0
159 96 67 708 0
-53 -482 150 709 0
-228 -9 -349 710 0
121 454 142 711 0
216 -41 323 712 0
-12 150 -249 713 0
206 -268 391 714 0
-254 -141 -82 715 0
-179 -128 104 716 0
335 -408 -272 717 0
-345 -229 145 718 0
-409 -208 -381 719 0
366 -69 54 720 0
-233 -74 312 721 0
-59 45 477 722 0
85 -393 -301 723 0
420 454 -250 724 0
496 -70 -29 725 0
383 -107 -407 726 0
76 70 176 727 0
-453 168 -278 728 0
-497 -296 208 729 0
221 -375 -159 730 0
-3 -403 373 731 0
-260 -369 -52 732 0
397 -147 -379 733 0
-182 88 -435 734 0
228 164 -325 735 0
373 437 276 736 0
-29 -75 137 737 0
-249 -155 -74 738 0
253 -467 61 739 0
345 124 -484 740 0
43 -19 55 741 0
15 -493 337 742 0
51 238 -411 743 0
142 237 -131 744 0
-222 16 -270 745 0
361 96 327 746 0
-394 -214 274 747 0
257 -48 -325 748 0
-250 -192 -19 749 0
-240 -346 -280 750 0
-87 414 -480 751 0
-440 66 -324 752 0
476 300 224 753 0
-457 256 128 754 0
-415 -362 300 755 0
422 -177 86 756 0
289 -373 -70 757 0
-447 -184 -396 758 0
-145 228 -153 759 0
-192 110 -255 760 0
-487 451 160 761 0
-181 296 235 762 0
-463 137 374 763 0
212 -493 -234 764 0
78 472 178 765 0
194 78 454 766 0
305 -137 157 767 0
249 265 55 768 0
295 469 -177 769 0
327 445 455 770 0
-159 -496 438 771 0
332 -406 -372 772 0
11 487 208 773 0
-43 -409 -130 774 0
440 500 343 775 0
376 496 -458 776 0
-431 297 57 777 0
404 -112 -244 778 0
490 222 -41 779 0
306 81 263 780 0
-111 -291 174 781 0
-356 441 -246 782 0
-60 189 -426 783 0
-277 -245 320 784 0
-476 55 99 785 0
205 -120 117 786 0
255 169 -235 787 0
-64 364 -371 788 0
238 -499 -18 789 0
-302 361 29 790 0
-285 -44 406 791 0
27 19 -65 792 0
186 441 83 793 0
384 175 -281 794 0
-325 423 -434 795 0
-14 480 38 796 0
-198 347 331 797 0
-374 127 414 798 0
208 243 -165 799 0
-199 211 200 800 0
33 -355 362 801 0
462 -261 246 802 0
442 -295 -366 803 0
-427 -119 -92 804 0
323 62 -428 805 0
-228 302 -16 806 0
-153 406 237 807 0
432 380 -84 808 0
-379 -83 131 809 0
-167 285 -436 810 0
106 -371 320 811 0
-397 -135 -44 812 0
419 219 310 813 0
-304 310 -107 814 0
-487 243 125 815 0
-468 -138 -315 816 0
-137 41 165 817 0
33 -194 14 818 0
-81 -461 27 819 0
-479 270 309 820 0
336 438 371 821 0
-184 455 -251 822 0
339 -389 -64 823 0
-478 412 -301 824 0
-166 214 -329 825 0
204 -99 -494 826 0
371 338 -170 827 0
-88 273 420 828 0
228 -104 26 829 0
-303 -280 329 830 0
-126 268 -398 831 0
-112 -286 234 832 0
27 -417 -59 833 0
-487 -320 -426 834 0
103 -386 -24 835 0
-383 109 142 836 0
-323 -405 -500 837 0
-415 377 405 838 0
310 133 -298 839 0
-50 20 150 840 0
478 -98 -137 841 0
299 -88 439 842 0
-128 -374 -263 843 0
-326 19 318 844 0
-151 -499 -248 845 0
394 -412 -24 846 0
175 425 -439 847 0
431 -94 -464 848 0
-323 50 163 849 0
38 147 173 850 0
364 -356 -394 851 0
-126 -335 364 852 0
-380 -270 445 853 0
499 79 -54 854 0
113 60 -257 855 0
-367 104 111 856 0
-476 -423 -110 857 0
-186 -488 297 858 0
354 41 220 859 0
-375 420 300 860 0
-377 -413 -219 861 0
-375 -458 127 862 0
-64 -455 245 863 0
-414 256 231 864 0
-96 308 488 865 0
-372 -89 -377 866 0
-210 137 -489 867 0
272 -20 -498 868 0
359 91 361 869 0
-387 323 211 870 0
-403 83 326 871 0
159 -468 -286 872 0
-52 22 98 873 0
-268 407 430 874 0
-425 321 172 875 0
428 217 -341 876 0
139 334 -77 877 0
204 -70 -36 878 0
249 -149 215 879 0
-334 -203 -211 880 0
414 -358 -317 881 0
-186 -377 60 882 0
56 322 -390 883 0
416 -376 142 884 0
479 346 -50 885 0
402 163 471 886 0
-423 -81 321 887 0
315 -195 401 888 0
323 242 302 889 0
380 29 -377 890 0
-82 -2 499 891 0
-196 390 17 892 0
-416 462 409 893 0
435 -235 465 894 0
-53 -163 -429 895 0
283 447 -169 896 0
464 452 -326 897 0
-57 -249 103 898 0
-254 213 -430 899 0
161 190 356 900 0
-268 -54 181 901 0
416 152 195 902 0
224 -230 80 903 0
470 362 60 904 0
-220 -407 -494 905 0
-84 15 237 906 0
-169 -355 -201 907 0
300 -303 317 908 0
303 409 -220 909 0
-461 286 423 910 0
169 -70 -197 911 0
54 -111 459 912 0
-144 215 -147 913 0
-250 327 -156 914 0
265 -443 -268 915 0
230 77 -2 916 0
-275 -237 253 917 0
119 -366 -262 918 0
420 467 173 919 0
162 -500 -408 920 0
498 -245 396 921 0
-212 -340 -173 922 0
398 174 -307 923 0
-57 -92 77 924 0
-55 -267 -416 925 0
-155 -284 -108 926 0
183 65 60 927 0
-439 450 4 928 0
-392 164 -492 929 0
-260 132 -377 930 0
-147 262 148 931 0
-480 -341 195 932 0
390 -493 -59 933 0
-204 210 -384 934 0
241 -384 -155 935 0
455 -496 -229 936 0
12 -217 -306 937 0
279 308 -375 938 0
356 57 72 939 0
-116 -209 475 940 0
-14 -80 116 941 0
-276 239 471 942 0
262 -10 -461 943 0
-89 321 -356 944 0
-446 94 -33 945 0
-334 -154 -57 946 0
-217 -76 37 947 0
-277 299 476 948 0
141 -159 -263 949 0
282 -494 23 950 0
-2 84 -76 951 0
63 488 407 952 0
160 -440 399 953 0
-288 -5 -428 954 0
-405 -272 -444 955 0
340 -266 484 956 0
-395 -32 155 957 0
239 -476 -453 958 0
-340 255 -347 959 0
435 -81 220 960 0
437 440 261 961 0
-74 -262 19 962 0
217 426 -93 963 0
360 -336 -389 964 0
66 -417 -429 965 0
395 -150 198 966 0
-25 186 -247 967 0
466 -283 -406 968 0
12 357 -419 969 0
146 -436 67 970 0
-420 162 438 971 0
-309 -75 -494 972 0
429 305 -240 973 0
142 -198 49 974 0
-324 -243 -35 975 0
367 425 413 976 0
-493 89 -125 977 0
-419 -497 467 978 0
-172 9 163 979 0
-360 172 332 980 0
262 246 -354 981 0
21 -319 -355 982 0
338 21 -419 983 0
265 78 -184 984 0
-422 481 -140 985 0
-322 -196 -359 986 0
-16 32 40 987 0
320 -415 -275 988 0
84 311 -127 989 0
99 171 -290 990 0
10 442 41 991 0
-126 84 85 992 0
-4 91 403 993 0
-495 349 363 994 0
78 -272 52 995 0
-135 -121 -169 996 0
-342 440 9 997 0
-221 -469 124 998 0
219 326 9 999 0
-139 -285 353 1000 0
-500 -142 108 1001 0
295 -489 262 1002 0
-446 -264 357 1003 0
49 -359 -104 1004 0
-424 -214 -130 1005 0
342 43 489 1006 0
-366 -61 -207 1007 0
-472 -431 -325 1008 0
-128 151 -143 1009 0
409 18 -148 1010 0
-348 -225 -396 1011 0
-221 64 -398 1012 0
61 -348 237 1013 0
133 -169 -208 1014 0
-296 433 -238 1015 0
70 -257 232 1016 0
-317 -160 -67 1017 0
-182 -28 -132 1018 0
270 -242 341 1019 0
268 -42 294 1020 0
398 140 -338 1021 0
-308 -336 428 1022 0
-74 -203 54 1023 0
-399 142 -148 1024 0
-100 257 86 1025 0
-374 -161 -427 1026 0
350 192 418 1027 0
245 444 -494 1028 0
-114 -362 -475 1029 0
-224 -498 456 1030 0
113 112 -345 1031 0
278 451 -261 1032 0
-159 -94 -409 1033 0
-480 -475 -322 1034 0
384 498 82 1035 0
147 35 -176 1036 0
-495 81 77 1037 0
-115 58 -205 1038 0
215 53 -424 1039 0
261 260 -339 1040 0
273 -197 -249 1041 0
-44 217 135 1042 0
271 -112 -430 1043 0
-214 -432 -469 1044 0
-391 -171 455 1045 0
-499 -142 -171 1046 0
-38 10 209 1047 0
473 -459 176 1048 0
123 -156 230 1049 0
320 344 213 1050 0
-84 -388 63 1051 0
167 367 23 1052 0
340 189 -434 1053 0
-104 -44 276 1054 0
89 -36 -41 1055 0
57 175 41 1056 0
-222 333 -241 1057 0
182 342 251 1058 0
-98 -428 23 1059 0
190 306 -77 1060 0
190 231 -406 1061 0
-293 219 -158 1062 0
-83 -125 126 1063 0
-464 133 -420 1064 0
-2 -239 -409 1065 0
-370 -279 -374 1066 0
-315 328 -87 1067 0
448 126 -344 1068 0
21 411 240 1069 0
-106 247 -137 1070 0
449 -162 -184 1071 0
-49 -203 -177 1072 0
-90 -157 -188 1073 0
9 451 41 1074 0
164 64 -188 1075 0
74 221 337 1076 0
93 -458 -193 1077 0
126 -344 -18 1078 0
-201 -93 86 1079 0
-150 -280 103 1080 0
-278 10 -190 1081 0
401 -59 28 1082 0
164 195 -35 1083 0
360 -28 313 1084 0
-371 343 -400 1085 0
496 -259 376 1086 0
-454 -334 240 1087 0
-397 -207 -355 1088 0
-469 -323 394 1089 0
-346 159 404 1090 0
-365 230 -304 1091 0
3 -168 240 1092 0
434 463 356 1093 0
-177 246 235 1094 0
461 224 81 1095 0
431 280 377 1096 0
333 57 97 1097 0
146 -260 385 1098 0
243 247 -497 1099 0
317 -97 83 1100 0
216 -86 -278 1101 0
-57 149 -450 1102 0
-330 -456 -179 1103 0
174 -380 -7 1104 0
66 -357 -174 1105 0
428 -471 493 1106 0
263 130 221 1107 0
415 163 343 1108 0
352 300 480 1109 0
-389 -488 398 1110 0
336 -278 130 1111 0
244 335 -8 1112 0
47 264 -141 1113 0
-299 166 -276 1114 0
130 -267 -52 1115 0
-446 144 -316 1116 0
136 -11 78 1117 0
-281 312 118 1118 0
-295 -293 -244 1119 0
-257 151 37 1120 0
-155 -135 429 1121 0
-184 -491 265 1122 0
-369 163 -140 1123 0
325 140 -473 1124 0
-272 450 -10 1125 0
443 6 -197 1126 0
-296 -213 1 1127 0
313 -372 -205 1128 0
-244 -346 243 1129 0
314 -442 -279 1130 0
30 210 -353 1131 0
14 6 -434 1132 0
-85 -99 329 1133 0
259 288 -364 1134 0
59 -408 -419 1135 0
-55 21 -345 1136 0
-103 362 229 1137 0
-488 -468 371 1138 0
-14 396 143 1139 0
119 113 228 1140 0
-68 -80 -413 1141 0
-393 453 -281 1142 0
149 463 269 1143 0
239 -173 -292 1144 0
13 312 12 1145 0
220 -451 201 1146 0
-345 -468 333 1147 0
335 -219 -189 1148 0
355 111 98 1149 0
17 448 -412 1150 0
350 381 351 1151 0
-36 -165 -140 1152 0
-363 -139 340 1153 0
-30 -131 263 1154 0
-112 169 421 1155 0
70 -452 -244 1156 0
231 111 92 1157 0
36 -113 -399 1158 0
201 356 430 1159 0
178 100 104 1160 0
-4 32 461 1161 0
-100 2 81 1162 0
88 -205 -210 1163 0
-131 483 134 1164 0
-137 -142 -46 1165 0
-487 25 -58 1166 0
-481 -72 -490 1167 0
227 -67 14 1168 0
46 427 3 1169 0
-164 -399 -261 1170 0
213 -383 488 1171 0
-344 -97 -402 1172 0
-424 260 -140 1173 0
94 139 100 1174 0
257 -438 -19 1175 0
-421 -8 -252 1176 0
-371 275 -427 1177 0
-84 -18 52 1178 0
-161 -97 -400 1179 0
381 484 457 1180 0
-465 15 409 1181 0
309 229 392 1182 0
124 -385 -157 1183 0
-135 -431 358 1184 0
341 58 -223 1185 0
-445 -67 -135 1186 0
-421 230 117 1187 0
369 349 -486 1188 0
-321 11 -345 1189 0
318 -479 38 1190 0
128 -376 259 1191 0
-404 91 257 1192 0
-117 -319 372 1193 0
325 184 -424 1194 0
-13 211 -186 1195 0
-422 -457 336 1196 0
-100 188 20 1197 0
-483 185 159 1198 0
381 2 -124 1199 0
-179 55 -193 1200 0
-458 -351 -449 1201 0
-427 419 87 1202 0
181 -50 374 1203 0
21 -252 472 1204 0
-420 -83 -61 1205 0
-451 -155 -87 1206 0
191 -488 -35 1207 0
-211 -82 -247 1208 0
-47 253 86 1209 0
-488 269 291 1210 0
118 -359 57 1211 0
141 496 423 1212 0
496 222 258 1213 0
90 433 -257 1214 0
119 -249 -340 1215 0
-373 -107 332 1216 0
-294 -173 -110 1217 0
190 -298 -439 1218 0
-430 -471 114 1219 0
271 -70 -477 1220 0
-166 -421 308 1221 0
-97 180 149 1222 0
-196 153 97 1223 0
324 -460 469 1224 0
-123 393 71 1225 0
229 86 111 1226 0
-287 8 29 1227 0
209 -202 152 1228 0
342 -417 407 1229 0
-321 121 -425 1230 0
221 -230 -81 1231 0
-404 228 341 1232 0
292 353 -483 1233 0
-164 56 -269 1234 0
191 361 -159 1235 0
18 462 3 1236 0
299 462 236 1237 0
-357 128 -370 1238 0
391 -431 268 1239 0
185 144 -227 1240 0
220 218 -101 1241 0
109 338 340 1242 0
405 -188 308 1243 0
-384 296 -191 1244 0
-36 487 135 1245 0
415 -397 -380 1246 0
262 289 123 1247 0
104 169 -490 1248 0
147 21 95 1249 0
292 -138 250 1250 0
-477 -260 -120 1251 0
-310 432 249 1252 0
180 -92 379 1253 0
47 -228 -291 1254 0
262 472 -294 1255 0
-449 -239 -255 1256 0
-463 -177 -238 1257 0
245 -152 -403 1258 0
-4 -419 -491 1259 0
57 2 457 1260 0
130 -339 -380 1261 0
-6 454 52 1262 0
-151 -64 156 1263 0
464 -17 -422 1264 0
-55 -78 -398 1265 0
-295 -333 -175 1266 0
-269 -452 -50 1267 0
162 110 -499 1268 0
309 345 -440 1269 0
340 8 -72 1270 0
-202 -30 -430 1271 0
-359 364 381 1272 0
-12 317 -430 1273 0
-389 -41 294 1274 0
-80 -132 -344 1275 0
160 -373 266 1276 0
178 360 330 1277 0
142 354 -315 1278 0
-348 -378 -126 1279 0
-118 385 52 1280 0
-33 -69 -485 1281 0
-474 -18 146 1282 0
386 424 403 1283 0
285 -449 229 1284 0
260 -209 402 1285 0
461 -103 -327 1286 0
329 206 178 1287 0
95 -434 242 1288 0
321 -151 109 1289 0
-249 129 369 1290 0
76 -360 279 1291 0
89 -480 -167 1292 0
451 -207 -449 1293 0
468 393 -316 1294 0
240 -197 -499 1295 0
-161 307 120 1296 0
-262 289 106 1297 0
488 358 187 1298 0
142 -226 -137 1299 0
-487 -449 -52 1300 0
199 -354 -186 1301 0
115 498 -288 1302 0
-284 135 -303 1303 0
-377 243 109 1304 0
-332 309 40 1305 0
125 -26 -81 1306 0
-316 339 243 1307 0
131 -256 173 1308 0
40 207 -413 1309 0
-372 -124 113 1310 0
51 421 10 1311 0
-184 -183 194 1312 0
-473 -142 -461 1313 0
248 -196 -150 1314 0
-113 181 110 1315 0
-269 127 286 1316 0
451 294 383 1317 0
-118 301 351 1318 0
-301 -23 -35 1319 0
445 102 -232 1320 0
-178 462 -210 1321 0
-394 -500 -360 1322 0
-79 -94 -411 1323 0
-207 127 152 1324 0
-204 70 -262 1325 0
128 27 276 1326 0
-482 -330 -393 1327 0
-423 378 -389 1328 0
101 -468 85 1329 0
225 292 21 1330 0
152 -393 -70 1331 0
168 318 -288 1332 0
178 -180 -110 1333 0
183 95 339 1334 0
328 172 173 1335 0
1 220 47 1336 0
-58 -340 226 1337 0
-181 -105 -165 1338 0
-409 466 -77 1339 0
386 492 -294 1340 0
199 -266 -153 1341 0
294 72 102 1342 0
301 121 -225 1343 0
381 -247 -485 1344 0
-213 61 -169 1345 0
457 465 -355 1346 0
-387 119 -227 1347 0
-299 -438 131 1348 0
-409 425 476 1349 0
405 282 -98 1350 0
32 -316 -27 1351 0
-248 -5 253 1352 0
-209 102 -351 1353 0
-245 348 150 1354 0
389 -346 -378 1355 0
466 223 180 1356 0
423 309 460 1357 0
132 -393 -430 1358 0
48 348 -199 1359 0
-197 448 322 1360 0
305 102 164 1361 0
-182 69 318 1362 0
389 -230 388 1363 0
347 203 249 1364 0
-87 -408 127 1365 0
63 -416 425 1366 0
37 -233 -438 1367 0
62 314 94 1368 0
425 110 -53 1369 0
321 -182 452 1370 0
-87 -362 151 1371 0
-79 96 -345 1372 0
347 -228 -205 1373 0
320 -342 -488 1374 0
130 174 -263 1375 0
-445 -168 -309 1376 0
-346 139 111 1377 0
398 -159 -453 1378 0
-74 313 -346 1379 0
99 430 443 1380 0
306 141 -218 1381 0
-498 -362 -324 1382 0
-496 256 -2 1383 0
475 282 172 1384 0
450 -260 116 1385 0
-161 -29 292 1386 0
490 -6 -116 1387 0
-71 -432 345 1388 0
259 -178 492 1389 0
366 -150 331 1390 0
-140 16 -446 1391 0
-204 -428 -294 1392 0
284 49 -321 1393 0
48 420 405 1394 0
401 103 461 1395 0
-493 -129 -379 1396 0
-7 113 -439 1397 0
446 -375 -304 1398 0
-98 -446 5 1399 0
-471 423 259 1400 0
417 81 48 1401 0
133 -127 241 1402 0
-51 416 -205 1403 0
-49 46 -446 1404 0
286 -327 417 1405 0
-331 490 149 1406 0
341 -155 -115 1407 0
-293 -441 -290 1408 0
488 471 306 1409 0
-202 -300 -212 1410 0
267 282 -260 1411 0
-441 -358 127 1412 0
365 435 480 1413 0
-362 347 -204 1414 0
296 -2 168 1415 0
198 450 -403 1416 0
302 488 -168 1417 0
457 -3 68 1418 0
-468 -50 -350 1419 0
13 -63 -445 1420 0
-394 -160 -351 1421 0
-420 307 173 1422 0
310 -399 -63 1423 0
489 71 -448 1424 0
109 -433 -229 1425 0
51 86 -466 1426 0
233 220 195 1427 0
-101 328 -128 1428 0
-379 310 420 1429 0
-138 -464 -184 1430 0
328 476 -493 1431 0
407 -358 96 1432 0
151 391 -32 1433 0
-30 -406 143 1434 0
215 -331 -383 1435 0
499 -145 107 1436 0
-279 221 -291 1437 0
407 -345 398 1438 0
-27 111 472 1439 0
462 -71 -466 1440 0
-76 235 -325 1441 0
-331 440 -106 1442 0
350 -112 254 1443 0
380 -456 38 1444 0
100 -437 -290 1445 0
-366 -292 89 1446 0
464 -481 443 1447 0
75 135 -44 1448 0
-315 -492 -146 1449 0
12 -82 -170 1450 0
291 -76 -267 1451 0
-175 121 63 1452 0
327 482 -443 1453 0
-147 -166 -481 1454 0
-262 472 -193 1455 0
-437 119 99 1456 0
360 -230 253 1457 0
-100 171 134 1458 0
-355 393 13 1459 0
-440 -15 315 1460 0
229 -155 -477 1461 0
164 -382 35 1462 0
10 -221 -237 1463 0
5 -143 359 1464 0
-322 -232 -333 1465 0
475 -400 435 1466 0
-36 -340 80 1467 0
-369 -125 342 1468 0
325 217 26 1469 0
-429 399 346 1470 0
-46 -94 -417 1471 0
430 -289 117 1472 0
482 -468 -311 1473 0
55 -146 -98 1474 0
-70 -368 -300 1475 0
-474 213 439 1476 0
-39 -448 -319 1477 0
-103 197 -35 1478 0
-373 455 -281 1479 0
61 139 452 1480 0
-467 -100 134 1481 0
-330 -60 368 1482 0
-224 -239 -367 1483 0
-272 182 201 1484 0
37 -159 232 1485 0
-279 74 498 1486 0
-498 -10 -494 1487 0
-303 486 402 1488 0
306 -246 -283 1489 0
179 316 -165 1490 0
-218 -93 -435 1491 0
-96 90 -178 1492 0
112 97 -427 1493 0
-487 281 -367 1494 0
175 273 -113 1495 0
-395 -292 -156 1496 0
-464 -98 -273 1497 0
-431 145 445 1498 0
118 -48 -28 1499 0
-242 239 -219 1500 0
-389 276 191 1501 0
-13 367 -498 1502 0
183 467 113 1503 0
388 -126 121 1504 0
-239 -343 -47 1505 0
-55 -7 -312 1506 0
96 313 -122 1507 0
-183 -384 -145 1508 0
304 296 465 1509 0
-404 179 297 1510 0
-185 -27 -124 1511 0
-358 -86 361 1512 0
126 -5 -388 1513 0
-96 -335 133 1514 0
-353 279 329 1515 0
392 183 -186 1516 0
477 417 336 1517 0
-199 240 147 1518 0
-193 -456 402 1519 0
261 451 -146 1520 0
-10 458 408 1521 0
-292 35 60 1522 0
-45 -313 -124 1523 0
283 -208 264 1524 0
408 -279 131 1525 0
139 488 106 1526 0
-183 -37 -382 1527 0
-77 -68 -241 1528 0
-211 30 -349 1529 0
-113 306 -427 1530 0
-189 -37 46 1531 0
-489 -250 -399 1532 0
499 -211 -198 1533 0
62 -448 416 1534 0
27 485 -330 1535 0
-475 -481 -456 1536 0
198 -474 20 1537 0
-457 93 135 1538 0
-114 -201 -73 1539 0
-240 -14 139 1540 0
-465 -478 -468 1541 0
219 90 129 1542 0
1 216 207 1543 0
-459 206 392 1544 0
-81 65 -124 1545 0
-404 216 172 1546 0
-132 -332 -84 1547 0
246 -455 -134 1548 0
136 -454 -292 1549 0
15 -390 398 1550 0
168 -443 -84 1551 0
35 472 95 1552 0
289 -424 353 1553 0
71 53 -259 1554 0
-174 -454 -416 1555 0
405 -414 318 1556 0
127 437 372 1557 0
-220 -296 -387 1558 0
-463 137 28 1559 0
302 354 353 1560 0
-233 -24 192 1561 0
338 -202 -127 1562 0
191 474 344 1563 0
484 -161 86 1564 0
425 -413 281 1565 0
-210 -368 -98 1566 0
274 -238 461 1567 0
419 471 369 1568 0
391 -428 252 1569 0
-144 -122 -97 1570 0
300 -163 -314 1571 0
-323 -146 -84 1572 0
297 -150 479 1573 0
255 -33 473 1574 0
409 -146 -65 1575 0
353 -175 -265 1576 0
359 240 -193 1577 0
-119 243 -281 1578 0
148 442 389 1579 0
-241 121 196 1580 0
-359 369 214 1581 0
227 358 15 1582 0
298 387 86 1583 0
-450 -352 -47 1584 0
339 -374 222 1585 0
63 386 380 1586 0
28 -47 -135 1587 0
232 -466 62 1588 0
-389 -286 21 1589 0
-262 22 180 1590 0
-309 -74 314 1591 0
83 139 481 1592 0
-178 -228 487 1593 0
-459 -396 -497 1594 0
113 194 264 1595 0
-267 -217 -456 1596 0
-157 -206 132 1597 0
-154 306 60 1598 0
474 111 25 1599 0
146 16 53 1600 0
294 308 -69 1601 0
-420 -63 -318 1602 0
-416 -214 -51 1603 0
-325 352 -454 1604 0
396 -76 399 1605 0
296 -166 -262 1606 0
-218 311 -402 1607 0
304 -89 -184 1608 0
337 111 319 1609 0
-410 -183 346 1610 0
-97 105 -275 1611 0
-125 -141 -312 1612 0
-242 -274 -195 1613 0
-369 209 -398 1614 0
-291 422 357 1615 0
-485 -236 -68 1616 0
359 -134 -472 1617 0
398 -230 97 1618 0
-34 -485 105 1619 0
89 259 136 1620 0
-148 480 -317 1621 0
-60 276 87 1622 0
-66 -391 43 1623 0
-21 -393 70 1624 0
396 430 -109 1625 0
-446 -64 -198 1626 0
331 -110 484 1627 0
355 136 167 1628 0
-116 -472 429 1629 0
-69 480 -176 1630 0
452 -239 -337 1631 0
119 -24 73 1632 0
158 160 200 1633 0
225 -455 479 1634 0
408 325 -190 1635 0
-17 414 -204 1636 0
-410 254 386 1637 0
283 -366 248 1638 0
81 321 391 1639 0
-477 -415 -390 1640 0
308 7 431 1641 0
57 262 -255 1642 0
-86 -46 -448 1643 0
294 -270 380 1644 0
-300 -316 36 1645 0
381 -210 229 1646 0
-177 227 -217 1647 0
322 -321 -18 1648 0
378 216 146 1649 0
299 -364 63 1650 0
388 -374 415 1651 0
477 -136 60 1652 0
-312 89 191 1653 0
-433 -123 -335 1654 0
-230 -171 -371 1655 0
-157 232 -209 1656 0
-206 -407 -368 1657 0
469 232 -134 1658 0
50 96 114 1659 0
228 -277 173 1660 0
-346 390 367 1661 0
-412 -166 -457 1662 0
-401 -403 -420 1663 0
-138 431 -127 1664 0
-44 274 -158 1665 0
-175 -132 -343 1666 0
50 324 -308 1667 0
119 -338 231 1668 0
450 239 366 1669 0
-70 -392 2 1670 0
281 -377 129 1671 0
-256 -255 142 1672 0
99 267 -69 1673 0
478 -32 -402 1674 0
-280 -55 139 1675 0
79 459 400 1676 0
-458 278 -289 1677 0
178 -248 424 1678 0
450 94 138 1679 0
258 467 -165 1680 0
100 368 469 1681 0
-432 -359 -236 1682 0
-10 -282 -66 1683 0
163 -322 56 1684 0
-73 472 -289 1685 0
205 -427 -476 1686 0
21 -172 114 1687 0
128 424 450 1688 0
-451 434 -80 1689 0
-306 136 -462 1690 0
-302 174 -176 1691 0
93 382 499 1692 0
176 173 107 1693 0
-245 -302 -205 1694 0
-54 25 -426 1695 0
-396 36 -185 1696 0
-359 221 -23 1697 0
76 -366 -263 1698 0
-416 -193 -312 1699 0
-266 22 -80 1700 0
-320 -84 -326 1701 0
71 -3 154 1702 0
146 -262 -363 1703 0
-357 -332 181 1704 0
317 -87 -239 1705 0
262 -186 88 1706 0
-105 485 -186 1707 0
279 363 4 1708 0
-111 270 401 1709 0
-316 -452 -358 1710 0
-93 278 -234 1711 0
-229 182 -267 1712 0
163 -433 465 1713 0
154 -1 272 1714 0
-167 334 -59 1715 0
36 -497 -29 1716 0
155 -139 -105 1717 0
-378 -299 162 1718 0
91 -346 -298 1719 0
356 163 -62 1720 0
428 392 -99 1721 0
-107 -449 -89 1722 0
-459 461 -209 1723 0
-222 -31 133 1724 0
156 386 365 1725 0
-62 -106 -112 1726 0
68 -478 -20 1727 0
-408 398 176 1728 0
172 -166 -486 1729 0
-147 421 325 1730 0
83 104 -407 1731 0
43 -108 -486 1732 0
-387 -407 -79 1733 0
-400 -447 -114 1734 0
-196 186 -429 1735 0
-431 -428 -357 1736 0
-307 -233 -48 1737 0
196 -463 -245 1738 0
175 51 -49 1739 0
245 -387 -372 1740 0
-106 -120 -427 1741 0
-203 -171 195 1742 0
-19 145 420 1743 0
-178 1 388 1744 0
-460 87 -198 1745 0
-108 160 173 1746 0
256 290 -303 1747 0
-285 -491 274 1748 0
77 -466 -211 1749 0
473 -431 282 1750 0
439 303 -44 1751 0
-206 435 463 1752 0
-26 -270 -92 1753 0
481 -374 -54 1754 0
-327 -190 -309 1755 0
-105 -362 374 1756 0
-29 82 -325 1757 0
428 284 -225 1758 0
-130 37 -184 1759 0
-443 -71 -251 1760 0
415 155 217 1761 0
-395 18 2 1762 0
205 -219 480 1763 0
25 -267 -83 1764 0
349 -179 -237 1765 0
-276 -150 311 1766 0
-489 27 412 1767 0
207 -269 477 1768 0
468 -473 54 1769 0
34 -384 201 1770 0
432 -311 -227 1771 0
-406 -131 368 1772 0
328 217 77 1773 0
74 -229 -425 1774 0
-471 -293 -52 1775 0
-84 234 366 1776 0
139 -486 79 1777 0
273 -13 286 1778 0
100 438 431 1779 0
464 461 171 1780 0
-488 -266 -356 1781 0
491 -126 394 1782 0
124 425 -286 1783 0
-146 358 421 1784 0
470 392 -82 1785 0
64 -255 17 1786 0
371 -56 -4 1787 0
-218 359 486 1788 0
490 -182 25 1789 0
-108 -292 203 1790 0
-363 262 -362 1791 0
86 181 -373 1792 0
-197 295 36 1793 0
-183 -98 208 1794 0
320 135 -145 1795 0
372 71 -390 1796 0
-83 -323 174 1797 0
95 -129 -223 1798 0
465 -89 -249 1799 0
-287 201 430 1800 0
300 -132 -372 1801 0
-33 303 332 1802 0
453 -89 -408 1803 0
-471 415 -455 1804 0
334 -231 -348 1805 0
-446 -120 -378 1806 0
-403 92 -432 1807 0
-238 -405 -234 1808 0
-493 -3 -201 1809 0
155 332 99 1810 0
-456 -291 -340 1811 0
352 89 -112 1812 0
-144 -128 -416 1813 0
-156 391 288 1814 0
246 197 249 1815 0
-149 -207 -46 1816 0
280 212 171 1817 0
-411 45 191 1818 0
-371 199 -272 1819 0
317 375 -296 1820 0
158 -126 314 1821 0
231 -89 -456 1822 0
202 457 148 1823 0
384 418 -261 1824 0
492 460 286 1825 0
256 204 -458 1826 0
-350 -453 258 1827 0
-489 -316 -85 1828 0
-298 -293 181 1829 0
397 -7 84 1830 0
-81 421 -455 1831 0
-420 -462 326 1832 0
-487 387 141 1833 0
-423 303 -323 1834 0
193 60 311 1835 0
-496 5 104 1836 0
-111 99 -185 1837 0
173 54 282 1838 0
300 77 -131 1839 0
42 99 -94 1840 0
-186 345 -169 1841 0
-222 -31 53 1842 0
-358 450 102 1843 0
-217 -349 -246 1844 0
-255 478 -402 1845 0
-84 -410 -474 1846 0
235 -269 -480 1847 0
-205 -305 -192 1848 0
-168 70 128 1849 0
-263 446 -300 1850 0
-217 439 144 1851 0
-490 257 332 1852 0
66 290 220 1853 0
178 254 205 1854 0
-49 232 -339 1855 0
185 -266 325 1856 0
-162 324 -430 1857 0
-483 128 66 1858 0
76 -96 203 1859 0
416 -33 133 1860 0
-322 428 -391 1861 0
-398 -497 -190 1862 0
326 -229 361 1863 0
46 237 75 1864 0
357 500 -54 1865 0
275 -258 421 1866 0
-33 492 -161 1867 0
-70 467 -491 1868 0
139 285 222 1869 0
210 -164 310 1870 0
257 -436 48 1871 0
-33 314 -331 1872 0
-335 33 244 1873 0
123 -85 346 1874 0
-414 -227 -423 1875 0
-62 -101 27 1876 0
-229 -106 156 1877 0
64 -219 390 1878 0
-282 256 -268 1879 0
-228 457 -473 1880 0
444 -154 82 1881 0
-19 15 -399 1882 0
146 -466 -5 1883 0
447 -312 361 1884 0
-254 -90 -47 1885 0
-108 342 330 1886 0
337 155 462 1887 0
433 -41 398 1888 0
-334 190 386 1889 0
336 -111 318 1890 0
-222 -481 177 1891 0
57 -215 -295 1892 0
-198 -306 44 1893 0
5 -336 -132 1894 0
-393 -293 37 1895 0
66 414 -162 1896 0
-367 123 42 1897 0
-353 -47 90 1898 0
-60 -122 166 1899 0
173 327 -451 1900 0
29 -35 -258 1901 0
111 -257 168 1902 0
-374 122 201 1903 0
89 336 339 1904 0
22 -27 -246 1905 0
21 109 -218 1906 0
-221 -286 297 1907 0
262 -467 58 1908 0
208 88 -132 1909 0
324 10 -186 1910 0
-341 -214 -355 1911 0
247 274 -119 1912 0
-467 92 -144 1913 0
116 -212 -66 1914 0
-408 315 24 1915 0
-450 -212 -180 1916 0
-119 -62 21 1917 0
414 -212 -378 1918 0
-166 -388 244 1919 0
497 -91 268 1920 0
186 -52 94 1921 0
-445 262 480 1922 0
-133 20 94 1923 0
10 44 498 1924 0
-482 286 176 1925 0
117 311 214 1926 0
141 -417 -117 1927 0
-145 391 445 1928 0
-272 94 91 1929 0
-164 490 -390 1930 0
-190 227 193 1931 0
-284 -116 140 1932 0
-422 -246 -272 1933 0
52 130 154 1934 0
-393 37 -470 1935 0
-282 -9 -65 1936 0
293 54 426 1937 0
-322 47 354 1938 0
-445 -241 -285 1939 0
387 -417 -184 1940 0
145 122 260 1941 0
-492 170 -288 1942 0
-64 180 -302 1943 0
-401 203 105 1944 0
-199 312 455 1945 0
83 363 286 1946 0
-463 332 355 1947 0
-278 329 189 1948 0
-333 203 -323 1949 0
350 135 -310 1950 0
-281 55 358 1951 0
242 283 253 1952 0
-320 -450 474 1953 0
247 -352 -443 1954 0
126 -476 72 1955 0
434 -470 -432 1956 0
-198 319 132 1957 0
-483 -451 -65 1958 0
173 -55 -274 1959 0
112 -83 382 1960 0
423 -190 -284 1961 0
171 210 230 1962 0
61 15 389 1963 0
135 169 121 1964 0
159 22 261 1965 0
35 159 456 1966 0
382 367 -419 1967 0
10 -380 118 1968 0
-201 -32 -366 1969 0
-9 331 463 1970 0
371 -465 474 1971 0
477 -253 454 1972 0
-248 -374 150 1973 0
-327 -223 -272 1974 0
26 350 -171 1975 0
199 -210 381 1976 0
25 -116 295 1977 0
448 -32 -276 1978 0
-161 -182 368 1979 0
377 313 -162 1980 0
-7 48 -275 1981 0
-285 464 460 1982 0
-382 500 -163 1983 0
-220 195 -128 1984 0
281 320 144 1985 0
-76 -51 388 1986 0
-86 309 -172 1987 0
-101 -16 495 1988 0
338 462 -145 1989 0
-242 57 193 1990 0
-59 227 450 1991 0
208 64 -394 1992 0
-25 277 7 1993 0
-369 448 385 1994 0
-83 -100 324 1995 0
-160 -29 403 1996 0
-419 -475 -296 1997 0
-120 -358 -269 1998 0
338 -170 -138 1999 0
-375 -305 -462 2000 0
-441 -2 345 2001 0
344 -12 7 2002 0
-159 -280 -255 2003 0
-19 -487 -372 2004 0
-256 -428 -235 2005 0
-414 -430 49 2006 0
254 -171 -107 2007 0
-196 -367 135 2008 0
-238 -79 253 2009 0
-464 170 -130 2010 0
-397 27 333 2011 0
312 -405 -341 2012 0
436 278 -318 2013 0
-237 18 401 2014 0
-167 -178 378 2015 0
374 -397 -445 2016 0
-183 150 -427 2017 0
87 493 484 2018 0
497 -495 174 2019 0
272 -141 384 2020 0
-414 429 398 2021 0
-236 346 35 2022 0
9 -239 -154 2023 0
-13 -249 304 2024 0
391 -95 478 2025 0
215 -160 391 2026 0
55 283 398 2027 0
-494 130 -239 2028 0
-116 217 -275 2029 0
61 -177 -277 2030 0
-420 319 -357 2031 0
-130 -170 18 2032 0
-214 424 -22 2033 0
-170 292 -444 2034 0
250 -222 367 2035 0
-311 -388 -265 2036 0
-458 33 -65 2037 0
221 52 -232 2038 0
357 139 -457 2039 0
188 210 -424 2040 0
372 432 300 2041 0
210 400 402 2042 0
-281 -244 -2 2043 0
62 -211 -351 2044 0
112 -37 400 2045 0
-410 369 -123 2046 0
-468 411 -28 2047 0
375 -453 135 2048 0
481 463 -73 2049 0
341 419 64 2050 0
-389 158 -336 2051 0
416 -114 -453 2052 0
-433 -479 196 2053 0
352 -469 -355 2054 0
301 -350 -431 2055 0
-30 -331 388 2056 0
161 -154 -437 2057 0
-53 -410 81 2058 0
334 384 47 2059 0
-485 -245 -39 2060 0
262 -224 493 2061 0
-122 438 473 2062 0
141 86 -262 2063 0
-447 -151 -313 2064 0
124 326 291 2065 0
-45 463 51 2066 0
256 -458 -10 2067 0
82 -102 -275 2068 0
182 -405 -273 2069 0
-259 -284 -83 2070 0
-235 12 -189 2071 0
55 -85 494 2072 0
-439 -283 -384 2073 0
441 -485 309 2074 0
327 361 83 2075 0
-218 -443 140 2076 0
220 447 -284 2077 0
462 -223 203 2078 0
-43 363 -332 2079 0
351 21 -273 2080 0
248 -461 -314 2081 0
378 345 -332 2082 0
385 -183 139 2083 0
447 92 -183 2084 0
-190 27 -179 2085 0
-32 -301 -235 2086 0
408 -436 -178 2087 0
123 -340 368 2088 0
488 -72 -137 2089 0
-80 -231 -94 2090 0
64 424 441 2091 0
-341 445 173 2092 0
-280 -452 421 2093 0
283 235 -19 2094 0
139 -162 -384 2095 0
-124 -3 -316 2096 0
-47 -286 368 2097 0
-80 -480 -229 2098 0
-344 478 167 2099 0
80 17 441 2100 0
-208 6 -209 2101 0
108 -220 -474 2102 0
-13 318 240 2103 0
-25 137 329 2104 0
264 -78 408 2105 0
303 -454 447 2106 0
-437 119 -205 2107 0
-39 496 173 2108 0
-303 -424 441 2109 0
161 6 65 2110 0
188 122 -116 2111 0
-275 -110 -55 2112 0
61 275 326 2113 0
404 -17 -306 2114 0
-327 -479 308 2115 0
63 -388 286 2116 0
-8 408 169 2117 0
-467 -190 -197 2118 0
-465 111 425 2119 0
311 -475 -470 2120 0
-219 446 235 2121 0
156 -58 -224 2122 0
496 -29 195 2123 0
431 -449 237 2124 0
-30 166 386 2125 0
40 412 -128 2126 0
7 496 69 2127 0
351 -255 453 2128 0
-456 -336 218 2129 0
-230 -107 -153 2130 0
270 191 -219 2131 0
146 -113 -270 2132 0
-85 -66 385 2133 0
-447 215 -179 2134 0
-453 -159 160 2135 0
454 311 -357 2136 0
-327 409 164 2137 0
-457 176 -5 2138 0
-248 200 -393 2139 0
-427 32 -142 2140 0
-264 -151 341 2141 0
16 -26 67 2142 0
-425 -390 279 2143 0
-352 317 -344 2144 0
11 -221 -194 2145 0
336 -491 62 2146 0
228 296 447 2147 0
-328 64 121 2148 0
-267 146 -399 2149 0
-355 96 -427 2150 0
359 236 254 2151 0
150 -24 -106 2152 0
57 87 178 2153 0
120 -402 -346 2154 0
396 -395 -260 2155 0
203 131 -176 2156 0
414 479 186 2157 0
114 -400 1 2158 0
-331 258 259 2159 0
172 218 -168 2160 0
463 -397 -399 2161 0
-326 23 410 2162 0
-86 119 -377 2163 0
-7 -304 -194 2164 0
-231 351 250 2165 0
-30 91 76 2166 0
380 -31 -57 2167 0
-490 -89 -135 2168 0
30 405 -211 2169 0
-494 -262 -490 2170 0
-106 247 239 2171 0
-390 -482 -173 2172 0
-34 -494 -196 2173 0
-150 173 128 2174 0
295 -307 350 2175 0
-207 -404 235 2176 0
51 -44 -401 2177 0
-337 -434 427 2178 0
-91 99 -305 2179 0
-436 -81 216 2180 0
-131 -117 -110 2181 0
163 -217 -383 2182 0
-444 374 139 2183 0
-257 -495 252 2184 0
196 399 -296 2185 0
-378 267 266 2186 0
-341 490 -100 2187 0
-450 -354 273 2188 0
464 104 45 2189 0
-154 -72 -371 2190 0
-362 146 -70 2191 0
-315 339 276 2192 0
122 -264 -303 2193 0
49 -316 -239 2194 0
361 194 -179 2195 0
401 64 462 2196 0
-390 -314 -369 2197 0
290 95 313 2198 0
-171 -397 -73 2199 0
311 -199 -12 2200 0
479 336 335 2201 0
137 277 34 2202 0
-104 1 214 2203 0
-280 -334 -352 2204 0
-14 -432 295 2205 0
133 -117 485 2206 0
-58 392 427 2207 0
294 -179 -326 2208 0
-411 -388 335 2209 0
177 228 365 2210 0
-92 488 374 2211 0
-207 427 -297 2212 0
322 -273 237 2213 0
261 -162 -446 2214 0
-432 -23 -172 2215 0
-169 138 -116 2216 0
10 207 -311 2217 0
116 -365 -106 2218 0
-11 254 -91 2219 0
-42 -467 238 2220 0
77 198 -384 2221 0
366 -478 -54 2222 0
-98 -322 373 2223 0
385 -192 -289 2224 0
-415 108 185 2225 0
433 293 -109 2226 0
-56 -270 324 2227 0
499 196 236 2228 0
439 -94 70 2229 0
-236 -388 28 2230 0
-55 -107 417 2231 0
101 -267 -62 2232 0
192 -419 -46 2233 0
485 -88 -124 2234 0
-36 -57 132 2235 0
155 -151 -179 2236 0
96 -216 123 2237 0
-19 -267 -273 2238 0
-488 195 345 2239 0
226 -411 -315 2240 0
-44 478 432 2241 0
-369 -432 174 2242 0
-246 -152 -69 2243 0
-202 -194 88 2244 0
-409 -424 -370 2245 0
479 -96 261 2246 0
-262 -187 350 2247 0
-481 43 -87 2248 0
-112 -43 215 2249 0
18 -334 391 2250 0
-312 357 -296 2251 0
255 270 -328 2252 0
-117 -402 447 2253 0
70 -456 -325 2254 0
-264 -54 -4 2255 0
220 90 -477 2256 0
93 -312 -17 2257 0
-498 -279 -402 2258 0
51 -252 240 2259 0
-28 83 326 2260 0
-296 -259 422 2261 0
-264 -427 458 2262 0
240 168 338 2263 0
-162 411 -374 2264 0
362 500 390 2265 0
234 -418 113 2266 0
118 -491 80 2267 0
-243 443 245 2268 0
255 238 -246 2269 0
-223 -5 379 2270 0
-106 468 -491 2271 0
172 422 202 2272 0
-62 -57 -161 2273 0
93 362 -125 2274 0
126 -461 114 2275 0
-234 -378 46 2276 0
306 10 -155 2277 0
262 -401 -260 2278 0
-360 -90 -390 2279 0
-141 -315 171 2280 0
7 -408 -18 2281 0
-285 -342 101 2282 0
-239 379 230 2283 0
412 106 -409 2284 0
-192 236 -189 2285 0
-124 -271 106 2286 0
-164 -175 336 2287 0
-478 -374 234 2288 0
285 297 199 2289 0
-53 35 -282 2290 0
300 127 -394 2291 0
-227 164 100 2292 0
-107 131 -190 2293 0
-158 47 -491 2294 0
394 -469 -452 2295 0
126 -2 -422 2296 0
-14 486 465 2297 0
-471 -352 -163 2298 0
-230 -68 -259 2299 0
177 -25 -145 2300 0
312 -351 239 2301 0
-95 379 -66 2302 0
314 68 184 2303 0
140 -127 146 2304 0
-100 -219 458 2305 0
-104 -408 -456 2306 0
-22 -464 377 2307 0
-418 -19 116 2308 0
-334 297 -335 2309 0
-81 411 140 2310 0
-279 -320 -138 2311 0
-102 -252 495 2312 0
-298 40 499 2313 0
-445 388 -494 2314 0
55 -74 115 2315 0
-69 -202 -320 2316 0
359 -215 -418 2317 0
-417 372 -51 2318 0
469 -404 330 2319 0
-320 -500 -402 2320 0
275 361 160 2321 0
272 -446 -373 2322 0
-116 -134 -86 2323 0
-84 130 200 2324 0
-79 -128 -191 2325 0
165 -49 -133 2326 0
-394 495 402 2327 0
420 147 -219 2328 0
33 303 182 2329 0
-347 239 -277 2330 0
99 124 115 2331 0
358 159 -241 2332 0
471 -362 78 2333 0
-269 186 -449 2334 0
-294 288 -340 2335 0
-251 -18 481 2336 0
254 -10 170 2337 0
-442 284 289 2338 0
-456 -486 -447 2339 0
-285 -363 262 2340 0
-147 -282 -100 2341 0
273 -418 448 2342 0
27 -435 451 2343 0
-376 16 8 2344 0
78 208 289 2345 0
445 -454 467 2346 0
-372 322 182 2347 0
-34 168 -496 2348 0
-92 59 -315 2349 0
-217 5 233 2350 0
-232 138 -341 2351 0
109 -227 191 2352 0
444 242 237 2353 0
-30 321 225 2354 0
-298 -213 190 2355 0
-88 144 1 2356 0
-411 111 -67 2357 0
-101 302 278 2358 0
343 459 -431 2359 0
-136 28 -463 2360 0
408 366 291 2361 0
-292 -481 -104 2362 0
340 197 -459 2363 0
454 -475 6 2364 0
160 -429 -181 2365 0
-305 -326 260 2366 0
-112 -193 -206 2367 0
-54 -74 -480 2368 0
-61 218 -301 2369 0
335 -384 95 2370 0
457 210 12 2371 0
-35 256 -64 2372 0
166 -21 -397 2373 0
-278 -14 372 2374 0
-215 -33 -192 2375 0
-279 373 -134 2376 0
59 -232 351 2377 0
379 154 -376 2378 0
481 148 -361 2379 0
177 13 -240 2380 0
267 29 -359 2381 0
-68 475 72 2382 0
-459 -265 -335 2383 0
312 444 456 2384 0
-103 -460 170 2385 0
49 -429 -478 2386 0
-175 -272 318 2387 0
467 110 -386 2388 0
304 -229 66 2389 0
-138 -291 235 2390 0
-434 354 -103 2391 0
194 397 498 2392 0
330 -190 -48 2393 0
-397 -129 -360 2394 0
302 430 -330 2395 0
-132 227 375 2396 0
77 -19 430 2397 0
476 38 -180 2398 0
-57 73 332 2399 0
-204 -384 -453 2400 0
-166 -187 463 2401 0
-112 -229 -316 2402 0
-203 96 -284 2403 0
464 -204 -440 2404 0
-76 -82 431 2405 0
417 195 -117 2406 0
-156 380 -275 2407 0
-11 200 -196 2408 0
259 9 276 2409 0
46 -23 305 2410 0
-235 320 38 2411 0
291 -343 288 2412 0
290 -308 325 2413 0
-142 -338 -391 2414 0
32 464 486 2415 0
-195 -436 -475 2416 0
-375 -310 -461 2417 0
495 345 382 2418 0
408 299 -259 2419 0
-492 -445 -178 2420 0
380 35 392 2421 0
-6 262 371 2422 0
415 -315 -165 2423 0
-228 255 -305 2424 0
445 219 154 2425 0
-275 -332 -39 2426 0
17 151 415 2427 0
-193 461 -379 2428 0
-100 195 322 2429 0
95 -235 -109 2430 0
451 434 -224 2431 0
-102 -73 -369 2432 0
324 -270 -418 2433 0
365 322 437 2434 0
-121 142 -3 2435 0
-216 143 -190 2436 0
-255 -470 -133 2437 0
346 -299 -464 2438 0
210 37 401 2439 0
-492 187 -388 2440 0
-264 223 -449 2441 0
114 121 243 2442 0
309 115 -236 2443 0
-439 -404 379 2444 0
54 408 -192 2445 0
-433 -31 -321 2446 0
201 100 130 2447 0
324 228 201 2448 0
71 153 -205 2449 0
366 -444 349 2450 0
241 -111 185 2451 0
226 205 317 2452 0
-261 277 18 2453 0
-454 -341 -486 2454 0
355 69 486 2455 0
-313 -7 468 2456 0
-249 433 -206 2457 0
-150 307 355 2458 0
-319 -73 -278 2459 0
73 293 212 2460 0
449 267 402 2461 0
-201 472 127 2462 0
78 13 79 2463 0
-319 -119 440 2464 0
78 385 -487 2465 0
500 360 -159 2466 0
115 324 -117 2467 0
105 -88 54 2468 0
368 31 59 2469 0
-336 334 342 2470 0
498 -64 -329 2471 0
-62 30 289 2472 0
-246 -497 -468 2473 0
151 -248 9 2474 0
-343 97 -69 2475 0
300 -421 -353 2476 0
-250 -45 136 2477 0
460 199 -3 2478 0
356 -377 -160 2479 0
329 -470 438 2480 0
107 -90 -103 2481 0
5 -97 -479 2482 0
394 -385 -489 2483 0
-288 320 329 2484 0
-463 265 346 2485 0
396 11 -419 2486 0
317 174 -19 2487 0
-238 236 -49 2488 0
260 -39 452 2489 0
88 -346 -47 2490 0
-142 -39 -456 2491 0
-142 -433 -289 2492 0
317 -456 42 2493 0
-206 196 352 2494 0
114 56 -453 2495 0
330 -218 -429 2496 0
53 -5 -50 2497 0
199 94 146 2498 0
273 -81 126 2499 0
-294 488 114 2500 0
-202 209 90 2501 0
-112 477 -473 2502 0
56 43 -413 2503 0
-320 265 -367 2504 0
-107 -60 -308 2505 0
184 230 -299 2506 0
-65 357 185 2507 0
-8 70 205 2508 0
285 -390 230 2509 0
241 388 -337 2510 0
-335 -349 -240 2511 0
-363 156 -308 2512 0
-457 -296 308 2513 0
130 -384 92 2514 0
429 -488 342 2515 0
-269 347 132 2516 0
171 -340 -384 2517 0
-169 430 -485 2518 0
34 102 -282 2519 0
-21 -52 -255 2520 0
205 454 -113 2521 0
-244 -60 -20 2522 0
218 479 -305 2523 0
201 425 202 2524 0
229 45 94 2525 0
427 -17 128 2526 0
-239 -207 389 2527 0
239 -246 -274 2528 0
-73 268 -441 2529 0
66 344 432 2530 0
195 -493 -297 2531 0
-244 350 206 2532 0
106 -121 -199 2533 0
182 422 75 2534 0
309 -300 -392 2535 0
-6 -418 -435 2536 0
193 -256 -411 2537 0
22 363 121 2538 0
388 448 -233 2539 0
133 -287 -382 2540 0
-322 52 215 2541 0
286 -47 -52 2542 0
-386 -243 -380 2543 0
-423 469 276 2544 0
-402 439 -232 2545 0
159 -150 248 2546 0
-39 473 79 2547 0
-181 -500 -170 2548 0
62 282 87 2549 0
-66 454 -278 2550 0
26 274 217 2551 0
-483 280 127 2552 0
139 384 -432 2553 0
33 251 498 2554 0
161 163 -202 2555 0
-398 127 40 2556 0
-200 -31 -48 2557 0
-6 -320 -366 2558 0
-433 -289 -48 2559 0
-300 -65 -437 2560 0
-213 421 117 2561 0
484 -90 4 2562 0
2 -11 -197 2563 0
-68 -478 318 2564 0
-283 -211 102 2565 0
410 257 455 2566 0
-211 61 -368 2567 0
358 248 -216 2568 0
86 374 -40 2569 0
490 -467 -337 2570 0
-13 -217 -111 2571 0
142 432 -392 2572 0
-12 235 -25 2573 0
-229 -184 -41 2574 0
306 -57 -329 2575 0
375 201 92 2576 0
-32 197 372 2577 0
-59 308 488 2578 0
70 -276 -48 2579 0
-484 -298 284 2580 0
395 -9 -303 2581 0
-57 -96 -196 2582 0
-76 -313 -181 2583 0
330 -477 352 2584 0
5 -324 -92 2585 0
-414 451 -325 2586 0
-307 -463 -286 2587 0
124 306 -24 2588 0
326 -42 -56 2589 0
-318 -484 -166 2590 0
13 -443 -276 2591 0
407 -205 -100 2592 0
-228 78 -492 2593 0
-354 -300 -71 2594 0
93 177 288 2595 0
-34 150 269 2596 0
484 -316 265 2597 0
-431 282 -459 2598 0
-272 197 -56 2599 0
171 133 -303 2600 0
340 6 65 2601 0
215 7 486 2602 0
-251 462 179 2603 0
-335 39 -2 2604 0
-151 -90 -3 2605 0
-274 -66 -279 2606 0
202 431 237 2607 0
-70 -436 -484 2608 0
-222 11 442 2609 0
369 21 310 2610 0
-68 -228 -389 2611 0
22 -80 -115 2612 0
-113 166 418 2613 0
382 321 73 2614 0
-358 182 -341 2615 0
72 323 -334 2616 0
-130 499 -471 2617 0
301 472 305 2618 0
250 -291 271 2619 0
-424 -249 137 2620 0
329 -251 -478 2621 0
53 -324 -384 2622 0
-308 401 -60 2623 0
473 -318 284 2624 0
-15 226 22 2625 0
-65 11 -184 2626 0
-70 -236 61 2627 0
160 24 41 2628 0
-291 -75 -154 2629 0
360 -110 63 2630 0
-445 -30 406 2631 0
-18 56 -45 2632 0
-496 17 -87 2633 0
272 -477 -301 2634 0
22 -130 -404 2635 0
-447 371 104 2636 0
161 318 -456 2637 0
174 486 -6 2638 0
391 9 -234 2639 0
-166 -30 -49 2640 0
-483 -191 38 2641 0
226 130 -417 2642 0
-294 -252 -409 2643 0
-300 314 -243 2644 0
4 -431 -178 2645 0
-52 248 -239 2646 0
-291 310 226 2647 0
74 -84 366 2648 0
-478 -87 500 2649 0
-245 384 61 2650 0
