p cnf 2650 2150
57 -102 186 501 0
248 424 54 502 0
-165 -186 -212 503 0
366 -156 -91 504 0
207 223 315 505 0
-471 -312 -169 506 0
-50 -243 -346 507 0
315 9 58 508 0
386 -340 -290 509 0
-396 -386 -306 510 0
349 257 -412 511 0
404 -225 -106 512 0
279 93 -341 513 0
-63 -105 263 514 0
448 -446 307 515 0
376 -243 -418 516 0
-449 -293 200 517 0
331 86 471 518 0
105 -396 424 519 0
-290 -167 236 520 0
-146 -418 -100 521 0
-31 496 -431 522 0
-101 28 -354 523 0
-278 -195 -180 524 0
-386 -249 265 525 0
-97 490 -371 526 0
149 438 -486 527 0
410 -150 -18 528 0
-355 -235 -459 529 0
-39 370 -176 530 0
-117 -92 268 531 0
99 394 -112 532 0
-64 -451 91 533 0
302 -478 398 534 0
333 -242 -227 535 0
-433 431 8 536 0
494 228 -171 537 0
-407 -441 239 538 0
4 -220 -428 539 0
-89 1 -175 540 0
-37 154 -281 541 0
-331 221 -304 542 0
-198 -154 375 543 0
-213 82 322 544 0
-328 419 -493 545 0
-321 452 367 546 0
-316 -204 -221 547 0
165 312 -302 548 0
178 -263 326 549 0
134 -122 -121 550 0
-472 73 -53 551 0
385 -282 148 552 0
-363 229 -133 553 0
-14 255 -2 554 0
-293 146 220 555 0
113 -286 -16 556 0
232 215 -422 557 0
324 -304 -56 558 0
469 335 -314 559 0
-244 -488 475 560 0
271 -463 389 561 0
6 -435 158 562 0
-426 -71 227 563 0
34 71 149 564 0
342 133 -428 565 0
-289 -227 -271 566 0
446 78 455 567 0
-46 -58 316 568 0
417 -191 262 569 0
-424 410 -340 570 0
431 -260 125 571 0
467 -478 -232 572 0
-416 -71 -464 573 0
463 379 -499 574 0
-155 -86 145 575 0
367 381 460 576 0
109 467 429 577 0
-487 422 -365 578 0
-316 172 -481 579 0
-190 -404 -312 580 0
-300 439 -317 581 0
-154 26 -67 582 0
-167 -291 -18 583 0
395 -1 -436 584 0
-3 -11 71 585 0
362 -111 -76 586 0
-79 -375 20 587 0
17 36 217 588 0
-359 100 133 589 0
-139 345 25 590 0
290 309 -396 591 0
-327 -298 277 592 0
27 67 241 593 0
76 -319 -78 594 0
-211 88 360 595 0
-373 -214 -41 596 0
276 176 -57 597 0
-468 -86 57 598 0
176 366 -2 599 0
291 309 5 600 0
-21 -427 174 601 0
-73 223 -399 602 0
333 -351 214 603 0
-100 -235 -337 604 0
-69 -157 -249 605 0
209 42 464 606 0
294 -267 -186 607 0
-359 -418 -191 608 0
91 -499 133 609 0
-475 11 442 610 0
255 162 335 611 0
367 -298 -117 612 0
168 -213 194 613 0
-175 -389 -279 614 0
150 312 63 615 0
393 -269 368 616 0
-398 -318 -269 617 0
-10 -432 -232 618 0
-56 -198 -40 619 0
-46 325 130 620 0
-249 374 -18 621 0
390 8 -199 622 0
-443 -489 413 623 0
-124 -417 246 624 0
-427 384 222 625 0
-179 -257 89 626 0
-95 -396 -62 627 0
300 137 421 628 0
-465 121 72 629 0
222 -294 226 630 0
-419 113 116 631 0
472 -136 -143 632 0
-59 392 -286 633 0
-361 496 223 634 0
39 -21 -73 635 0
-127 -202 6 636 0
-31 123 384 637 0
-289 -404 -184 638 0
357 -425 -372 639 0
267 142 -80 640 0
304 400 279 641 0
-399 -89 -36 642 0
353 -52 441 643 0
-242 -409 21 644 0
17 -387 306 645 0
-394 -292 -315 646 0
-77 -361 345 647 0
5 -473 -79 648 0
-130 -305 183 649 0
180 -113 -473 650 0
293 410 11 651 0
-475 155 154 652 0
261 -269 -59 653 0
-479 227 430 654 0
233 196 -15 655 0
114 259 -471 656 0
-481 -17 -239 657 0
79 463 -499 658 0
11 453 198 659 0
138 127 -156 660 0
-283 143 -231 661 0
-20 -184 431 662 0
91 377 -134 663 0
58 -430 -116 664 0
432 -184 312 665 0
-47 137 -339 666 0
-29 362 383 667 0
-414 -271 -462 668 0
-151 -286 -221 669 0
238 -177 133 670 0
-46 193 -163 671 0
245 382 -133 672 0
-180 -172 -490 673 0
-434 -32 -207 674 0
442 -466 -407 675 0
-85 57 327 676 0
-317 -94 269 677 0
337 116 360 678 0
-328 329 258 679 0
269 -354 183 680 0
173 153 -50 681 0
-138 -70 163 682 0
-312 -139 -375 683 0
144 -262 -12 684 0
103 105 -244 685 0
319 -129 94 686 0
374 462 35 687 0
426 160 403 688 0
-310 331 -127 689 0
-39 106 138 690 0
195 -414 -179 691 0
-208 -447 -475 692 0
-21 -310 -379 693 0
-176 22 70 694 0
445 244 138 695 0
71 -321 -262 696 0
-326 -279 -187 697 0
-235 -100 84 698 0
-347 -284 42 699 0
178 29 -281 700 0
333 -152 422 701 0
302 -13 -265 702 0
-308 316 -421 703 0
250 -18 -324 704 0
-300 -305 -475 705 0
218 3 -79 706 0
287 -481 383 707 0
-102 -9 -215 708 0
408 449 -144 709 0
-30 -263 -97 710 0
202 358 272 711 0
468 86 385 712 0
382 9 277 713 0
201 415 406 714 0
-119 -75 -268 715 0
-124 231 178 716 0
311 126 303 717 0
17 -490 316 718 0
-454 -14 -366 719 0
93 -83 -331 720 0
394 -376 252 721 0
389 -431 218 722 0
-146 235 -393 723 0
13 -74 -15 724 0
481 -345 -36 725 0
-471 -379 376 726 0
-247 75 -353 727 0
144 -444 133 728 0
-411 490 246 729 0
-105 -294 -200 730 0
109 -271 356 731 0
-410 -80 95 732 0
-152 479 -200 733 0
-290 188 439 734 0
-393 -313 373 735 0
-221 -131 -251 736 0
-374 233 -29 737 0
140 466 -27 738 0
335 -237 -70 739 0
426 -215 -130 740 0
-127 -197 18 741 0
-399 -6 106 742 0
-161 255 176 743 0
121 432 180 744 0
-44 23 296 745 0
-369 393 -500 746 0
237 284 443 747 0
423 452 498 748 0
-195 -311 280 749 0
-262 -28 -141 750 0
-328 302 136 751 0
-302 -485 -107 752 0
-366 223 -15 753 0
-266 377 83 754 0
-220 -286 -14 755 0
-473 -384 -467 756 0
334 219 91 757 0
-494 -414 -71 758 0
470 464 -327 759 0
410 204 479 760 0
-205 -245 -235 761 0
-321 13 431 762 0
-348 -132 108 763 0
-185 1 -143 764 0
-363 207 199 765 0
347 462 366 766 0
475 232 -46 767 0
227 -70 131 768 0
-63 -477 -157 769 0
-444 87 -382 770 0
-139 154 -449 771 0
268 -140 238 772 0
-163 -308 -35 773 0
13 -469 156 774 0
223 -216 -396 775 0
393 43 -145 776 0
-406 373 -245 777 0
-299 -177 -312 778 0
-486 500 497 779 0
373 -303 -210 780 0
252 471 188 781 0
296 -124 308 782 0
187 445 17 783 0
-145 168 -129 784 0
447 -147 -367 785 0
333 -136 -398 786 0
-301 -108 -408 787 0
-46 240 88 788 0
-84 -96 491 789 0
102 411 -89 790 0
112 452 453 791 0
-145 469 -10 792 0
-297 -392 308 793 0
-213 218 464 794 0
263 160 53 795 0
14 325 -236 796 0
443 -359 -288 797 0
-196 -153 -295 798 0
86 -121 -460 799 0
99 485 -107 800 0
213 -94 -102 801 0
362 480 304 802 0
252 59 248 803 0
-42 263 287 804 0
-120 59 52 805 0
-7 392 -188 806 0
-396 274 -281 807 0
160 -24 223 808 0
-404 46 345 809 0
-89 324 -279 810 0
393 218 -334 811 0
71 132 278 812 0
-458 -42 -448 813 0
305 491 128 814 0
189 473 401 815 0
-100 27 -264 816 0
-45 -269 -223 817 0
59 432 -369 818 0
99 -338 -361 819 0
-206 -134 -252 820 0
390 -407 -389 821 0
-377 -478 326 822 0
356 -19 347 823 0
-24 417 -357 824 0
-58 -477 -431 825 0
76 250 -233 826 0
-64 -280 30 827 0
405 319 -416 828 0
109 225 127 829 0
-319 325 -124 830 0
36 324 -141 831 0
-231 -17 98 832 0
240 -471 387 833 0
91 -83 43 834 0
-397 106 385 835 0
286 277 337 836 0
-117 11 20 837 0
-135 118 -497 838 0
329 -115 -225 839 0
-323 288 307 840 0
-18 177 -207 841 0
14 350 256 842 0
390 470 385 843 0
-152 233 -349 844 0
-343 137 -275 845 0
372 -176 357 846 0
241 219 -65 847 0
-52 467 482 848 0
-74 499 -356 849 0
414 -333 209 850 0
235 -115 306 851 0
248 -232 -275 852 0
167 255 252 853 0
435 -147 69 854 0
227 -479 159 855 0
450 134 -180 856 0
-468 -134 -269 857 0
-302 -353 -388 858 0
-217 277 197 859 0
45 -446 181 860 0
-244 -384 495 861 0
-171 319 -120 862 0
-107 -237 397 863 0
-289 -373 464 864 0
-438 171 382 865 0
-94 258 -63 866 0
120 -34 -198 867 0
194 404 -310 868 0
138 -82 63 869 0
109 237 332 870 0
-473 90 493 871 0
-221 337 176 872 0
398 110 -150 873 0
-332 486 -157 874 0
286 226 107 875 0
-75 -499 -124 876 0
-407 -489 -265 877 0
-131 -11 -476 878 0
-204 -322 -426 879 0
111 437 219 880 0
-410 436 205 881 0
-98 14 -210 882 0
-285 -295 236 883 0
58 241 420 884 0
371 -359 494 885 0
298 -340 -391 886 0
59 -100 39 887 0
363 151 275 888 0
121 456 -236 889 0
499 -460 -451 890 0
-350 -387 -373 891 0
-343 63 90 892 0
113 -48 -109 893 0
-432 468 -316 894 0
-469 -289 187 895 0
-464 31 -218 896 0
239 138 500 897 0
-313 386 -168 898 0
429 498 145 899 0
230 143 398 900 0
451 -278 52 901 0
-64 -72 224 902 0
-323 -277 356 903 0
-96 -230 -320 904 0
164 447 -191 905 0
-96 -446 -267 906 0
-391 287 322 907 0
116 177 -1 908 0
276 -236 -136 909 0
432 -310 -372 910 0
427 -210 -92 911 0
207 485 -7 912 0
-434 341 54 913 0
182 328 403 914 0
141 52 319 915 0
-353 -259 338 916 0
-441 481 -206 917 0
-353 -157 -83 918 0
-152 -465 284 919 0
-294 351 79 920 0
-410 -199 471 921 0
141 -3 -78 922 0
220 -162 -479 923 0
163 -191 -5 924 0
211 316 -209 925 0
209 -5 -224 926 0
-413 304 -56 927 0
453 118 114 928 0
343 23 -256 929 0
129 -119 366 930 0
105 -145 221 931 0
304 347 80 932 0
195 251 -484 933 0
-263 -486 294 934 0
-223 19 -55 935 0
-297 386 -9 936 0
245 -17 9 937 0
-10 -179 226 938 0
-371 -6 -12 939 0
488 -355 -348 940 0
383 -331 -478 941 0
256 -220 -210 942 0
59 -460 135 943 0
-35 -354 412 944 0
394 47 429 945 0
-35 445 -129 946 0
409 -217 439 947 0
-126 -476 295 948 0
-219 7 -488 949 0
-480 265 -262 950 0
86 -433 -32 951 0
282 -77 -194 952 0
154 -65 -207 953 0
-499 -164 -232 954 0
-158 445 -457 955 0
164 393 -239 956 0
-206 478 157 957 0
-104 -359 -114 958 0
79 99 313 959 0
-120 3 -108 960 0
114 418 216 961 0
499 -115 89 962 0
-228 478 -417 963 0
-292 219 -417 964 0
336 64 -291 965 0
-92 266 -243 966 0
-156 -490 341 967 0
-255 136 366 968 0
75 256 -62 969 0
40 66 -229 970 0
-445 341 -398 971 0
17 -430 341 972 0
-487 -496 217 973 0
440 119 447 974 0
-459 -122 110 975 0
171 485 -212 976 0
409 -104 86 977 0
124 -275 -198 978 0
491 309 49 979 0
-128 -326 400 980 0
-26 8 15 981 0
325 -232 101 982 0
154 214 -15 983 0
-194 -140 425 984 0
119 -98 -179 985 0
182 232 64 986 0
431 -418 409 987 0
-417 354 409 988 0
89 -304 258 989 0
-413 266 263 990 0
361 285 159 991 0
-219 -327 -47 992 0
162 -133 313 993 0
-22 -465 425 994 0
247 329 27 995 0
379 94 465 996 0
-92 181 360 997 0
-1 395 284 998 0
-457 -283 -175 999 0
-493 -72 160 1000 0
243 -239 -370 1001 0
-139 -411 181 1002 0
-198 -362 -63 1003 0
-480 -183 369 1004 0
412 128 -356 1005 0
81 287 -342 1006 0
92 126 213 1007 0
101 -394 459 1008 0
362 -377 159 1009 0
129 85 115 1010 0
235 22 479 1011 0
467 461 -201 1012 0
458 -257 -445 1013 0
426 191 200 1014 0
-478 -479 420 1015 0
-138 -177 -91 1016 0
318 64 -417 1017 0
-493 -145 118 1018 0
185 -14 -457 1019 0
262 -389 61 1020 0
60 -274 198 1021 0
-352 -5 15 1022 0
287 -144 -21 1023 0
268 446 182 1024 0
-307 91 -39 1025 0
448 151 -115 1026 0
19 193 69 1027 0
431 -425 -189 1028 0
-279 63 421 1029 0
-342 352 450 1030 0
318 -480 -247 1031 0
-467 40 213 1032 0
240 -100 -74 1033 0
74 -57 307 1034 0
-324 -469 388 1035 0
-234 -465 62 1036 0
328 219 -211 1037 0
-428 375 339 1038 0
63 -105 -251 1039 0
390 488 92 1040 0
-242 -205 79 1041 0
154 -213 -411 1042 0
375 371 -385 1043 0
434 -162 37 1044 0
118 139 14 1045 0
469 297 454 1046 0
75 225 -52 1047 0
230 128 351 1048 0
227 338 -409 1049 0
480 232 -231 1050 0
-494 -489 -93 1051 0
68 -462 376 1052 0
132 -392 -108 1053 0
202 -303 -267 1054 0
417 479 -185 1055 0
-44 -238 435 1056 0
-425 -149 152 1057 0
114 145 -418 1058 0
-289 97 -163 1059 0
179 -496 466 1060 0
-71 -110 -135 1061 0
332 -7 -175 1062 0
-263 -173 378 1063 0
30 -85 -226 1064 0
251 -132 264 1065 0
-346 -303 93 1066 0
-109 135 374 1067 0
177 170 96 1068 0
-476 241 358 1069 0
46 362 -144 1070 0
342 246 8 1071 0
-113 221 237 1072 0
-155 423 398 1073 0
-430 -428 234 1074 0
-297 453 242 1075 0
321 -485 -215 1076 0
34 268 212 1077 0
387 -32 -232 1078 0
-279 62 -408 1079 0
-427 77 -307 1080 0
-182 -459 391 1081 0
285 384 154 1082 0
329 478 -447 1083 0
-411 -19 226 1084 0
-335 -457 -4 1085 0
-176 -57 -440 1086 0
401 -93 -155 1087 0
417 46 241 1088 0
377 493 185 1089 0
485 331 122 1090 0
-167 191 -413 1091 0
431 273 327 1092 0
281 -454 -316 1093 0
358 -13 -156 1094 0
293 -422 -406 1095 0
-443 -441 -185 1096 0
387 270 -213 1097 0
-243 36 233 1098 0
465 -408 437 1099 0
-264 146 352 1100 0
-84 -489 -244 1101 0
-136 -208 -16 1102 0
-133 413 456 1103 0
215 223 285 1104 0
53 127 -82 1105 0
66 -455 457 1106 0
225 11 -366 1107 0
-43 394 -8 1108 0
203 305 164 1109 0
80 342 -338 1110 0
-423 -174 404 1111 0
55 -318 367 1112 0
-39 -392 361 1113 0
77 318 -252 1114 0
38 -113 63 1115 0
-353 -20 38 1116 0
76 -311 140 1117 0
-97 -105 214 1118 0
-417 -416 -413 1119 0
31 -273 347 1120 0
344 -260 -431 1121 0
-19 280 -294 1122 0
-402 -309 322 1123 0
-254 -38 -270 1124 0
-382 430 243 1125 0
75 -479 -22 1126 0
-365 410 74 1127 0
-113 -136 496 1128 0
488 -115 -293 1129 0
481 -439 309 1130 0
20 441 237 1131 0
-188 492 -330 1132 0
254 91 282 1133 0
-266 388 -343 1134 0
320 297 8 1135 0
-366 -470 122 1136 0
-336 137 437 1137 0
-244 -465 -379 1138 0
-267 -260 -482 1139 0
-200 12 -425 1140 0
-217 126 384 1141 0
133 92 -312 1142 0
293 93 289 1143 0
-321 -252 -335 1144 0
-139 166 41 1145 0
387 323 215 1146 0
287 428 437 1147 0
-277 -391 389 1148 0
-271 436 -470 1149 0
139 353 469 1150 0
74 -107 270 1151 0
-145 41 142 1152 0
-73 489 223 1153 0
-259 -48 -58 1154 0
364 12 -413 1155 0
430 11 -200 1156 0
377 250 -431 1157 0
-78 -224 -498 1158 0
6 142 -333 1159 0
220 119 -46 1160 0
227 -55 425 1161 0
-413 -278 483 1162 0
260 316 144 1163 0
-362 -33 -280 1164 0
385 -498 -126 1165 0
262 -472 268 1166 0
36 304 -61 1167 0
45 -411 -414 1168 0
460 -306 -350 1169 0
410 443 144 1170 0
-308 490 489 1171 0
288 -402 -138 1172 0
-276 -483 24 1173 0
-3 458 -311 1174 0
383 158 -172 1175 0
143 54 -305 1176 0
-431 -224 -116 1177 0
-79 -87 -378 1178 0
-443 -106 -416 1179 0
13 162 397 1180 0
-491 -126 -183 1181 0
491 45 303 1182 0
-102 22 -176 1183 0
-463 -430 -149 1184 0
458 236 -443 1185 0
441 273 390 1186 0
-189 -100 -145 1187 0
219 355 -40 1188 0
286 -316 276 1189 0
-179 305 -420 1190 0
-11 495 293 1191 0
3 -361 126 1192 0
-189 169 286 1193 0
254 9 266 1194 0
-495 -396 301 1195 0
-420 77 -432 1196 0
189 425 208 1197 0
-159 192 116 1198 0
499 260 -98 1199 0
467 -458 40 1200 0
170 461 -82 1201 0
-232 332 467 1202 0
-116 -491 321 1203 0
467 102 -259 1204 0
134 -326 -355 1205 0
-74 -1 45 1206 0
-40 -30 -333 1207 0
-42 419 75 1208 0
-365 -161 107 1209 0
-391 -448 -40 1210 0
-320 453 410 1211 0
33 129 -282 1212 0
95 277 -424 1213 0
-291 -123 -105 1214 0
-136 -22 -471 1215 0
426 446 -229 1216 0
-195 -383 -500 1217 0
63 -237 -67 1218 0
91 436 13 1219 0
115 485 -30 1220 0
-208 297 363 1221 0
313 -347 -331 1222 0
-345 119 -360 1223 0
142 68 -389 1224 0
167 -337 -163 1225 0
-317 187 56 1226 0
-323 123 438 1227 0
-101 229 250 1228 0
454 -282 167 1229 0
31 -90 -376 1230 0
-426 96 21 1231 0
138 -420 -193 1232 0
-9 -350 382 1233 0
58 -346 484 1234 0
-358 132 64 1235 0
-269 249 -214 1236 0
-500 -89 -256 1237 0
-79 428 -373 1238 0
-333 483 -413 1239 0
3 230 -298 1240 0
-125 -109 -309 1241 0
336 -109 481 1242 0
95 339 217 1243 0
-466 -294 241 1244 0
136 447 -280 1245 0
400 -257 479 1246 0
14 371 52 1247 0
-315 171 276 1248 0
-221 -137 -424 1249 0
295 217 -115 1250 0
-429 -130 22 1251 0
-377 -499 186 1252 0
-21 241 64 1253 0
-384 -463 297 1254 0
355 261 -77 1255 0
-421 422 -401 1256 0
151 -330 -302 1257 0
-338 -247 181 1258 0
-481 -358 -1 1259 0
372 36 436 1260 0
246 -480 220 1261 0
198 -13 -100 1262 0
-143 113 132 1263 0
320 -65 -453 1264 0
266 -423 488 1265 0
371 373 192 1266 0
336 -6 78 1267 0
306 242 29 1268 0
-220 -418 205 1269 0
-15 122 46 1270 0
112 72 471 1271 0
394 175 -386 1272 0
-396 270 434 1273 0
294 -56 -39 1274 0
-419 -145 -452 1275 0
114 -500 -7 1276 0
340 -68 302 1277 0
410 65 342 1278 0
-75 406 -106 1279 0
406 270 -484 1280 0
-339 -271 -153 1281 0
-351 246 -386 1282 0
-250 -12 358 1283 0
-369 252 -194 1284 0
183 -154 94 1285 0
-305 -170 152 1286 0
281 -103 -246 1287 0
-115 -223 310 1288 0
39 -123 58 1289 0
-484 9 227 1290 0
-164 -142 -39 1291 0
-51 111 -59 1292 0
-44 328 -78 1293 0
-123 497 -135 1294 0
-493 275 8 1295 0
-436 65 -200 1296 0
345 125 -159 1297 0
-314 163 -488 1298 0
-59 -404 -293 1299 0
-32 253 66 1300 0
-430 -327 147 1301 0
83 -367 368 1302 0
-27 -166 -470 1303 0
130 439 -109 1304 0
-141 299 -24 1305 0
411 -92 491 1306 0
263 -201 -206 1307 0
-359 62 -6 1308 0
-432 127 457 1309 0
-423 234 19 1310 0
-453 484 -350 1311 0
-230 -27 109 1312 0
-135 111 -278 1313 0
381 -190 299 1314 0
248 135 -308 1315 0
187 338 -222 1316 0
-207 -187 -225 1317 0
137 -388 -116 1318 0
-355 -60 -191 1319 0
-339 -482 -71 1320 0
232 -182 288 1321 0
251 -287 113 1322 0
322 464 215 1323 0
387 240 148 1324 0
-110 -355 9 1325 0
-15 -82 398 1326 0
-495 -304 -314 1327 0
236 31 330 1328 0
-405 -379 -29 1329 0
167 -266 -271 1330 0
357 308 227 1331 0
49 451 -48 1332 0
-289 359 221 1333 0
-403 -352 127 1334 0
-302 -4 231 1335 0
-31 -131 337 1336 0
481 -373 -222 1337 0
143 -114 354 1338 0
-429 -455 230 1339 0
236 267 -436 1340 0
281 50 -440 1341 0
36 -313 115 1342 0
428 208 -264 1343 0
255 454 302 1344 0
-409 -199 -220 1345 0
101 -442 457 1346 0
-227 -12 -236 1347 0
67 -27 -32 1348 0
-348 235 -74 1349 0
67 -243 -16 1350 0
428 -126 57 1351 0
-41 27 -119 1352 0
-79 241 -266 1353 0
-61 -378 -108 1354 0
397 -164 453 1355 0
-490 357 -200 1356 0
-46 87 -297 1357 0
-465 82 -424 1358 0
39 233 -64 1359 0
248 -187 295 1360 0
451 -135 -430 1361 0
-317 133 34 1362 0
211 -279 -438 1363 0
469 184 361 1364 0
59 489 -271 1365 0
383 52 255 1366 0
-212 141 -395 1367 0
-69 332 -258 1368 0
60 -51 223 1369 0
-377 471 -268 1370 0
318 -469 169 1371 0
371 -306 -91 1372 0
191 202 -167 1373 0
134 33 -447 1374 0
-160 275 343 1375 0
-376 18 -313 1376 0
-426 10 -17 1377 0
197 -128 -475 1378 0
136 285 272 1379 0
-341 303 62 1380 0
-439 -149 412 1381 0
445 -489 402 1382 0
61 310 -414 1383 0
-156 -26 -213 1384 0
386 237 -155 1385 0
258 273 76 1386 0
463 -175 -491 1387 0
349 -276 -149 1388 0
261 -79 -369 1389 0
411 -209 -24 1390 0
108 -288 -172 1391 0
-392 -73 -272 1392 0
234 -419 -373 1393 0
269 -231 271 1394 0
4 35 391 1395 0
2 336 -421 1396 0
-285 177 169 1397 0
-19 -162 -482 1398 0
22 202 -175 1399 0
49 -479 360 1400 0
477 -350 -390 1401 0
-366 -218 74 1402 0
-45 136 258 1403 0
-283 -111 -215 1404 0
448 216 -64 1405 0
-203 -449 -189 1406 0
-54 410 205 1407 0
283 -254 -188 1408 0
-293 61 97 1409 0
-172 258 150 1410 0
134 -386 -482 1411 0
-59 -310 323 1412 0
-77 -37 -396 1413 0
105 -462 -409 1414 0
-188 -37 343 1415 0
-113 181 -111 1416 0
78 35 475 1417 0
404 290 -257 1418 0
61 -348 237 1419 0
8 249 -181 1420 0
-279 311 -460 1421 0
231 -398 -215 1422 0
-80 53 443 1423 0
-470 -60 142 1424 0
-281 133 -376 1425 0
377 -124 43 1426 0
476 -430 227 1427 0
-115 305 -71 1428 0
-78 176 -386 1429 0
293 -124 -59 1430 0
454 -243 74 1431 0
-244 -430 119 1432 0
-49 -177 222 1433 0
345 -332 -472 1434 0
381 351 -92 1435 0
-30 402 122 1436 0
-460 -84 160 1437 0
5 -290 250 1438 0
-105 19 -22 1439 0
82 -366 -92 1440 0
481 477 249 1441 0
454 -140 -485 1442 0
-274 -252 -20 1443 0
-327 164 192 1444 0
-238 223 235 1445 0
-175 -200 144 1446 0
-15 40 -71 1447 0
-252 431 61 1448 0
208 3 190 1449 0
-139 -468 263 1450 0
497 -467 -423 1451 0
4 -278 -477 1452 0
193 -239 -28 1453 0
-185 -70 -449 1454 0
-178 -478 -431 1455 0
223 170 52 1456 0
221 448 179 1457 0
-425 -56 -59 1458 0
299 419 -90 1459 0
-200 -349 424 1460 0
272 484 -126 1461 0
370 -388 403 1462 0
-410 -19 -195 1463 0
-99 -313 -376 1464 0
-98 -106 -1 1465 0
387 165 231 1466 0
26 192 -109 1467 0
384 9 -193 1468 0
407 445 434 1469 0
-294 79 -138 1470 0
156 413 29 1471 0
425 8 -99 1472 0
-354 56 256 1473 0
-55 233 335 1474 0
-204 44 -85 1475 0
-322 -26 474 1476 0
404 -153 -179 1477 0
-7 125 -359 1478 0
57 401 -187 1479 0
-484 20 427 1480 0
74 400 30 1481 0
274 -92 -5 1482 0
38 310 -265 1483 0
-89 -433 407 1484 0
96 353 -39 1485 0
-135 356 -288 1486 0
40 270 -58 1487 0
-451 -310 236 1488 0
487 -179 -358 1489 0
-122 58 69 1490 0
187 -354 -417 1491 0
229 299 -460 1492 0
464 -429 36 1493 0
-315 30 209 1494 0
-159 141 40 1495 0
204 80 106 1496 0
-373 150 -390 1497 0
-192 -37 93 1498 0
-153 -298 462 1499 0
162 324 419 1500 0
196 -221 -400 1501 0
6 217 -136 1502 0
-138 -24 252 1503 0
-61 415 -121 1504 0
470 80 186 1505 0
7 -339 -253 1506 0
-308 378 -152 1507 0
247 -436 -344 1508 0
-402 32 121 1509 0
385 231 -77 1510 0
-381 310 -309 1511 0
-488 -112 -458 1512 0
-177 311 309 1513 0
416 -280 473 1514 0
-391 259 1 1515 0
133 56 -235 1516 0
156 268 -108 1517 0
297 -247 317 1518 0
-308 495 -157 1519 0
25 -144 189 1520 0
455 1 444 1521 0
218 174 374 1522 0
449 344 350 1523 0
429 -207 -392 1524 0
-360 26 468 1525 0
-468 148 -199 1526 0
-355 115 -265 1527 0
57 -120 175 1528 0
421 -289 5 1529 0
-336 -60 484 1530 0
-83 -498 317 1531 0
-206 -95 -159 1532 0
-202 94 -54 1533 0
-32 -85 -190 1534 0
-109 298 -271 1535 0
-225 -429 323 1536 0
485 -95 -441 1537 0
-327 -458 -472 1538 0
-339 -184 39 1539 0
219 -231 89 1540 0
68 -325 -294 1541 0
-291 146 86 1542 0
-102 18 161 1543 0
455 -226 436 1544 0
-367 -344 -364 1545 0
442 197 489 1546 0
237 -171 217 1547 0
-27 -73 -3 1548 0
-178 91 -378 1549 0
318 169 101 1550 0
444 -340 21 1551 0
-473 -466 -7 1552 0
-405 -432 -312 1553 0
147 149 -277 1554 0
-272 145 -292 1555 0
400 247 325 1556 0
-487 -61 -16 1557 0
-257 417 450 1558 0
-326 78 -96 1559 0
-488 163 58 1560 0
-494 489 263 1561 0
-122 478 -320 1562 0
262 -165 -96 1563 0
-213 -157 357 1564 0
12 -70 -399 1565 0
299 260 60 1566 0
-92 -77 204 1567 0
-318 360 125 1568 0
-2 -320 -181 1569 0
-18 -267 186 1570 0
50 -308 -228 1571 0
-273 -46 -279 1572 0
165 476 69 1573 0
325 -340 77 1574 0
-282 135 160 1575 0
466 411 -342 1576 0
126 231 22 1577 0
459 -405 215 1578 0
-448 -282 -301 1579 0
-39 -172 116 1580 0
206 -233 81 1581 0
-247 -148 243 1582 0
159 207 -351 1583 0
498 -208 -108 1584 0
395 -261 -263 1585 0
-357 -470 42 1586 0
-390 -356 -425 1587 0
475 -20 -414 1588 0
357 -117 137 1589 0
-219 48 124 1590 0
-62 -228 -484 1591 0
-419 325 137 1592 0
242 392 -103 1593 0
-3 438 -17 1594 0
354 5 -206 1595 0
-162 371 -303 1596 0
-274 -307 -106 1597 0
249 98 -287 1598 0
-103 -39 242 1599 0
-448 223 -146 1600 0
35 298 151 1601 0
423 473 -344 1602 0
399 89 -61 1603 0
125 -425 194 1604 0
-92 462 -14 1605 0
350 448 -14 1606 0
321 278 -194 1607 0
-352 -491 -129 1608 0
36 38 170 1609 0
-146 -388 254 1610 0
-378 388 -252 1611 0
9 250 143 1612 0
127 275 342 1613 0
127 -361 148 1614 0
-7 414 -294 1615 0
350 -278 -270 1616 0
-494 160 -375 1617 0
428 436 -280 1618 0
-161 -426 62 1619 0
226 454 16 1620 0
-425 428 -112 1621 0
-310 -263 75 1622 0
-293 114 14 1623 0
496 -408 -132 1624 0
-435 228 292 1625 0
-108 -489 417 1626 0
429 -210 277 1627 0
-328 -463 -322 1628 0
-450 254 127 1629 0
60 274 146 1630 0
-463 -322 -137 1631 0
-370 9 -393 1632 0
-447 458 271 1633 0
-476 -228 454 1634 0
321 213 259 1635 0
191 -253 -7 1636 0
-488 430 396 1637 0
19 -459 -98 1638 0
97 -422 215 1639 0
30 -471 262 1640 0
-72 -160 29 1641 0
468 -496 424 1642 0
-319 276 -218 1643 0
403 340 -139 1644 0
-307 227 -278 1645 0
43 347 -434 1646 0
-307 108 171 1647 0
194 -155 22 1648 0
475 -286 -344 1649 0
-334 463 -473 1650 0
221 121 -480 1651 0
287 -57 -139 1652 0
-334 -375 -379 1653 0
-61 -165 482 1654 0
252 165 108 1655 0
442 -234 -195 1656 0
-121 228 -119 1657 0
-79 -256 290 1658 0
315 91 405 1659 0
-176 173 41 1660 0
6 289 93 1661 0
149 -498 17 1662 0
140 469 368 1663 0
336 -207 -241 1664 0
82 238 32 1665 0
33 -385 -269 1666 0
86 365 199 1667 0
-325 -346 -327 1668 0
-418 -468 -46 1669 0
-311 79 378 1670 0
26 16 153 1671 0
461 -179 197 1672 0
-249 -132 432 1673 0
-118 -190 -347 1674 0
384 -341 230 1675 0
-393 205 105 1676 0
426 341 -236 1677 0
205 316 -400 1678 0
-219 -159 127 1679 0
-127 -483 -262 1680 0
180 -432 284 1681 0
-77 -338 -365 1682 0
186 266 -326 1683 0
-104 125 339 1684 0
-380 -437 -426 1685 0
404 -482 92 1686 0
-450 -461 -308 1687 0
103 294 332 1688 0
-172 235 -312 1689 0
56 -316 456 1690 0
-314 220 215 1691 0
354 449 -10 1692 0
255 -445 -98 1693 0
-101 -209 -165 1694 0
157 -282 9 1695 0
-14 120 33 1696 0
-279 -271 -95 1697 0
483 16 14 1698 0
147 -372 409 1699 0
-60 -116 500 1700 0
334 77 -126 1701 0
-467 -452 -314 1702 0
-43 255 305 1703 0
287 -64 -364 1704 0
360 177 -363 1705 0
130 241 220 1706 0
-248 -339 -219 1707 0
494 -178 97 1708 0
402 -43 469 1709 0
-157 -316 306 1710 0
-317 -495 -261 1711 0
-126 240 312 1712 0
254 -397 335 1713 0
354 -330 12 1714 0
299 -385 178 1715 0
-423 -209 230 1716 0
-109 -140 323 1717 0
-209 394 -27 1718 0
387 -49 351 1719 0
396 75 -45 1720 0
-432 460 52 1721 0
-359 -148 -418 1722 0
-392 -276 -41 1723 0
418 408 244 1724 0
101 271 381 1725 0
-472 -375 213 1726 0
-452 177 250 1727 0
-107 19 438 1728 0
113 -440 131 1729 0
-146 128 -269 1730 0
265 -459 -321 1731 0
-409 -349 48 1732 0
307 -401 204 1733 0
-407 -477 123 1734 0
335 -149 -13 1735 0
-489 -393 341 1736 0
98 -184 -179 1737 0
-55 -403 198 1738 0
489 483 84 1739 0
459 163 58 1740 0
341 -108 -147 1741 0
466 -312 -305 1742 0
-458 -246 -244 1743 0
-294 214 176 1744 0
-466 -252 -263 1745 0
116 346 17 1746 0
-325 18 115 1747 0
-186 7 -70 1748 0
188 -155 -316 1749 0
277 -59 133 1750 0
-220 338 380 1751 0
178 50 -249 1752 0
149 -399 201 1753 0
-58 299 -5 1754 0
347 414 285 1755 0
-105 353 146 1756 0
-446 -277 -134 1757 0
293 404 -252 1758 0
-80 438 492 1759 0
-294 32 -36 1760 0
-199 -418 160 1761 0
-184 70 67 1762 0
114 344 419 1763 0
240 77 460 1764 0
314 195 -3 1765 0
-126 43 -8 1766 0
198 -62 399 1767 0
163 -299 -7 1768 0
-11 -85 374 1769 0
-483 22 -23 1770 0
-172 344 371 1771 0
-406 -194 -197 1772 0
440 -348 -397 1773 0
-454 -121 461 1774 0
202 343 -380 1775 0
107 -140 -236 1776 0
-341 -374 389 1777 0
-274 -446 -414 1778 0
-229 497 394 1779 0
-302 439 112 1780 0
402 34 279 1781 0
346 430 -184 1782 0
-89 183 -345 1783 0
-427 170 -54 1784 0
-288 -350 279 1785 0
-205 -209 402 1786 0
343 448 424 1787 0
265 254 379 1788 0
-445 -229 -45 1789 0
-458 216 1 1790 0
169 -283 -217 1791 0
419 -396 237 1792 0
-331 227 5 1793 0
-430 385 369 1794 0
48 29 -42 1795 0
324 -409 486 1796 0
-269 -38 353 1797 0
290 -251 477 1798 0
88 157 168 1799 0
-466 -168 372 1800 0
-376 368 -305 1801 0
182 -371 -379 1802 0
-282 -296 -267 1803 0
-95 2 -166 1804 0
372 243 53 1805 0
-119 340 -151 1806 0
-12 -369 -397 1807 0
-443 54 192 1808 0
-18 -179 -250 1809 0
-456 -99 439 1810 0
53 137 -400 1811 0
219 -84 -263 1812 0
134 335 79 1813 0
85 -357 -327 1814 0
404 141 -56 1815 0
471 -364 -371 1816 0
-372 333 344 1817 0
38 -449 447 1818 0
231 297 -84 1819 0
-289 497 22 1820 0
-337 220 -55 1821 0
89 112 205 1822 0
1 -413 78 1823 0
324 -120 90 1824 0
-419 280 435 1825 0
-257 -182 -132 1826 0
120 -402 -112 1827 0
-374 -304 334 1828 0
322 -389 -13 1829 0
383 -31 -387 1830 0
217 -464 -239 1831 0
-166 -9 -415 1832 0
-199 -131 480 1833 0
412 177 -464 1834 0
-248 61 -50 1835 0
337 -376 241 1836 0
138 -21 -304 1837 0
332 494 40 1838 0
497 -225 462 1839 0
40 -249 157 1840 0
-120 498 -486 1841 0
90 -399 143 1842 0
-301 -372 -216 1843 0
-428 447 265 1844 0
-266 295 201 1845 0
-164 -169 187 1846 0
-24 500 430 1847 0
-476 -131 407 1848 0
195 222 411 1849 0
466 -368 49 1850 0
-1 -147 255 1851 0
-320 453 328 1852 0
-82 398 -248 1853 0
356 -254 410 1854 0
-214 103 -192 1855 0
-193 184 432 1856 0
-322 -385 237 1857 0
-500 56 -484 1858 0
10 456 457 1859 0
487 -342 129 1860 0
-394 186 339 1861 0
365 -196 -466 1862 0
17 57 -364 1863 0
369 429 276 1864 0
-498 259 110 1865 0
366 -286 -230 1866 0
-145 330 147 1867 0
133 -59 -29 1868 0
196 -51 -225 1869 0
308 313 -356 1870 0
454 -400 439 1871 0
-249 -118 -363 1872 0
422 399 266 1873 0
-115 428 -258 1874 0
265 454 302 1875 0
124 -292 57 1876 0
470 -85 187 1877 0
21 471 -381 1878 0
-227 -105 491 1879 0
-189 -299 385 1880 0
9 282 -285 1881 0
-337 -183 193 1882 0
-332 262 -315 1883 0
-121 -18 158 1884 0
-197 209 295 1885 0
-415 -392 -423 1886 0
-88 122 -439 1887 0
-64 -418 332 1888 0
41 -406 435 1889 0
-146 -159 -373 1890 0
487 -148 -333 1891 0
372 -11 90 1892 0
175 160 -190 1893 0
54 477 44 1894 0
327 278 214 1895 0
-478 403 431 1896 0
327 197 129 1897 0
-316 -268 419 1898 0
-66 -291 -283 1899 0
-39 192 96 1900 0
-265 -426 -20 1901 0
446 -422 277 1902 0
253 19 4 1903 0
-47 -20 59 1904 0
-159 -454 -102 1905 0
-52 223 262 1906 0
309 265 346 1907 0
138 -458 -30 1908 0
159 346 108 1909 0
-429 -92 300 1910 0
-268 214 305 1911 0
-336 145 53 1912 0
84 -494 -197 1913 0
172 -228 411 1914 0
268 117 396 1915 0
-495 414 -371 1916 0
385 -398 279 1917 0
176 430 25 1918 0
-444 175 180 1919 0
-309 46 380 1920 0
373 -473 192 1921 0
27 491 -134 1922 0
-96 336 179 1923 0
13 208 -243 1924 0
-264 -24 266 1925 0
-409 322 58 1926 0
-302 52 -482 1927 0
357 480 178 1928 0
-492 460 361 1929 0
391 499 87 1930 0
266 353 268 1931 0
68 194 138 1932 0
345 -368 356 1933 0
25 146 -375 1934 0
-64 -319 -262 1935 0
436 -39 399 1936 0
-94 222 -416 1937 0
-380 -199 470 1938 0
-322 -296 -414 1939 0
175 -473 298 1940 0
-328 -268 -354 1941 0
-42 170 455 1942 0
245 -402 96 1943 0
456 -496 77 1944 0
-66 -51 387 1945 0
293 -137 -409 1946 0
387 -63 -125 1947 0
20 24 326 1948 0
-319 -388 90 1949 0
377 463 -440 1950 0
-238 70 69 1951 0
-334 -274 -104 1952 0
338 -496 -76 1953 0
-270 -347 463 1954 0
-424 351 159 1955 0
174 448 -220 1956 0
-72 194 280 1957 0
223 207 377 1958 0
-261 -2 -177 1959 0
-315 -342 -477 1960 0
103 207 -68 1961 0
409 95 -4 1962 0
446 -91 156 1963 0
51 -389 178 1964 0
-420 -485 -251 1965 0
347 -445 374 1966 0
-415 336 403 1967 0
-42 -335 310 1968 0
352 118 241 1969 0
351 -304 121 1970 0
28 448 412 1971 0
-72 348 291 1972 0
474 -385 160 1973 0
-499 -409 96 1974 0
256 -323 58 1975 0
-363 -403 -151 1976 0
-152 253 463 1977 0
-135 -274 -472 1978 0
288 -246 -326 1979 0
-45 -287 -320 1980 0
428 -369 264 1981 0
-187 234 69 1982 0
-75 251 -303 1983 0
482 -81 -154 1984 0
113 -384 234 1985 0
32 -435 -78 1986 0
202 -60 -219 1987 0
-23 -138 -195 1988 0
-148 298 321 1989 0
187 -111 -265 1990 0
-51 484 275 1991 0
443 146 -438 1992 0
-138 14 322 1993 0
-348 100 -250 1994 0
-275 -283 461 1995 0
121 -102 272 1996 0
280 295 179 1997 0
-84 23 -461 1998 0
-422 -29 300 1999 0
-342 -264 327 2000 0
-340 -205 -333 2001 0
491 -343 -417 2002 0
-172 416 9 2003 0
-253 -364 451 2004 0
262 -289 -179 2005 0
135 458 403 2006 0
-8 -68 243 2007 0
-263 -405 53 2008 0
366 295 -153 2009 0
500 62 198 2010 0
-5 103 370 2011 0
102 408 -242 2012 0
435 77 200 2013 0
189 -142 -316 2014 0
268 219 -361 2015 0
187 -59 -251 2016 0
-234 47 -296 2017 0
-353 -279 144 2018 0
80 -367 129 2019 0
274 -336 -442 2020 0
-469 110 494 2021 0
444 497 371 2022 0
449 -434 340 2023 0
370 -15 -20 2024 0
313 399 -170 2025 0
-57 2 -95 2026 0
147 -122 248 2027 0
-366 -114 -224 2028 0
144 271 382 2029 0
-398 -372 355 2030 0
-351 -118 141 2031 0
419 -438 -160 2032 0
179 10 302 2033 0
153 -290 305 2034 0
129 95 -274 2035 0
340 203 -187 2036 0
110 -62 71 2037 0
171 -164 158 2038 0
330 41 -130 2039 0
249 -390 -74 2040 0
-366 -53 -427 2041 0
361 315 -407 2042 0
-236 89 387 2043 0
377 -170 -3 2044 0
-251 210 54 2045 0
-263 -129 366 2046 0
392 -347 14 2047 0
-76 -32 -1 2048 0
477 -369 -19 2049 0
8 -304 -87 2050 0
-256 482 -109 2051 0
-163 269 216 2052 0
-162 -402 -30 2053 0
493 -73 -342 2054 0
-236 399 307 2055 0
312 384 476 2056 0
28 57 265 2057 0
223 263 -465 2058 0
-356 466 401 2059 0
428 -44 287 2060 0
169 287 -480 2061 0
-433 106 -19 2062 0
273 50 339 2063 0
194 377 82 2064 0
-498 -467 281 2065 0
-263 325 -158 2066 0
253 197 -54 2067 0
-181 -431 -60 2068 0
-423 89 -151 2069 0
-197 -293 285 2070 0
116 -350 -71 2071 0
495 163 -336 2072 0
-25 -169 265 2073 0
17 -19 392 2074 0
-445 -459 102 2075 0
311 -447 345 2076 0
81 447 -387 2077 0
-469 417 -186 2078 0
-205 -393 -357 2079 0
-111 -414 -186 2080 0
-332 -259 -103 2081 0
-382 -467 143 2082 0
486 -396 494 2083 0
-441 -48 489 2084 0
430 -469 147 2085 0
13 107 302 2086 0
-162 123 -163 2087 0
483 -135 -492 2088 0
269 -447 -254 2089 0
-164 -499 -419 2090 0
195 145 163 2091 0
-22 -314 -376 2092 0
88 209 429 2093 0
-9 -285 -235 2094 0
222 -157 345 2095 0
-168 -387 -402 2096 0
-391 -214 -325 2097 0
50 342 335 2098 0
55 101 -343 2099 0
177 332 -184 2100 0
8 -472 26 2101 0
-305 320 473 2102 0
-439 -81 90 2103 0
-258 188 269 2104 0
-225 237 -64 2105 0
-16 -336 344 2106 0
14 60 424 2107 0
352 113 493 2108 0
190 -379 -478 2109 0
227 338 -258 2110 0
82 112 102 2111 0
-253 -295 440 2112 0
-101 311 -278 2113 0
99 -12 -115 2114 0
-16 199 -377 2115 0
131 358 232 2116 0
407 -253 -391 2117 0
-100 -293 -313 2118 0
429 183 392 2119 0
98 -317 146 2120 0
152 83 299 2121 0
-46 -82 300 2122 0
305 167 -254 2123 0
389 -464 -203 2124 0
324 -437 -74 2125 0
59 100 200 2126 0
-462 -245 499 2127 0
-219 176 165 2128 0
199 -27 246 2129 0
334 -458 -254 2130 0
415 -230 -166 2131 0
-190 377 375 2132 0
-430 62 -323 2133 0
-348 283 430 2134 0
-447 -217 -39 2135 0
-372 -367 -83 2136 0
418 42 31 2137 0
-93 500 39 2138 0
311 456 404 2139 0
-498 189 -376 2140 0
-474 -162 -112 2141 0
408 416 -219 2142 0
-336 -142 -49 2143 0
-165 -330 -119 2144 0
-15 219 55 2145 0
-54 207 -432 2146 0
9 208 301 2147 0
-414 -88 262 2148 0
-153 481 -406 2149 0
285 -226 -305 2150 0
-469 -34 145 2151 0
-478 414 323 2152 0
-339 145 499 2153 0
410 182 167 2154 0
-434 474 -56 2155 0
386 -398 -274 2156 0
464 428 161 2157 0
226 336 -398 2158 0
-336 -12 56 2159 0
222 35 -487 2160 0
-482 232 -471 2161 0
48 -393 -366 2162 0
405 458 -49 2163 0
-330 -17 -326 2164 0
316 435 72 2165 0
10 -270 466 2166 0
68 -351 -262 2167 0
-80 -106 238 2168 0
498 -263 494 2169 0
121 -114 -20 2170 0
128 -13 321 2171 0
9 349 -178 2172 0
-54 -373 333 2173 0
-151 15 -473 2174 0
-229 260 250 2175 0
-434 -254 283 2176 0
-291 88 -4 2177 0
236 -465 -248 2178 0
-338 468 296 2179 0
474 -372 -496 2180 0
-371 222 -225 2181 0
188 -280 469 2182 0
-290 42 -329 2183 0
-292 117 -31 2184 0
-459 387 -133 2185 0
119 -25 -371 2186 0
347 389 18 2187 0
-366 489 354 2188 0
316 -259 -430 2189 0
-456 301 -412 2190 0
-458 15 -194 2191 0
-69 -386 383 2192 0
258 -178 -465 2193 0
-441 22 133 2194 0
109 32 -389 2195 0
277 291 -448 2196 0
74 -198 211 2197 0
454 -434 332 2198 0
294 360 -15 2199 0
-177 -332 -249 2200 0
305 -97 325 2201 0
-17 -43 -101 2202 0
278 375 416 2203 0
74 288 194 2204 0
191 44 68 2205 0
-310 -205 414 2206 0
325 478 -8 2207 0
426 361 90 2208 0
485 -361 -314 2209 0
462 389 -412 2210 0
-78 -93 -151 2211 0
324 407 341 2212 0
369 -490 -438 2213 0
-175 129 30 2214 0
5 201 -307 2215 0
497 -328 -303 2216 0
465 -260 -20 2217 0
159 -448 -490 2218 0
73 -222 -370 2219 0
-54 425 298 2220 0
-423 62 -284 2221 0
83 205 430 2222 0
-306 276 246 2223 0
-213 -293 -167 2224 0
-177 178 -21 2225 0
236 -269 -332 2226 0
144 37 -241 2227 0
306 -318 229 2228 0
457 -331 -306 2229 0
378 -241 -100 2230 0
254 -428 392 2231 0
150 -336 -435 2232 0
96 -22 416 2233 0
-306 438 228 2234 0
430 367 241 2235 0
-302 -384 345 2236 0
-410 -473 -386 2237 0
-226 -382 384 2238 0
-197 -180 -21 2239 0
-319 362 409 2240 0
273 -94 -311 2241 0
-400 -270 174 2242 0
264 85 -398 2243 0
-112 215 319 2244 0
-330 -130 446 2245 0
-69 388 134 2246 0
453 -370 176 2247 0
66 -164 -483 2248 0
-214 454 131 2249 0
215 366 142 2250 0
-136 314 -75 2251 0
315 -210 -111 2252 0
-348 187 181 2253 0
-260 -247 70 2254 0
374 -50 322 2255 0
-317 381 420 2256 0
-422 -331 463 2257 0
-472 210 -128 2258 0
337 458 -307 2259 0
-294 358 375 2260 0
313 -255 -471 2261 0
-310 267 -75 2262 0
119 -462 325 2263 0
-196 -149 334 2264 0
140 154 -94 2265 0
-287 -359 -467 2266 0
-216 350 -275 2267 0
-334 167 -78 2268 0
-414 40 -368 2269 0
-434 -154 493 2270 0
-104 241 -301 2271 0
236 421 446 2272 0
467 78 319 2273 0
-314 -252 -210 2274 0
-62 73 -358 2275 0
-142 246 -146 2276 0
174 415 -492 2277 0
151 76 -365 2278 0
-201 -310 319 2279 0
-260 128 478 2280 0
261 77 487 2281 0
-293 -46 -24 2282 0
-132 198 -30 2283 0
-7 -494 -52 2284 0
-205 323 -204 2285 0
123 250 340 2286 0
450 293 43 2287 0
-15 150 209 2288 0
-412 469 120 2289 0
472 -489 -4 2290 0
-91 -263 382 2291 0
480 -135 -441 2292 0
-35 149 493 2293 0
267 83 -59 2294 0
-29 -500 484 2295 0
-233 -43 111 2296 0
492 408 446 2297 0
326 495 32 2298 0
7 -125 -101 2299 0
120 450 -370 2300 0
-386 7 -219 2301 0
97 -401 -361 2302 0
-375 -163 175 2303 0
-9 -51 170 2304 0
284 235 -425 2305 0
462 273 -256 2306 0
-29 -301 -423 2307 0
-358 -255 -346 2308 0
397 -300 268 2309 0
180 -340 -203 2310 0
-458 -109 -180 2311 0
439 201 20 2312 0
-327 310 -169 2313 0
-454 -335 -70 2314 0
-218 -81 267 2315 0
17 -9 398 2316 0
88 103 17 2317 0
-450 290 -416 2318 0
-308 -160 249 2319 0
454 362 -182 2320 0
294 492 -66 2321 0
391 -16 -426 2322 0
-6 -2 365 2323 0
-23 -479 413 2324 0
87 -368 -415 2325 0
264 -220 -327 2326 0
91 -241 -421 2327 0
-318 380 -235 2328 0
127 -152 206 2329 0
146 -315 50 2330 0
-412 195 213 2331 0
483 -121 168 2332 0
-43 462 -470 2333 0
281 -129 -274 2334 0
12 173 -135 2335 0
-43 -490 -199 2336 0
172 237 -418 2337 0
-452 -266 -410 2338 0
88 -162 -481 2339 0
25 64 479 2340 0
-42 62 412 2341 0
-261 -47 -313 2342 0
355 481 -113 2343 0
479 -400 -235 2344 0
-374 253 476 2345 0
-100 482 -332 2346 0
-241 59 278 2347 0
443 -387 271 2348 0
-226 -22 -483 2349 0
408 266 -308 2350 0
71 -234 -306 2351 0
-19 61 215 2352 0
-441 206 127 2353 0
153 387 -168 2354 0
360 295 280 2355 0
18 342 358 2356 0
-318 272 224 2357 0
-137 -478 -91 2358 0
-372 -86 9 2359 0
203 -105 -99 2360 0
254 -208 -424 2361 0
378 -10 71 2362 0
162 -295 -233 2363 0
-35 113 450 2364 0
210 -138 157 2365 0
-442 437 91 2366 0
-414 -153 70 2367 0
278 -47 -490 2368 0
-334 -153 49 2369 0
433 47 -101 2370 0
-427 -376 265 2371 0
447 -403 88 2372 0
-231 -372 -41 2373 0
269 297 -293 2374 0
165 92 461 2375 0
-24 251 406 2376 0
-451 305 -108 2377 0
6 263 -16 2378 0
203 62 161 2379 0
444 28 372 2380 0
-9 437 176 2381 0
-485 236 -499 2382 0
195 320 317 2383 0
88 387 438 2384 0
-71 156 172 2385 0
339 -159 251 2386 0
84 -320 307 2387 0
-488 -450 -378 2388 0
484 215 -453 2389 0
-129 330 -209 2390 0
-54 247 -495 2391 0
-367 448 -416 2392 0
397 29 -282 2393 0
-447 117 405 2394 0
-115 175 -211 2395 0
260 274 365 2396 0
-138 -286 149 2397 0
-455 -91 290 2398 0
187 -246 -483 2399 0
220 -309 -500 2400 0
-215 -447 430 2401 0
-32 -1 332 2402 0
-256 -399 -453 2403 0
-134 -360 -240 2404 0
95 302 319 2405 0
153 45 -68 2406 0
435 -177 -135 2407 0
-137 28 176 2408 0
285 495 499 2409 0
307 -159 -22 2410 0
-422 191 373 2411 0
-305 169 204 2412 0
59 188 176 2413 0
-423 -398 -391 2414 0
249 -342 357 2415 0
230 -179 252 2416 0
-142 -409 294 2417 0
345 -467 41 2418 0
-227 380 307 2419 0
-477 496 158 2420 0
-151 307 -24 2421 0
-273 296 -83 2422 0
-72 -303 452 2423 0
255 -419 76 2424 0
-322 -360 -118 2425 0
-209 -417 -144 2426 0
438 256 449 2427 0
10 305 349 2428 0
144 -169 100 2429 0
136 91 -16 2430 0
-144 73 223 2431 0
238 418 137 2432 0
56 399 229 2433 0
-75 -8 -435 2434 0
179 474 -411 2435 0
349 372 495 2436 0
463 69 232 2437 0
2 130 -242 2438 0
-482 143 -127 2439 0
282 -228 439 2440 0
59 -273 339 2441 0
435 31 -19 2442 0
27 -337 -408 2443 0
459 -358 482 2444 0
466 -380 -441 2445 0
286 354 -214 2446 0
-323 26 -48 2447 0
-36 281 231 2448 0
-162 498 23 2449 0
-161 91 -298 2450 0
16 479 -437 2451 0
-354 -121 444 2452 0
-380 160 351 2453 0
496 263 -491 2454 0
105 -307 265 2455 0
66 -85 -424 2456 0
267 358 132 2457 0
382 -20 -408 2458 0
287 -302 227 2459 0
-201 -456 217 2460 0
-444 499 -21 2461 0
407 399 -474 2462 0
-86 207 -383 2463 0
-240 -492 -10 2464 0
459 55 -66 2465 0
20 347 255 2466 0
-187 68 40 2467 0
371 19 186 2468 0
436 235 28 2469 0
254 -409 -440 2470 0
-284 -426 -334 2471 0
-286 383 -495 2472 0
436 303 266 2473 0
57 -459 24 2474 0
-27 -322 -476 2475 0
199 210 -132 2476 0
241 -113 264 2477 0
-291 116 -294 2478 0
272 57 94 2479 0
116 -450 -98 2480 0
-464 269 -44 2481 0
-177 -14 467 2482 0
151 412 -102 2483 0
-207 -57 -331 2484 0
276 -81 -201 2485 0
-394 -261 -116 2486 0
85 42 -143 2487 0
-76 32 -223 2488 0
176 -128 -328 2489 0
-93 403 -307 2490 0
-443 -213 240 2491 0
-286 -362 396 2492 0
379 -66 -440 2493 0
371 -368 -293 2494 0
-353 -343 126 2495 0
-356 -373 218 2496 0
-385 426 -227 2497 0
-458 484 139 2498 0
175 432 498 2499 0
-295 225 -410 2500 0
-26 493 -455 2501 0
-454 -94 -469 2502 0
-303 136 392 2503 0
290 74 183 2504 0
89 246 -96 2505 0
233 361 -13 2506 0
-281 -99 412 2507 0
-170 -351 422 2508 0
450 -25 -260 2509 0
-296 -89 336 2510 0
-78 138 -292 2511 0
492 -205 141 2512 0
-251 -135 75 2513 0
131 395 421 2514 0
-57 75 -88 2515 0
474 42 -34 2516 0
288 -377 -304 2517 0
-204 -210 103 2518 0
-459 137 64 2519 0
467 79 416 2520 0
452 412 -297 2521 0
-52 -437 149 2522 0
-42 -117 -243 2523 0
-177 276 -334 2524 0
-392 454 266 2525 0
56 -194 -124 2526 0
313 -12 316 2527 0
-346 -372 -358 2528 0
305 -133 -373 2529 0
135 -228 -466 2530 0
54 394 380 2531 0
476 229 -202 2532 0
-118 -238 379 2533 0
-4 -496 -153 2534 0
-325 -477 409 2535 0
-188 99 425 2536 0
318 -98 224 2537 0
423 121 162 2538 0
129 -386 -186 2539 0
-177 474 -445 2540 0
201 -451 -165 2541 0
344 -476 43 2542 0
462 244 78 2543 0
-203 335 142 2544 0
258 330 -348 2545 0
110 418 -289 2546 0
207 -436 -264 2547 0
-423 -4 -332 2548 0
184 -141 -239 2549 0
-278 443 -14 2550 0
96 447 -309 2551 0
-129 -153 -437 2552 0
-359 12 192 2553 0
190 448 -41 2554 0
-47 376 418 2555 0
91 -300 81 2556 0
-455 -45 223 2557 0
-275 -268 -463 2558 0
-156 478 430 2559 0
-242 -168 -418 2560 0
-474 -464 32 2561 0
499 -180 -240 2562 0
-465 171 -40 2563 0
-426 147 93 2564 0
-104 -184 189 2565 0
115 450 405 2566 0
-351 -117 -439 2567 0
31 -163 59 2568 0
170 -186 -465 2569 0
389 -41 -457 2570 0
-56 178 358 2571 0
-118 143 170 2572 0
-134 204 -196 2573 0
441 -119 -275 2574 0
-442 -313 87 2575 0
38 -173 215 2576 0
357 221 -386 2577 0
143 -357 -22 2578 0
25 101 338 2579 0
466 -240 467 2580 0
98 -274 159 2581 0
489 265 224 2582 0
90 220 -333 2583 0
-477 -350 455 2584 0
-174 63 -346 2585 0
-321 105 -220 2586 0
-207 160 -285 2587 0
-316 -25 -179 2588 0
-108 284 -125 2589 0
455 -164 -49 2590 0
54 168 138 2591 0
-359 -251 -132 2592 0
-267 -222 436 2593 0
296 -142 -247 2594 0
172 254 -311 2595 0
169 196 14 2596 0
-196 -373 216 2597 0
298 -193 295 2598 0
66 436 203 2599 0
239 -101 -46 2600 0
-382 180 -75 2601 0
4 -31 386 2602 0
-143 97 -356 2603 0
-114 -194 -230 2604 0
334 -111 381 2605 0
354 222 -404 2606 0
324 -198 -214 2607 0
217 -290 441 2608 0
-348 -119 -179 2609 0
-221 331 -475 2610 0
-276 -16 388 2611 0
-421 -243 410 2612 0
375 -145 -191 2613 0
21 398 -211 2614 0
417 -469 -369 2615 0
-473 -264 -144 2616 0
-182 44 436 2617 0
27 5 -411 2618 0
25 172 6 2619 0
-426 -237 7 2620 0
29 -466 -314 2621 0
391 394 251 2622 0
-468 -211 -405 2623 0
287 -415 -74 2624 0
-266 497 -177 2625 0
-148 -167 -158 2626 0
164 57 118 2627 0
-250 249 -89 2628 0
-422 -481 71 2629 0
165 -80 -468 2630 0
487 -362 -382 2631 0
-233 106 -316 2632 0
-8 273 326 2633 0
-306 245 -458 2634 0
-24 167 -419 2635 0
-206 -30 462 2636 0
-440 50 82 2637 0
-245 225 184 2638 0
101 485 -99 2639 0
-82 -401 295 2640 0
-293 -285 150 2641 0
309 92 29 2642 0
-266 -59 -71 2643 0
194 398 -467 2644 0
139 -480 -408 2645 0
-394 190 -490 2646 0
42 -263 102 2647 0
155 -49 -365 2648 0
253 275 -55 2649 0
-439 -93 197 2650 0
