p cnf 2650 2150
-487 445 -208 501 0
-440 407 141 502 0
-486 -9 17 503 0
172 -349 -439 504 0
-409 497 483 505 0
-349 -279 369 506 0
355 35 -59 507 0
192 204 406 508 0
484 -131 -254 509 0
90 118 -168 510 0
-338 236 -284 511 0
170 297 246 512 0
-136 218 125 513 0
97 45 -305 514 0
-163 181 -279 515 0
319 29 202 516 0
-387 -476 366 517 0
-330 137 -216 518 0
-429 -250 -74 519 0
-238 421 -468 520 0
-400 -436 300 521 0
-107 402 -27 522 0
-498 -428 -97 523 0
-361 416 -62 524 0
193 -281 270 525 0
-331 -197 353 526 0
435 -347 360 527 0
183 163 -182 528 0
-439 349 347 529 0
-323 -438 395 530 0
214 -358 443 531 0
-127 277 224 532 0
32 329 296 533 0
-18 -442 398 534 0
-47 461 -181 535 0
-386 -310 500 536 0
-443 -216 438 537 0
-451 223 400 538 0
177 161 -50 539 0
-327 -295 -250 540 0
-153 149 416 541 0
391 14 -447 542 0
-54 -366 -439 543 0
305 406 -284 544 0
34 -144 -474 545 0
-369 -222 88 546 0
-356 107 -421 547 0
-370 -418 30 548 0
64 370 -472 549 0
296 -395 -112 550 0
-358 351 200 551 0
-419 -107 -110 552 0
204 210 -411 553 0
439 281 255 554 0
-480 -434 -308 555 0
178 444 -298 556 0
490 101 -315 557 0
-61 -419 93 558 0
314 -422 -316 559 0
11 -40 353 560 0
499 -189 -114 561 0
231 -425 -28 562 0
-204 -190 315 563 0
23 235 -399 564 0
411 128 94 565 0
-155 -329 1 566 0
149 493 371 567 0
234 5 -483 568 0
266 -97 -309 569 0
-455 275 368 570 0
74 112 384 571 0
-462 307 -378 572 0
490 -484 -76 573 0
181 -318 -242 574 0
-293 -188 -265 575 0
-218 442 -210 576 0
447 471 -226 577 0
385 332 359 578 0
270 -157 78 579 0
-275 133 -324 580 0
-426 481 201 581 0
-180 159 -330 582 0
451 -141 -471 583 0
-232 -218 -499 584 0
401 -219 -176 585 0
208 41 329 586 0
156 -271 -196 587 0
342 -101 337 588 0
326 129 234 589 0
-426 -306 -128 590 0
169 -115 -394 591 0
-288 328 -51 592 0
-412 205 413 593 0
-396 487 -264 594 0
-51 355 -115 595 0
354 338 166 596 0
-245 128 154 597 0
236 -468 378 598 0
284 -453 -350 599 0
-61 -123 -241 600 0
170 -225 71 601 0
447 334 -399 602 0
167 110 20 603 0
-234 -245 398 604 0
-208 -424 -112 605 0
-149 156 277 606 0
-295 -419 -64 607 0
443 -85 411 608 0
-267 -414 -32 609 0
319 180 272 610 0
-246 -372 308 611 0
484 -24 267 612 0
-360 424 479 613 0
-395 -31 -451 614 0
-433 -464 140 615 0
350 -411 -339 616 0
480 -472 109 617 0
258 342 151 618 0
-196 269 -345 619 0
-174 311 55 620 0
-384 -411 144 621 0
398 263 -367 622 0
-20 3 -61 623 0
-343 -41 -3 624 0
-10 388 -302 625 0
67 469 41 626 0
363 96 -153 627 0
75 -76 -216 628 0
-331 -475 -51 629 0
94 -19 -470 630 0
-451 -350 -10 631 0
365 350 337 632 0
-309 -487 -458 633 0
113 407 488 634 0
-51 -287 389 635 0
-338 281 289 636 0
312 131 354 637 0
143 202 500 638 0
196 339 -475 639 0
-392 -453 125 640 0
110 -75 406 641 0
-171 302 -443 642 0
-304 -346 -490 643 0
185 -314 120 644 0
-162 -414 -95 645 0
-362 -281 -3 646 0
270 143 -225 647 0
281 341 -442 648 0
-379 194 -366 649 0
443 -158 -250 650 0
494 -492 -309 651 0
-227 -185 -230 652 0
-354 112 96 653 0
-65 -315 -241 654 0
71 70 383 655 0
-222 436 1 656 0
-257 474 -239 657 0
-330 80 -266 658 0
386 -77 211 659 0
279 -97 -231 660 0
-338 272 286 661 0
-338 -1 359 662 0
-361 -57 -80 663 0
478 62 -476 664 0
258 430 -371 665 0
426 25 -84 666 0
349 234 -391 667 0
-188 -386 -494 668 0
-217 55 -1 669 0
-316 8 -425 670 0
-486 -410 11 671 0
324 151 -352 672 0
413 222 -313 673 0
485 296 400 674 0
73 -55 309 675 0
197 -166 -452 676 0
-400 299 328 677 0
-178 77 487 678 0
-150 388 194 679 0
-364 -435 427 680 0
-341 -258 117 681 0
-425 144 204 682 0
-201 -354 23 683 0
112 -258 170 684 0
110 -6 225 685 0
419 167 -426 686 0
-196 289 -72 687 0
-456 -490 322 688 0
219 291 -354 689 0
327 322 -306 690 0
413 -178 -366 691 0
-47 -386 -430 692 0
371 405 157 693 0
-38 58 -89 694 0
-473 -56 -324 695 0
-221 -414 -156 696 0
-215 -244 390 697 0
-119 305 248 698 0
385 418 422 699 0
-497 216 324 700 0
-65 324 -439 701 0
410 395 74 702 0
340 -273 -364 703 0
121 -350 169 704 0
277 241 -224 705 0
-348 245 379 706 0
-46 -327 437 707 0
-317 -287 251 708 0
405 -213 402 709 0
-23 -299 456 710 0
81 -245 86 711 0
257 -403 214 712 0
-25 -118 -204 713 0
255 -377 -489 714 0
284 133 -434 715 0
103 -436 -390 716 0
160 -408 -388 717 0
221 -206 -197 718 0
-66 256 -458 719 0
-422 -178 441 720 0
-5 178 202 721 0
-341 -7 400 722 0
333 -490 248 723 0
138 -42 189 724 0
-22 -157 -71 725 0
348 350 351 726 0
19 -96 202 727 0
-345 -481 3 728 0
-192 282 -24 729 0
349 -468 321 730 0
-205 -428 -209 731 0
-301 -283 -234 732 0
490 284 -328 733 0
354 -73 29 734 0
-395 -259 65 735 0
478 310 -172 736 0
223 -389 277 737 0
-222 -378 152 738 0
-207 -27 -346 739 0
484 -96 -361 740 0
415 -74 -65 741 0
-294 196 95 742 0
361 333 -326 743 0
5 -238 484 744 0
25 -402 88 745 0
-43 10 -419 746 0
277 417 196 747 0
-259 -55 -350 748 0
48 193 -50 749 0
-67 -169 477 750 0
-35 -74 -479 751 0
-253 386 278 752 0
495 -288 82 753 0
-109 -193 -316 754 0
-171 -357 444 755 0
106 -154 304 756 0
-459 84 -318 757 0
-262 489 472 758 0
-17 134 164 759 0
321 430 435 760 0
-301 -283 197 761 0
-299 -280 -65 762 0
445 58 -304 763 0
211 -344 24 764 0
-452 -296 -42 765 0
-128 407 311 766 0
-414 394 164 767 0
-313 86 -107 768 0
-102 428 185 769 0
-252 -475 96 770 0
200 290 347 771 0
481 184 291 772 0
142 344 -276 773 0
192 -255 -136 774 0
-493 -355 -307 775 0
-51 -387 -263 776 0
149 476 -297 777 0
-450 382 393 778 0
-251 -187 -36 779 0
474 -113 64 780 0
-187 -421 -397 781 0
62 86 -181 782 0
231 -266 -140 783 0
-119 103 303 784 0
-41 236 -289 785 0
-290 67 56 786 0
50 -302 -75 787 0
105 181 160 788 0
262 -474 224 789 0
259 436 2 790 0
222 32 159 791 0
-260 294 105 792 0
-56 -456 195 793 0
69 352 -332 794 0
302 494 -121 795 0
-310 -337 111 796 0
481 -219 -281 797 0
-130 -218 414 798 0
-337 -58 282 799 0
-479 -445 -264 800 0
-441 305 336 801 0
496 191 228 802 0
109 -83 -398 803 0
141 -43 -76 804 0
-357 406 128 805 0
-15 117 -113 806 0
-57 -500 -164 807 0
-52 61 430 808 0
204 -188 -96 809 0
116 143 122 810 0
436 -431 -275 811 0
495 322 -408 812 0
68 -461 -153 813 0
275 462 326 814 0
-29 426 252 815 0
443 -48 338 816 0
-388 -114 92 817 0
-444 153 -427 818 0
108 -141 78 819 0
259 -356 115 820 0
-344 -226 126 821 0
381 -29 -261 822 0
338 -334 -194 823 0
-448 149 34 824 0
364 -286 -414 825 0
-337 -370 -22 826 0
-375 262 241 827 0
-90 415 243 828 0
237 304 447 829 0
-218 -6 303 830 0
-202 125 114 831 0
-459 -201 -240 832 0
443 364 24 833 0
266 32 -396 834 0
391 -168 450 835 0
-120 91 372 836 0
-256 50 276 837 0
473 268 -343 838 0
-200 -274 352 839 0
-196 121 -99 840 0
-386 1 -489 841 0
-125 232 42 842 0
-21 1 -113 843 0
-422 229 -494 844 0
434 -486 42 845 0
-41 489 -462 846 0
449 -465 181 847 0
486 253 -258 848 0
203 -238 -367 849 0
144 239 104 850 0
-444 345 -235 851 0
-128 160 -195 852 0
364 75 435 853 0
-129 221 -275 854 0
248 159 26 855 0
253 -491 -356 856 0
447 -385 -76 857 0
227 -205 11 858 0
219 -403 -223 859 0
489 -226 -241 860 0
458 -152 -426 861 0
120 -41 -243 862 0
26 -14 -20 863 0
34 -41 -342 864 0
120 -29 169 865 0
74 -148 95 866 0
458 -342 56 867 0
30 105 -460 868 0
358 -261 -155 869 0
198 421 471 870 0
-309 315 294 871 0
332 361 -498 872 0
437 -246 -68 873 0
345 -17 191 874 0
186 -192 -65 875 0
184 -180 -204 876 0
468 64 -378 877 0
184 -334 -142 878 0
-147 406 144 879 0
-317 24 18 880 0
-355 303 -291 881 0
-335 258 381 882 0
-328 -392 455 883 0
-170 137 148 884 0
-138 -464 379 885 0
-446 258 -381 886 0
-415 -483 136 887 0
-284 92 -462 888 0
-459 -307 -416 889 0
-332 -221 232 890 0
-20 -206 -109 891 0
221 -71 458 892 0
-129 55 298 893 0
-211 439 357 894 0
93 24 70 895 0
230 -234 -286 896 0
-488 -422 -409 897 0
367 -396 -241 898 0
208 -240 21 899 0
-276 -24 -444 900 0
346 -357 89 901 0
332 -440 -448 902 0
-217 331 -72 903 0
60 274 21 904 0
-298 -336 22 905 0
378 -112 444 906 0
-491 71 319 907 0
-50 380 -424 908 0
-254 483 -73 909 0
-397 432 -208 910 0
378 241 -490 911 0
-369 -280 -125 912 0
-363 469 -229 913 0
321 455 474 914 0
-72 -135 -219 915 0
-118 105 -109 916 0
85 473 -12 917 0
-63 -242 52 918 0
-303 -388 -414 919 0
-458 159 -226 920 0
158 30 -62 921 0
-186 -472 361 922 0
56 334 -328 923 0
-209 -75 462 924 0
337 415 107 925 0
-468 116 285 926 0
-315 140 -476 927 0
-254 -242 -280 928 0
-448 287 10 929 0
130 -281 -121 930 0
-272 -222 -435 931 0
-57 -471 -201 932 0
10 13 -397 933 0
-89 362 -41 934 0
167 -260 114 935 0
-358 -280 -81 936 0
-236 7 -352 937 0
203 -390 -37 938 0
449 -207 107 939 0
-422 89 302 940 0
284 363 383 941 0
149 -114 412 942 0
-77 -265 -469 943 0
115 356 -281 944 0
-213 -210 362 945 0
385 -427 297 946 0
228 230 -53 947 0
467 -213 194 948 0
249 392 124 949 0
144 -62 -109 950 0
223 -294 -179 951 0
160 -119 431 952 0
321 -174 391 953 0
-294 93 -376 954 0
271 -98 -205 955 0
341 -2 -368 956 0
202 76 403 957 0
271 396 -337 958 0
-437 435 -95 959 0
-279 310 -31 960 0
308 435 -455 961 0
310 338 -93 962 0
121 -167 180 963 0
444 110 252 964 0
216 -400 79 965 0
-385 45 -115 966 0
-215 75 -416 967 0
-325 -105 -58 968 0
-194 -44 -440 969 0
246 -191 -372 970 0
266 -435 -222 971 0
-123 -341 368 972 0
96 -360 -374 973 0
-11 -288 -149 974 0
-422 -273 -271 975 0
330 188 440 976 0
-441 100 147 977 0
-356 492 312 978 0
-431 350 361 979 0
-414 161 75 980 0
-431 -488 143 981 0
-453 -262 352 982 0
-81 431 -355 983 0
319 192 51 984 0
272 -344 388 985 0
-73 495 -189 986 0
162 148 128 987 0
-401 25 170 988 0
-241 206 -465 989 0
189 -138 -463 990 0
85 -121 -69 991 0
385 -494 104 992 0
83 171 -255 993 0
-426 -53 267 994 0
-337 -106 358 995 0
-69 103 -167 996 0
-430 -103 -266 997 0
71 -494 131 998 0
-63 392 424 999 0
-425 65 129 1000 0
18 276 480 1001 0
179 329 -122 1002 0
-476 -213 -419 1003 0
499 464 -203 1004 0
-186 335 -63 1005 0
284 -297 -336 1006 0
-363 318 469 1007 0
453 319 259 1008 0
-92 -66 437 1009 0
-425 491 -170 1010 0
-174 -175 -339 1011 0
236 -219 437 1012 0
183 -293 -230 1013 0
-173 174 -145 1014 0
17 3 -331 1015 0
199 280 216 1016 0
300 103 -282 1017 0
-43 -121 -175 1018 0
-319 -425 -482 1019 0
400 -471 51 1020 0
139 -479 -233 1021 0
-107 463 -67 1022 0
-107 404 -352 1023 0
-406 -102 -402 1024 0
442 421 -42 1025 0
-191 -276 435 1026 0
-126 -378 398 1027 0
51 342 223 1028 0
-203 37 -139 1029 0
-381 106 270 1030 0
-263 -445 67 1031 0
57 307 390 1032 0
-286 -371 7 1033 0
146 382 -377 1034 0
-438 220 186 1035 0
7 39 21 1036 0
-36 14 349 1037 0
-115 381 -286 1038 0
-490 248 -254 1039 0
-19 403 -448 1040 0
307 -434 -216 1041 0
68 364 -396 1042 0
485 121 -182 1043 0
42 23 39 1044 0
334 179 -463 1045 0
7 -148 61 1046 0
208 473 400 1047 0
-415 119 -147 1048 0
-67 -276 426 1049 0
177 212 169 1050 0
280 275 -221 1051 0
311 344 -390 1052 0
80 -140 -417 1053 0
210 -248 331 1054 0
-410 73 -122 1055 0
181 482 345 1056 0
-66 -353 308 1057 0
-127 174 -196 1058 0
305 -345 49 1059 0
-122 -65 -37 1060 0
-185 346 456 1061 0
-179 364 -322 1062 0
-471 250 104 1063 0
304 110 397 1064 0
-351 -359 -264 1065 0
-229 14 285 1066 0
-322 -362 285 1067 0
-311 92 389 1068 0
307 -494 -455 1069 0
424 -54 26 1070 0
-387 -261 75 1071 0
470 -168 389 1072 0
-237 161 -288 1073 0
343 -323 -440 1074 0
-415 -35 378 1075 0
-487 201 -168 1076 0
-253 28 -125 1077 0
49 36 81 1078 0
406 -295 -207 1079 0
248 -196 160 1080 0
197 341 68 1081 0
-412 54 492 1082 0
-162 217 91 1083 0
331 -166 275 1084 0
295 317 -285 1085 0
490 -395 -103 1086 0
71 266 -338 1087 0
-114 230 -151 1088 0
225 314 42 1089 0
-164 -345 -244 1090 0
232 -317 -89 1091 0
60 -106 309 1092 0
22 122 455 1093 0
-466 -165 -313 1094 0
257 -374 436 1095 0
-127 421 -257 1096 0
28 223 -111 1097 0
145 18 473 1098 0
404 468 -344 1099 0
66 364 -80 1100 0
142 238 -223 1101 0
-204 -357 480 1102 0
467 -428 395 1103 0
114 196 267 1104 0
31 -256 244 1105 0
8 65 328 1106 0
-190 -378 448 1107 0
-316 -201 -476 1108 0
-488 -91 -312 1109 0
-136 -289 442 1110 0
368 -167 -389 1111 0
-357 -328 167 1112 0
-393 177 345 1113 0
33 -59 106 1114 0
-347 299 198 1115 0
-481 121 137 1116 0
-155 -1 101 1117 0
187 381 159 1118 0
-123 -477 -19 1119 0
-14 466 -207 1120 0
481 186 -195 1121 0
414 -372 -262 1122 0
430 386 128 1123 0
86 -395 -196 1124 0
193 -361 65 1125 0
-247 100 69 1126 0
-381 487 -417 1127 0
-358 117 130 1128 0
96 356 -393 1129 0
113 -327 -12 1130 0
351 -220 160 1131 0
-468 176 -457 1132 0
-195 -92 -402 1133 0
-468 -422 -400 1134 0
-163 101 298 1135 0
-64 -483 166 1136 0
-358 133 63 1137 0
211 -268 158 1138 0
130 80 -402 1139 0
398 -89 290 1140 0
108 134 181 1141 0
207 -465 -326 1142 0
198 417 111 1143 0
233 303 406 1144 0
-264 -2 -267 1145 0
-458 74 340 1146 0
-261 360 -298 1147 0
472 -19 493 1148 0
342 -398 151 1149 0
200 427 129 1150 0
-428 -257 -69 1151 0
430 -246 313 1152 0
-267 -434 365 1153 0
448 316 -403 1154 0
128 9 -177 1155 0
-241 358 445 1156 0
-250 93 -21 1157 0
-410 -4 330 1158 0
367 -384 274 1159 0
385 177 427 1160 0
157 127 411 1161 0
-413 30 -279 1162 0
102 91 -159 1163 0
-277 -410 -98 1164 0
-396 -475 332 1165 0
191 -345 -104 1166 0
22 250 421 1167 0
-498 -38 210 1168 0
28 -427 -252 1169 0
202 54 -95 1170 0
-282 356 -328 1171 0
242 198 -440 1172 0
347 -380 335 1173 0
-380 214 132 1174 0
495 -365 336 1175 0
122 119 -484 1176 0
42 204 -363 1177 0
-306 475 424 1178 0
-357 -74 -239 1179 0
250 -267 359 1180 0
44 102 -294 1181 0
483 -388 -30 1182 0
313 -451 188 1183 0
-2 -160 -277 1184 0
-278 -490 158 1185 0
406 74 500 1186 0
344 240 24 1187 0
67 -326 124 1188 0
-187 -337 135 1189 0
-29 311 -26 1190 0
-180 227 -306 1191 0
-493 -445 -278 1192 0
-342 95 34 1193 0
12 -437 420 1194 0
185 -219 -25 1195 0
266 437 460 1196 0
85 334 379 1197 0
-474 -448 -45 1198 0
-212 -163 -474 1199 0
-393 177 448 1200 0
-255 61 -170 1201 0
-219 469 381 1202 0
-323 -348 309 1203 0
18 299 479 1204 0
-387 -108 448 1205 0
-191 -404 -26 1206 0
48 -261 36 1207 0
452 -466 399 1208 0
-192 -116 -379 1209 0
-276 46 -253 1210 0
-197 364 462 1211 0
365 -160 -159 1212 0
-289 486 -7 1213 0
-430 -426 -104 1214 0
-315 -41 -261 1215 0
-50 -478 -379 1216 0
-277 -344 239 1217 0
50 404 117 1218 0
165 -18 -2 1219 0
472 -495 326 1220 0
230 -181 203 1221 0
-233 156 290 1222 0
79 287 495 1223 0
228 -415 113 1224 0
464 -342 -40 1225 0
-84 -111 -42 1226 0
341 -424 453 1227 0
-41 -225 235 1228 0
35 372 225 1229 0
107 -178 -212 1230 0
265 453 463 1231 0
87 -329 -384 1232 0
339 -384 -377 1233 0
-494 462 159 1234 0
-235 187 128 1235 0
36 -132 -111 1236 0
402 66 457 1237 0
-203 -331 263 1238 0
294 -447 403 1239 0
-69 238 401 1240 0
130 188 -24 1241 0
-276 187 76 1242 0
262 157 104 1243 0
-136 275 -304 1244 0
-166 392 -21 1245 0
463 180 205 1246 0
-292 -325 -151 1247 0
422 22 114 1248 0
449 -324 463 1249 0
-446 441 70 1250 0
240 -245 -139 1251 0
467 -315 400 1252 0
243 -343 -116 1253 0
-478 221 -313 1254 0
-430 328 420 1255 0
-243 -280 -428 1256 0
327 -108 -416 1257 0
60 -114 262 1258 0
-435 -323 -7 1259 0
282 -476 -89 1260 0
-314 -334 -39 1261 0
55 356 430 1262 0
221 489 17 1263 0
-15 -239 -474 1264 0
149 -359 -30 1265 0
275 -447 283 1266 0
309 305 149 1267 0
122 -349 -238 1268 0
-273 298 -174 1269 0
224 -360 279 1270 0
375 -376 331 1271 0
-409 -488 -201 1272 0
426 98 -10 1273 0
335 258 248 1274 0
-47 264 151 1275 0
415 137 165 1276 0
-75 230 258 1277 0
153 98 -267 1278 0
-210 -448 -426 1279 0
-334 430 -490 1280 0
-176 370 -77 1281 0
232 448 -431 1282 0
156 -236 -217 1283 0
381 -426 359 1284 0
321 297 -362 1285 0
438 392 -119 1286 0
87 -231 -109 1287 0
74 -351 -381 1288 0
-298 412 -151 1289 0
469 47 -152 1290 0
329 -57 -142 1291 0
300 -177 117 1292 0
-211 228 -293 1293 0
-251 -91 294 1294 0
26 -64 -56 1295 0
52 -146 -233 1296 0
-251 267 -201 1297 0
-403 237 -62 1298 0
-134 -130 40 1299 0
-109 -29 -420 1300 0
-223 -207 379 1301 0
-150 -305 60 1302 0
-500 490 -264 1303 0
262 352 -64 1304 0
-477 103 493 1305 0
-302 -469 141 1306 0
47 322 420 1307 0
-286 129 -392 1308 0
230 -295 -340 1309 0
-400 150 297 1310 0
-196 -415 -38 1311 0
216 215 -282 1312 0
-51 -413 102 1313 0
478 464 -379 1314 0
153 -297 -50 1315 0
-365 287 -101 1316 0
-305 336 461 1317 0
171 494 -371 1318 0
-53 499 -49 1319 0
198 78 -112 1320 0
-323 354 -186 1321 0
-338 -297 332 1322 0
-160 235 406 1323 0
157 199 244 1324 0
222 -219 -186 1325 0
268 -117 -118 1326 0
295 -145 -473 1327 0
-123 94 -120 1328 0
293 -57 245 1329 0
105 57 -366 1330 0
-197 -426 106 1331 0
239 326 -219 1332 0
167 185 -305 1333 0
395 348 -116 1334 0
-69 279 -52 1335 0
-380 439 497 1336 0
-204 -350 -462 1337 0
280 289 45 1338 0
-316 477 -128 1339 0
-159 497 374 1340 0
-302 -288 254 1341 0
263 -281 -435 1342 0
312 -200 -125 1343 0
-373 -493 202 1344 0
-136 249 -3 1345 0
50 289 98 1346 0
-429 177 -452 1347 0
206 -284 405 1348 0
-232 -482 62 1349 0
-203 -57 455 1350 0
170 -55 -497 1351 0
-63 -296 421 1352 0
-131 -58 498 1353 0
-229 418 88 1354 0
-262 255 -343 1355 0
155 255 -333 1356 0
426 -279 -377 1357 0
-305 216 476 1358 0
-336 46 96 1359 0
438 452 345 1360 0
-139 -339 -400 1361 0
-271 237 279 1362 0
363 -78 56 1363 0
242 -476 -210 1364 0
-51 415 252 1365 0
-406 -359 -164 1366 0
-310 -317 144 1367 0
219 71 -265 1368 0
-18 73 338 1369 0
14 -142 465 1370 0
141 -406 -330 1371 0
418 284 97 1372 0
-287 -310 366 1373 0
63 411 -367 1374 0
-102 -350 -406 1375 0
303 -281 216 1376 0
185 -46 133 1377 0
367 -27 127 1378 0
-412 -129 -304 1379 0
422 30 349 1380 0
-170 -328 -10 1381 0
247 -154 133 1382 0
67 425 368 1383 0
264 -398 -172 1384 0
368 173 -72 1385 0
-41 341 221 1386 0
106 155 -146 1387 0
200 -85 -373 1388 0
-348 288 168 1389 0
286 266 127 1390 0
-176 132 267 1391 0
180 261 345 1392 0
-438 -107 -359 1393 0
-227 374 61 1394 0
-305 -346 415 1395 0
76 374 -468 1396 0
169 -131 413 1397 0
-260 -187 109 1398 0
-171 -168 458 1399 0
354 209 -392 1400 0
-322 113 132 1401 0
-476 255 -3 1402 0
-96 439 407 1403 0
-78 -405 -490 1404 0
-264 417 -231 1405 0
-499 230 -318 1406 0
45 -476 -483 1407 0
-275 -350 -98 1408 0
-265 92 -37 1409 0
-192 6 211 1410 0
364 5 -137 1411 0
35 -498 -52 1412 0
286 314 -185 1413 0
-491 -494 271 1414 0
312 -252 -127 1415 0
356 -42 135 1416 0
-131 -89 -317 1417 0
-200 145 158 1418 0
111 488 464 1419 0
350 -211 -423 1420 0
-258 -455 -139 1421 0
-368 -200 302 1422 0
-460 -96 201 1423 0
-39 -10 190 1424 0
399 388 294 1425 0
44 -288 -219 1426 0
170 340 -186 1427 0
-238 -491 -497 1428 0
-427 321 214 1429 0
-447 -19 127 1430 0
-471 285 -403 1431 0
-14 -365 333 1432 0
-99 -179 394 1433 0
-422 118 444 1434 0
-133 489 19 1435 0
83 -107 -331 1436 0
-284 80 -492 1437 0
321 497 -300 1438 0
-262 -329 449 1439 0
454 114 -117 1440 0
-479 40 -88 1441 0
-484 44 -357 1442 0
51 168 471 1443 0
-315 199 -175 1444 0
-376 402 -411 1445 0
-224 341 335 1446 0
-454 362 175 1447 0
151 133 -23 1448 0
466 397 -233 1449 0
32 400 401 1450 0
326 -17 -247 1451 0
-409 485 -370 1452 0
16 44 382 1453 0
-417 2 187 1454 0
142 -416 87 1455 0
-48 23 -121 1456 0
254 69 -141 1457 0
454 -449 230 1458 0
411 326 255 1459 0
184 354 -262 1460 0
248 56 -269 1461 0
241 -480 158 1462 0
183 -339 242 1463 0
95 320 -179 1464 0
-180 276 82 1465 0
467 340 128 1466 0
405 -440 -259 1467 0
279 -160 321 1468 0
-379 269 -55 1469 0
-454 450 -111 1470 0
-133 272 240 1471 0
100 -110 138 1472 0
-167 299 126 1473 0
-370 -358 373 1474 0
-368 469 -162 1475 0
153 251 479 1476 0
420 307 262 1477 0
357 -42 -275 1478 0
103 316 -117 1479 0
283 -67 236 1480 0
-227 -336 241 1481 0
-435 474 -233 1482 0
-182 -272 -414 1483 0
-453 -362 182 1484 0
-81 207 -110 1485 0
-100 -379 -420 1486 0
-227 232 -279 1487 0
172 82 158 1488 0
-183 -118 177 1489 0
162 78 267 1490 0
-150 -183 326 1491 0
90 57 -374 1492 0
1 -385 -41 1493 0
-160 -449 279 1494 0
353 78 469 1495 0
260 271 -75 1496 0
-190 -61 -424 1497 0
309 307 -265 1498 0
-369 -37 -361 1499 0
-497 -82 -26 1500 0
-29 144 -84 1501 0
-196 -259 276 1502 0
-242 -164 -362 1503 0
-262 -479 -100 1504 0
-275 -55 -441 1505 0
-335 -405 199 1506 0
-218 -255 -25 1507 0
-420 435 -444 1508 0
-5 -67 -210 1509 0
-450 488 -50 1510 0
-210 -294 -470 1511 0
388 464 -430 1512 0
9 -70 33 1513 0
351 9 -371 1514 0
463 83 436 1515 0
-280 41 -255 1516 0
-93 -47 -433 1517 0
-97 462 227 1518 0
-392 -35 -162 1519 0
-214 287 -229 1520 0
-173 201 204 1521 0
-454 221 253 1522 0
166 -418 310 1523 0
12 452 54 1524 0
-339 396 -259 1525 0
-240 352 -98 1526 0
113 419 -51 1527 0
-33 360 3 1528 0
-331 -4 68 1529 0
-235 429 369 1530 0
481 279 -479 1531 0
-423 -171 -199 1532 0
209 278 -94 1533 0
-169 1 -12 1534 0
56 -395 -475 1535 0
286 -251 -298 1536 0
163 -43 -450 1537 0
-16 153 29 1538 0
-390 -132 -450 1539 0
95 88 216 1540 0
373 -69 170 1541 0
-450 -388 -48 1542 0
486 344 -224 1543 0
-276 -473 311 1544 0
410 413 -254 1545 0
350 179 -157 1546 0
92 -372 -170 1547 0
445 318 160 1548 0
277 -199 433 1549 0
47 -37 421 1550 0
-99 -259 400 1551 0
-498 359 288 1552 0
-477 -216 -228 1553 0
304 -17 -146 1554 0
-368 5 411 1555 0
-424 54 104 1556 0
-90 -376 -233 1557 0
168 -206 495 1558 0
417 198 -427 1559 0
-299 25 -325 1560 0
-473 49 133 1561 0
-136 -9 -256 1562 0
-361 -144 -468 1563 0
-150 -364 255 1564 0
-18 -49 -90 1565 0
-156 -44 -74 1566 0
365 7 -65 1567 0
320 205 -385 1568 0
20 -11 466 1569 0
440 183 100 1570 0
-374 20 -118 1571 0
476 -50 30 1572 0
-24 -313 386 1573 0
-180 13 283 1574 0
-74 -220 185 1575 0
-405 387 195 1576 0
-97 164 144 1577 0
77 421 81 1578 0
477 108 324 1579 0
147 -256 -192 1580 0
392 446 -103 1581 0
-133 480 -295 1582 0
60 391 -83 1583 0
177 -83 124 1584 0
121 -204 -42 1585 0
112 166 248 1586 0
-132 387 -61 1587 0
-392 -367 -56 1588 0
399 -343 -53 1589 0
-311 -109 464 1590 0
252 -27 -358 1591 0
198 -499 -367 1592 0
461 378 322 1593 0
15 301 -343 1594 0
-18 -224 160 1595 0
-248 -332 421 1596 0
-240 196 186 1597 0
357 -397 -55 1598 0
158 -317 148 1599 0
-313 92 15 1600 0
-186 498 -387 1601 0
279 293 -381 1602 0
359 270 340 1603 0
203 -167 -269 1604 0
466 167 481 1605 0
-67 273 121 1606 0
128 35 230 1607 0
-251 149 493 1608 0
-129 487 181 1609 0
-421 -192 -233 1610 0
-260 -203 256 1611 0
-497 -292 -36 1612 0
-151 3 167 1613 0
-214 -397 16 1614 0
429 168 361 1615 0
-50 27 -456 1616 0
468 368 341 1617 0
-105 337 -276 1618 0
442 327 34 1619 0
34 -202 113 1620 0
400 17 -252 1621 0
-342 89 -339 1622 0
479 374 -411 1623 0
274 -361 43 1624 0
-129 371 -316 1625 0
329 -107 244 1626 0
-263 285 492 1627 0
417 -442 -100 1628 0
-208 -393 -247 1629 0
-277 408 -44 1630 0
241 -430 -26 1631 0
217 482 386 1632 0
-473 466 -36 1633 0
423 302 -391 1634 0
368 -310 -461 1635 0
36 -57 -30 1636 0
-185 -259 -468 1637 0
-298 103 324 1638 0
219 123 -486 1639 0
-478 23 383 1640 0
-474 -275 420 1641 0
51 -281 -314 1642 0
282 -481 466 1643 0
339 205 414 1644 0
-442 489 -108 1645 0
-16 -443 -12 1646 0
-8 473 -232 1647 0
-495 -325 -169 1648 0
480 -73 439 1649 0
-265 322 75 1650 0
181 258 -465 1651 0
-170 309 196 1652 0
-395 312 199 1653 0
-204 53 -161 1654 0
84 -157 487 1655 0
390 238 -9 1656 0
-48 133 -337 1657 0
100 -431 -130 1658 0
108 -44 20 1659 0
-338 -64 -299 1660 0
156 391 -288 1661 0
186 269 120 1662 0
142 470 -17 1663 0
237 -28 298 1664 0
164 -473 132 1665 0
-263 303 226 1666 0
148 340 287 1667 0
-467 -271 64 1668 0
-418 -84 212 1669 0
-3 -470 446 1670 0
-447 78 -147 1671 0
-81 -225 -107 1672 0
387 -391 -318 1673 0
-465 52 -246 1674 0
3 -155 -67 1675 0
-477 -342 -72 1676 0
-427 -250 354 1677 0
-123 -155 298 1678 0
-37 389 367 1679 0
-322 244 493 1680 0
378 -455 87 1681 0
172 -261 -51 1682 0
-375 483 -290 1683 0
291 -348 195 1684 0
-250 -258 35 1685 0
474 -123 -366 1686 0
399 227 493 1687 0
91 -113 -159 1688 0
-150 -16 355 1689 0
20 52 -6 1690 0
-68 333 -251 1691 0
-401 -318 -397 1692 0
215 -67 31 1693 0
269 -182 249 1694 0
-399 500 267 1695 0
147 358 128 1696 0
269 -140 -157 1697 0
418 295 445 1698 0
-205 168 37 1699 0
-234 180 -384 1700 0
-27 -272 223 1701 0
-338 199 -113 1702 0
-21 -290 -39 1703 0
463 309 -261 1704 0
-496 474 -334 1705 0
-208 -149 304 1706 0
150 -398 500 1707 0
377 -153 -21 1708 0
248 -226 263 1709 0
-321 -488 -36 1710 0
-463 218 450 1711 0
-312 -401 200 1712 0
205 -254 -103 1713 0
97 -235 -111 1714 0
-155 -285 77 1715 0
-347 85 99 1716 0
181 47 -32 1717 0
-76 260 -209 1718 0
-262 392 91 1719 0
-329 458 56 1720 0
-405 499 -456 1721 0
-164 -45 -24 1722 0
15 282 32 1723 0
453 463 123 1724 0
14 285 38 1725 0
-33 117 321 1726 0
-255 358 -243 1727 0
145 -27 -176 1728 0
283 254 -474 1729 0
-311 -326 -239 1730 0
-132 -34 -256 1731 0
388 89 -129 1732 0
-333 -12 -416 1733 0
305 146 -1 1734 0
-398 -11 447 1735 0
179 486 -268 1736 0
-227 -54 -118 1737 0
466 -30 -80 1738 0
-246 269 -455 1739 0
-301 -332 -102 1740 0
-14 -3 -210 1741 0
129 459 -355 1742 0
58 198 -14 1743 0
-84 -283 -49 1744 0
253 -152 -192 1745 0
-319 -395 -264 1746 0
-472 -17 -117 1747 0
-497 -217 -209 1748 0
-235 -43 110 1749 0
269 417 -467 1750 0
-340 -167 -248 1751 0
491 -444 90 1752 0
324 -411 37 1753 0
233 434 -316 1754 0
463 -208 -119 1755 0
-405 16 -103 1756 0
252 -228 123 1757 0
-366 17 -112 1758 0
-95 -416 312 1759 0
74 -282 -118 1760 0
192 73 -150 1761 0
32 -331 -470 1762 0
431 409 -303 1763 0
-366 -185 -165 1764 0
-489 -207 -392 1765 0
-27 -391 -326 1766 0
-256 -245 -435 1767 0
478 -65 457 1768 0
181 -265 132 1769 0
-434 467 -108 1770 0
-155 142 206 1771 0
466 -333 -177 1772 0
-136 -466 -147 1773 0
-152 -139 382 1774 0
-490 -143 306 1775 0
-363 -307 498 1776 0
-276 -360 235 1777 0
6 255 -378 1778 0
-43 54 293 1779 0
290 462 -331 1780 0
-6 -442 340 1781 0
-29 440 140 1782 0
-248 143 38 1783 0
116 155 -128 1784 0
-230 101 -289 1785 0
453 306 394 1786 0
463 -161 377 1787 0
-23 491 -90 1788 0
-305 -200 132 1789 0
77 -220 -71 1790 0
127 154 -413 1791 0
-244 -84 159 1792 0
-348 -298 125 1793 0
407 -175 213 1794 0
123 306 429 1795 0
-232 135 -471 1796 0
-97 -299 -15 1797 0
195 368 278 1798 0
-244 -458 90 1799 0
19 -310 154 1800 0
169 358 -417 1801 0
79 307 144 1802 0
204 -338 -221 1803 0
337 97 138 1804 0
-123 80 -43 1805 0
471 -37 109 1806 0
-136 26 -99 1807 0
-402 259 -144 1808 0
-248 -234 243 1809 0
-488 12 -313 1810 0
-239 -271 -156 1811 0
239 -33 -367 1812 0
-189 -343 475 1813 0
-246 -277 203 1814 0
37 -30 -124 1815 0
-397 182 -65 1816 0
433 -37 -253 1817 0
-492 55 -325 1818 0
452 -137 -495 1819 0
197 237 -92 1820 0
-450 111 135 1821 0
188 207 -88 1822 0
-304 -71 455 1823 0
68 -66 499 1824 0
-385 84 -104 1825 0
80 -69 166 1826 0
-366 410 -206 1827 0
8 218 -499 1828 0
258 381 -30 1829 0
-393 193 -211 1830 0
-368 149 -138 1831 0
-45 -215 223 1832 0
-121 418 -307 1833 0
-349 145 -237 1834 0
-19 58 77 1835 0
-153 -479 -277 1836 0
-402 -356 4 1837 0
-342 464 -389 1838 0
-62 179 -231 1839 0
139 -326 327 1840 0
257 -358 242 1841 0
146 -472 37 1842 0
379 -392 346 1843 0
301 -75 371 1844 0
-390 -207 95 1845 0
55 -460 320 1846 0
-394 -344 -387 1847 0
-166 50 -148 1848 0
493 296 55 1849 0
-225 71 -25 1850 0
-316 -69 426 1851 0
-74 38 376 1852 0
271 -183 357 1853 0
432 322 446 1854 0
151 388 382 1855 0
70 -169 -167 1856 0
-209 130 251 1857 0
47 -310 -407 1858 0
-110 309 -119 1859 0
63 -477 -429 1860 0
-228 353 -403 1861 0
241 237 -286 1862 0
-245 456 476 1863 0
199 432 -69 1864 0
158 -36 -308 1865 0
271 459 107 1866 0
187 448 -127 1867 0
-499 -467 -395 1868 0
75 469 -487 1869 0
-116 403 350 1870 0
-401 -325 361 1871 0
106 -464 363 1872 0
134 51 203 1873 0
-236 -353 -52 1874 0
-164 -396 71 1875 0
22 76 -149 1876 0
-27 309 64 1877 0
-199 -376 -408 1878 0
390 -48 228 1879 0
-196 -115 -333 1880 0
67 101 17 1881 0
490 -101 -206 1882 0
432 -192 206 1883 0
-437 -444 376 1884 0
-167 431 486 1885 0
136 191 -72 1886 0
1 410 124 1887 0
411 255 118 1888 0
75 -495 -494 1889 0
-332 170 -242 1890 0
455 -325 -9 1891 0
192 -15 -148 1892 0
334 86 327 1893 0
216 -400 -98 1894 0
-490 481 -66 1895 0
377 242 -294 1896 0
-461 190 -308 1897 0
-436 146 215 1898 0
-246 -233 -473 1899 0
463 -118 -77 1900 0
-284 404 -273 1901 0
-27 -222 -6 1902 0
82 305 -393 1903 0
13 -426 -344 1904 0
-154 -235 388 1905 0
61 -96 -131 1906 0
315 8 -64 1907 0
-247 -253 -131 1908 0
-53 -3 181 1909 0
20 -147 478 1910 0
-278 22 495 1911 0
418 -64 201 1912 0
-29 334 372 1913 0
-469 -468 279 1914 0
-185 -495 -338 1915 0
-436 -167 -100 1916 0
127 299 -426 1917 0
350 400 -150 1918 0
25 61 -469 1919 0
462 -274 -473 1920 0
-262 478 -392 1921 0
216 378 -206 1922 0
-75 -419 125 1923 0
-427 -257 -318 1924 0
-365 185 -258 1925 0
495 125 299 1926 0
90 191 390 1927 0
303 -396 -193 1928 0
241 -263 422 1929 0
-441 421 13 1930 0
166 -156 229 1931 0
226 422 -256 1932 0
-88 187 353 1933 0
-405 -133 -149 1934 0
245 -240 442 1935 0
-225 -296 -34 1936 0
-253 419 -296 1937 0
-316 48 372 1938 0
291 110 -411 1939 0
404 457 -237 1940 0
133 -290 -6 1941 0
-438 316 -215 1942 0
120 -347 -237 1943 0
-415 -488 407 1944 0
-130 315 289 1945 0
59 413 -205 1946 0
25 -153 -172 1947 0
427 -487 181 1948 0
114 100 -448 1949 0
-484 -122 -368 1950 0
387 -89 8 1951 0
309 399 451 1952 0
208 -88 -397 1953 0
41 450 -134 1954 0
-33 29 -69 1955 0
188 23 209 1956 0
-5 -254 -200 1957 0
418 93 317 1958 0
61 57 391 1959 0
-262 294 -272 1960 0
-396 -56 137 1961 0
422 354 177 1962 0
104 451 489 1963 0
61 463 52 1964 0
-265 -11 -381 1965 0
-388 -301 -97 1966 0
-69 -242 417 1967 0
456 -225 -295 1968 0
238 -73 -77 1969 0
-248 -108 -127 1970 0
-127 472 -164 1971 0
139 27 -156 1972 0
261 138 -102 1973 0
331 92 -410 1974 0
85 186 344 1975 0
-60 344 -346 1976 0
-93 -343 195 1977 0
-131 -154 211 1978 0
-421 74 278 1979 0
-113 43 -402 1980 0
25 -474 -44 1981 0
88 -404 -67 1982 0
-105 74 -115 1983 0
76 123 -26 1984 0
-349 -57 -111 1985 0
438 -252 -347 1986 0
-114 7 -109 1987 0
-413 -304 -130 1988 0
-189 -36 -218 1989 0
22 122 -77 1990 0
-71 88 -335 1991 0
-379 385 266 1992 0
-320 -112 430 1993 0
-109 410 -206 1994 0
-363 -308 209 1995 0
90 496 326 1996 0
277 -404 3 1997 0
409 -241 -224 1998 0
231 -353 313 1999 0
208 249 120 2000 0
123 -170 457 2001 0
-263 -395 -391 2002 0
-492 195 -156 2003 0
55 -185 -330 2004 0
336 178 116 2005 0
-137 -40 -23 2006 0
232 -262 73 2007 0
300 -301 -30 2008 0
119 -275 460 2009 0
-220 214 125 2010 0
195 17 -417 2011 0
448 374 -437 2012 0
-440 -290 342 2013 0
496 91 227 2014 0
204 490 -82 2015 0
-304 143 489 2016 0
-413 440 420 2017 0
-187 -373 324 2018 0
139 -460 76 2019 0
274 348 -412 2020 0
-155 115 159 2021 0
270 -121 -184 2022 0
108 -484 -139 2023 0
77 -142 289 2024 0
-159 29 7 2025 0
-146 -294 -311 2026 0
5 395 -397 2027 0
431 -284 298 2028 0
233 472 48 2029 0
159 -396 -312 2030 0
-63 -247 157 2031 0
22 -231 -256 2032 0
-366 228 -7 2033 0
-433 379 -213 2034 0
-199 -58 -247 2035 0
-56 94 214 2036 0
-215 243 193 2037 0
-222 -29 151 2038 0
201 -354 -81 2039 0
390 374 -375 2040 0
-471 -499 -261 2041 0
461 -203 -307 2042 0
258 -98 38 2043 0
-213 434 165 2044 0
366 12 -223 2045 0
-137 -205 -166 2046 0
70 -149 -327 2047 0
336 495 -26 2048 0
-49 135 429 2049 0
371 -66 361 2050 0
79 467 -304 2051 0
-100 -186 77 2052 0
468 443 -47 2053 0
312 -232 -100 2054 0
-72 -237 -173 2055 0
45 -145 -194 2056 0
-202 -478 7 2057 0
-413 332 357 2058 0
205 -132 -191 2059 0
-385 -405 -344 2060 0
-82 46 107 2061 0
-285 -168 131 2062 0
260 98 283 2063 0
-271 -236 -109 2064 0
65 -409 -152 2065 0
-379 -245 164 2066 0
226 -393 -121 2067 0
-481 -309 344 2068 0
-310 -58 133 2069 0
-196 -467 268 2070 0
-433 -174 -170 2071 0
-347 471 222 2072 0
57 -210 284 2073 0
133 -451 432 2074 0
-272 -368 426 2075 0
407 -336 -165 2076 0
272 -100 -48 2077 0
-294 -157 64 2078 0
-499 37 -1 2079 0
375 -445 -301 2080 0
-6 -201 451 2081 0
-226 218 -144 2082 0
-455 365 -85 2083 0
102 12 174 2084 0
309 -110 470 2085 0
123 -490 -234 2086 0
-340 -179 159 2087 0
-203 15 111 2088 0
128 -490 260 2089 0
-68 495 -264 2090 0
185 317 161 2091 0
-443 -333 60 2092 0
-152 -358 -395 2093 0
-319 -213 494 2094 0
-350 326 157 2095 0
-344 133 272 2096 0
-377 -454 236 2097 0
-121 241 412 2098 0
-313 -147 -102 2099 0
-20 175 -426 2100 0
-98 329 237 2101 0
25 229 -95 2102 0
-125 -328 55 2103 0
-35 -240 24 2104 0
230 112 166 2105 0
-432 -33 -183 2106 0
-70 393 33 2107 0
210 -345 204 2108 0
-27 379 125 2109 0
-477 -375 332 2110 0
41 -4 -139 2111 0
88 -95 -364 2112 0
227 -403 -328 2113 0
216 -201 -479 2114 0
-141 305 -260 2115 0
300 -421 -455 2116 0
-120 70 -336 2117 0
300 143 348 2118 0
-468 482 103 2119 0
-39 13 223 2120 0
120 -404 94 2121 0
-215 -447 350 2122 0
295 51 -209 2123 0
-299 -211 187 2124 0
425 483 -111 2125 0
-411 203 137 2126 0
-253 283 -72 2127 0
133 297 126 2128 0
-66 -425 -318 2129 0
-272 -473 185 2130 0
229 -235 -223 2131 0
-105 455 91 2132 0
454 262 -232 2133 0
490 -326 -196 2134 0
401 -150 -496 2135 0
282 -7 338 2136 0
-59 128 263 2137 0
-17 38 281 2138 0
-101 -78 350 2139 0
338 349 270 2140 0
438 43 -323 2141 0
-14 185 -371 2142 0
449 -40 318 2143 0
-35 104 -179 2144 0
-257 166 488 2145 0
29 234 -336 2146 0
-287 -288 145 2147 0
235 478 -215 2148 0
-353 -37 -185 2149 0
-336 -249 327 2150 0
-155 247 -459 2151 0
362 -43 -52 2152 0
-87 -149 -402 2153 0
-247 338 155 2154 0
85 332 -12 2155 0
-291 254 -290 2156 0
399 116 449 2157 0
-313 2 -255 2158 0
402 -170 436 2159 0
-451 -433 -147 2160 0
345 -276 -444 2161 0
388 33 22 2162 0
168 -483 260 2163 0
217 202 404 2164 0
-494 -377 -253 2165 0
270 132 -326 2166 0
391 171 44 2167 0
-342 -30 -73 2168 0
-78 -220 -69 2169 0
42 -149 -242 2170 0
271 298 374 2171 0
-355 262 307 2172 0
177 43 -103 2173 0
33 441 -148 2174 0
-237 301 -418 2175 0
169 219 450 2176 0
-110 -81 -458 2177 0
-191 138 476 2178 0
397 -409 -124 2179 0
404 -412 -462 2180 0
397 -484 313 2181 0
-91 -261 -411 2182 0
476 -495 91 2183 0
337 -486 -168 2184 0
304 -457 148 2185 0
447 155 -106 2186 0
-373 224 -46 2187 0
-208 300 9 2188 0
-335 -299 283 2189 0
-157 61 107 2190 0
-342 -325 -492 2191 0
186 127 452 2192 0
-349 -278 -224 2193 0
-320 394 -430 2194 0
-117 254 403 2195 0
-363 -467 -450 2196 0
255 327 -468 2197 0
-176 -46 417 2198 0
110 -257 278 2199 0
-29 -140 -304 2200 0
-216 -294 -421 2201 0
377 452 -488 2202 0
-33 -383 -28 2203 0
253 -84 325 2204 0
-296 248 498 2205 0
232 -440 -403 2206 0
-301 -188 353 2207 0
471 223 43 2208 0
-201 48 475 2209 0
262 139 -159 2210 0
-247 388 -237 2211 0
-91 458 -61 2212 0
-143 -469 40 2213 0
-424 111 123 2214 0
-323 -481 339 2215 0
-80 263 308 2216 0
-238 -20 66 2217 0
182 209 310 2218 0
223 -40 -38 2219 0
-316 -157 -9 2220 0
-365 -155 246 2221 0
157 -7 -425 2222 0
-285 -164 453 2223 0
-472 -285 382 2224 0
-12 349 139 2225 0
-318 359 -33 2226 0
-280 181 -344 2227 0
292 -425 384 2228 0
-172 -455 -426 2229 0
342 22 -410 2230 0
376 -122 -70 2231 0
-2 250 51 2232 0
253 195 315 2233 0
-452 407 271 2234 0
172 -74 -127 2235 0
-474 95 5 2236 0
-118 -78 -144 2237 0
357 -397 292 2238 0
-456 303 -182 2239 0
-6 -475 258 2240 0
-360 -475 -415 2241 0
95 98 -418 2242 0
191 -298 33 2243 0
471 243 -469 2244 0
-459 -333 -135 2245 0
401 339 -402 2246 0
149 98 339 2247 0
272 443 -379 2248 0
129 496 -322 2249 0
-355 -63 -237 2250 0
66 300 146 2251 0
149 1 -296 2252 0
-331 44 -94 2253 0
259 182 -49 2254 0
222 -187 -413 2255 0
58 121 -269 2256 0
-405 -76 36 2257 0
-446 60 -16 2258 0
191 -349 181 2259 0
195 58 203 2260 0
91 -347 200 2261 0
-413 247 -237 2262 0
421 290 386 2263 0
-458 -14 246 2264 0
476 -388 -68 2265 0
88 318 201 2266 0
340 -119 -30 2267 0
105 -287 -99 2268 0
-461 -55 40 2269 0
24 419 470 2270 0
35 -188 16 2271 0
435 412 -123 2272 0
206 247 9 2273 0
187 -2 -228 2274 0
-222 155 263 2275 0
270 -141 123 2276 0
-134 146 -346 2277 0
320 -311 445 2278 0
-233 334 -183 2279 0
474 72 -389 2280 0
-322 365 196 2281 0
275 -186 -210 2282 0
494 -496 384 2283 0
448 -135 -453 2284 0
-85 44 -298 2285 0
142 351 -95 2286 0
279 423 126 2287 0
385 294 -147 2288 0
414 -472 -397 2289 0
-144 470 -303 2290 0
236 10 269 2291 0
220 12 304 2292 0
327 31 308 2293 0
155 -257 363 2294 0
-192 -124 20 2295 0
-58 55 -304 2296 0
-345 1 -108 2297 0
435 338 -164 2298 0
-278 236 375 2299 0
490 326 220 2300 0
-224 176 298 2301 0
-271 132 293 2302 0
256 -97 -319 2303 0
-244 220 154 2304 0
328 -264 248 2305 0
-407 -472 -364 2306 0
415 386 -75 2307 0
-171 183 -359 2308 0
456 -218 201 2309 0
-219 21 34 2310 0
69 -405 438 2311 0
45 279 -56 2312 0
269 21 -296 2313 0
-151 447 182 2314 0
470 -275 -416 2315 0
-381 -445 219 2316 0
-473 -239 -406 2317 0
-382 401 -280 2318 0
52 174 98 2319 0
138 38 -90 2320 0
-470 -162 354 2321 0
-330 167 -117 2322 0
103 -375 492 2323 0
57 -487 7 2324 0
-390 467 361 2325 0
-161 231 418 2326 0
-298 146 425 2327 0
77 -360 171 2328 0
206 86 -131 2329 0
-261 350 469 2330 0
254 228 326 2331 0
-447 -232 410 2332 0
420 293 -109 2333 0
138 360 40 2334 0
-192 -30 -145 2335 0
150 -256 129 2336 0
-10 457 -22 2337 0
-452 359 -373 2338 0
-411 -216 -499 2339 0
268 -59 -478 2340 0
-461 -96 481 2341 0
-496 -9 260 2342 0
143 35 -30 2343 0
-140 -101 108 2344 0
-311 -126 394 2345 0
477 -125 86 2346 0
-161 -171 122 2347 0
469 -351 -123 2348 0
122 -471 -362 2349 0
-115 371 -63 2350 0
491 379 -225 2351 0
-454 390 314 2352 0
-13 -401 41 2353 0
324 -263 145 2354 0
266 214 206 2355 0
414 278 -138 2356 0
-340 -382 85 2357 0
-284 42 -292 2358 0
-244 -181 -125 2359 0
-88 443 66 2360 0
-54 -423 373 2361 0
-297 -285 266 2362 0
91 33 -60 2363 0
183 294 70 2364 0
156 -122 218 2365 0
237 398 -331 2366 0
-102 258 122 2367 0
398 -333 334 2368 0
357 386 57 2369 0
335 -357 205 2370 0
55 -374 -500 2371 0
88 -472 157 2372 0
-50 -473 -210 2373 0
-132 112 -356 2374 0
242 391 -156 2375 0
-214 -114 -383 2376 0
32 142 -461 2377 0
-438 499 104 2378 0
-33 -66 -17 2379 0
415 -346 321 2380 0
400 -234 101 2381 0
-129 -117 183 2382 0
492 -49 497 2383 0
-486 -277 -87 2384 0
-305 239 -207 2385 0
-171 -138 279 2386 0
381 306 -366 2387 0
332 407 344 2388 0
167 -406 -482 2389 0
-89 364 13 2390 0
16 -102 229 2391 0
-471 122 468 2392 0
-318 392 -342 2393 0
92 102 103 2394 0
-148 476 203 2395 0
-206 -88 167 2396 0
482 265 32 2397 0
130 -38 81 2398 0
-415 -142 -370 2399 0
162 -406 382 2400 0
-155 -300 97 2401 0
-272 -430 -62 2402 0
-424 -445 246 2403 0
-136 129 449 2404 0
-154 -233 -280 2405 0
7 79 127 2406 0
-441 -119 380 2407 0
102 -335 200 2408 0
-310 385 138 2409 0
318 199 223 2410 0
212 440 276 2411 0
40 64 -452 2412 0
-37 -103 -218 2413 0
261 -283 -390 2414 0
-413 422 405 2415 0
488 331 -117 2416 0
69 -28 -82 2417 0
283 -161 67 2418 0
14 343 -11 2419 0
138 -223 -94 2420 0
-242 401 13 2421 0
185 365 -469 2422 0
-403 -254 211 2423 0
211 147 -449 2424 0
431 -301 -62 2425 0
-120 230 26 2426 0
-362 389 -353 2427 0
-336 392 87 2428 0
-93 -449 -277 2429 0
94 98 261 2430 0
485 55 397 2431 0
78 475 369 2432 0
194 -63 -37 2433 0
-218 -463 370 2434 0
214 484 -370 2435 0
295 18 234 2436 0
-384 -445 -94 2437 0
-58 59 -249 2438 0
-89 -325 -137 2439 0
-484 -168 476 2440 0
260 410 -37 2441 0
-368 260 -327 2442 0
-413 -21 -272 2443 0
19 -451 -46 2444 0
-125 -319 281 2445 0
388 -16 -25 2446 0
267 -33 234 2447 0
417 -50 -288 2448 0
118 -342 -453 2449 0
-489 -447 -125 2450 0
484 459 -304 2451 0
-466 -215 -276 2452 0
292 393 -238 2453 0
451 419 29 2454 0
-206 96 -426 2455 0
-393 182 -407 2456 0
358 -430 261 2457 0
25 370 -70 2458 0
-178 -371 -74 2459 0
-72 -148 -337 2460 0
277 384 188 2461 0
-211 155 -243 2462 0
-40 187 -115 2463 0
417 -152 -179 2464 0
-424 331 70 2465 0
40 320 -474 2466 0
-136 196 -254 2467 0
486 -45 47 2468 0
-461 -136 -141 2469 0
176 -306 -274 2470 0
-26 360 -379 2471 0
-465 224 -394 2472 0
446 37 258 2473 0
405 -23 387 2474 0
-226 276 -254 2475 0
76 471 438 2476 0
430 326 -7 2477 0
-156 323 122 2478 0
-478 2 156 2479 0
-415 -473 -277 2480 0
459 -128 -80 2481 0
416 -136 -473 2482 0
331 -61 -51 2483 0
426 393 261 2484 0
-494 414 -210 2485 0
-44 485 -483 2486 0
308 321 -298 2487 0
-287 55 304 2488 0
388 -323 480 2489 0
-400 33 -293 2490 0
160 -184 -349 2491 0
468 -438 436 2492 0
342 -161 154 2493 0
-233 253 -407 2494 0
-12 279 -261 2495 0
-308 130 -437 2496 0
-1 -261 -6 2497 0
-69 218 -354 2498 0
213 -111 -186 2499 0
431 -268 39 2500 0
131 -105 -9 2501 0
-341 172 -376 2502 0
443 -408 119 2503 0
290 232 41 2504 0
341 78 -57 2505 0
249 -429 86 2506 0
388 363 -380 2507 0
-438 77 215 2508 0
-226 445 -228 2509 0
-452 -491 72 2510 0
-324 -314 347 2511 0
475 -200 -9 2512 0
237 46 -430 2513 0
438 -347 -499 2514 0
415 498 306 2515 0
-248 -344 -398 2516 0
-68 143 98 2517 0
210 -184 -227 2518 0
158 422 234 2519 0
55 -445 168 2520 0
-438 313 216 2521 0
202 -235 286 2522 0
-432 -125 -91 2523 0
-483 -95 203 2524 0
-196 34 -255 2525 0
36 -191 147 2526 0
-276 -468 -331 2527 0
-337 -22 424 2528 0
-412 271 263 2529 0
-374 185 72 2530 0
-369 310 178 2531 0
-390 368 -133 2532 0
130 -105 287 2533 0
182 -291 67 2534 0
-169 56 372 2535 0
75 -183 -70 2536 0
482 -478 -318 2537 0
416 189 476 2538 0
410 15 122 2539 0
58 390 -403 2540 0
182 326 294 2541 0
204 388 324 2542 0
246 18 184 2543 0
-410 -230 7 2544 0
131 419 -200 2545 0
-476 -491 474 2546 0
317 -474 239 2547 0
-296 -275 427 2548 0
-132 457 -282 2549 0
276 -212 443 2550 0
-28 156 344 2551 0
-57 -266 -84 2552 0
-281 -437 350 2553 0
-80 -170 166 2554 0
-252 -205 -293 2555 0
-500 -53 -46 2556 0
283 -376 -461 2557 0
-127 483 253 2558 0
-466 -84 -448 2559 0
-27 -49 98 2560 0
483 365 -5 2561 0
43 -165 -356 2562 0
459 -422 -371 2563 0
361 -423 -160 2564 0
388 -479 -296 2565 0
286 69 -314 2566 0
84 -460 455 2567 0
38 179 214 2568 0
208 -238 -93 2569 0
315 -4 -360 2570 0
381 376 -201 2571 0
305 406 290 2572 0
49 -194 7 2573 0
-133 -420 -454 2574 0
-255 118 -136 2575 0
-500 427 243 2576 0
-45 408 499 2577 0
16 -477 -151 2578 0
-129 261 330 2579 0
385 354 98 2580 0
430 -475 73 2581 0
-385 456 -382 2582 0
-474 -383 35 2583 0
-295 421 278 2584 0
362 288 263 2585 0
219 -459 -410 2586 0
-62 131 337 2587 0
363 41 121 2588 0
-461 500 -498 2589 0
-237 -446 -181 2590 0
108 -22 -289 2591 0
181 220 -480 2592 0
467 340 -362 2593 0
414 -165 -269 2594 0
-272 -395 37 2595 0
-160 -158 -73 2596 0
-352 62 322 2597 0
-372 -437 445 2598 0
-363 162 15 2599 0
-408 334 480 2600 0
105 -288 248 2601 0
-187 45 454 2602 0
177 -303 122 2603 0
420 72 37 2604 0
-470 15 108 2605 0
234 402 -335 2606 0
-40 -321 127 2607 0
100 356 -31 2608 0
320 -67 -122 2609 0
-33 461 409 2610 0
-483 455 -268 2611 0
-273 -60 -500 2612 0
474 -49 220 2613 0
222 396 354 2614 0
-222 406 -69 2615 0
50 76 482 2616 0
-48 -119 -70 2617 0
308 -31 -45 2618 0
220 -162 108 2619 0
-401 -340 326 2620 0
431 -78 5 2621 0
314 109 -252 2622 0
-335 -42 -267 2623 0
-182 154 366 2624 0
-314 -147 86 2625 0
-320 98 432 2626 0
-344 -259 471 2627 0
-368 177 112 2628 0
-89 326 -456 2629 0
17 289 338 2630 0
-350 -200 -95 2631 0
-339 412 292 2632 0
445 -100 271 2633 0
223 489 163 2634 0
-133 -298 -82 2635 0
49 -262 -490 2636 0
-433 -138 151 2637 0
-243 -137 48 2638 0
378 -222 291 2639 0
-497 -52 167 2640 0
151 306 -116 2641 0
423 -53 -428 2642 0
-290 -489 22 2643 0
368 475 -180 2644 0
399 -284 174 2645 0
-488 -475 437 2646 0
142 370 55 2647 0
92 -227 267 2648 0
66 481 -161 2649 0
-26 177 322 2650 0
