p cnf 2650 2150
-196 -31 81 501 0
-435 62 -84 502 0
-137 244 106 503 0
146 360 -84 504 0
-460 -179 -64 505 0
428 -419 -302 506 0
-355 384 405 507 0
-368 72 -161 508 0
-237 -479 -412 509 0
-260 202 161 510 0
-426 55 408 511 0
-150 -149 48 512 0
-458 218 270 513 0
-101 459 61 514 0
228 -158 -217 515 0
-225 -257 -455 516 0
52 405 -163 517 0
42 -85 484 518 0
-214 229 -469 519 0
-152 495 -407 520 0
178 -483 393 521 0
-152 -70 229 522 0
-418 -183 123 523 0
167 265 -251 524 0
289 -13 -58 525 0
-185 -458 388 526 0
371 381 -294 527 0
238 -344 25 528 0
-44 -491 -38 529 0
233 -148 -5 530 0
16 439 -422 531 0
36 -379 113 532 0
389 -81 254 533 0
180 -39 257 534 0
-47 -183 164 535 0
124 363 -438 536 0
-98 345 -146 537 0
246 74 -342 538 0
5 405 394 539 0
-337 -486 -6 540 0
106 52 -425 541 0
494 -303 -342 542 0
335 197 -112 543 0
9 346 -485 544 0
413 -37 326 545 0
-471 317 -401 546 0
317 -216 254 547 0
439 285 489 548 0
-343 -78 493 549 0
416 276 254 550 0
389 435 -181 551 0
302 -350 365 552 0
319 55 -136 553 0
-211 182 -326 554 0
-377 -40 244 555 0
-216 65 276 556 0
294 500 -383 557 0
109 380 210 558 0
-234 -401 310 559 0
-6 454 -356 560 0
-210 37 -276 561 0
314 -352 399 562 0
316 -184 -405 563 0
192 -152 114 564 0
460 190 -401 565 0
143 212 -29 566 0
471 -408 -39 567 0
203 143 -18 568 0
308 -31 342 569 0
-152 -336 57 570 0
159 70 -337 571 0
-413 462 312 572 0
456 -458 422 573 0
-31 36 -14 574 0
-27 370 -125 575 0
367 -96 237 576 0
306 -232 -223 577 0
43 -223 -299 578 0
-398 369 -402 579 0
-425 -456 -420 580 0
-95 -75 294 581 0
-142 436 -373 582 0
-445 114 261 583 0
-427 54 378 584 0
332 -402 160 585 0
-240 -352 422 586 0
-277 -229 -334 587 0
180 96 -97 588 0
-73 384 97 589 0
278 -380 -240 590 0
208 -385 -463 591 0
410 121 -234 592 0
-340 -256 -131 593 0
350 -103 417 594 0
259 -476 -393 595 0
283 -294 -147 596 0
-257 -283 396 597 0
267 88 -499 598 0
-405 -474 462 599 0
-67 -175 71 600 0
32 -451 202 601 0
-208 -250 -411 602 0
176 237 -193 603 0
-169 -68 36 604 0
-481 -201 -6 605 0
413 239 -74 606 0
368 -103 -214 607 0
-97 420 448 608 0
-464 -343 -269 609 0
426 456 402 610 0
-27 265 327 611 0
-181 -60 -83 612 0
-2 220 130 613 0
-217 472 405 614 0
-92 350 -369 615 0
-129 7 181 616 0
79 -402 238 617 0
98 381 412 618 0
-302 95 52 619 0
-458 408 -44 620 0
411 393 292 621 0
310 -214 385 622 0
-266 -497 93 623 0
499 -82 106 624 0
-336 232 -192 625 0
-348 -141 37 626 0
354 6 428 627 0
-82 459 -194 628 0
166 -337 432 629 0
416 298 -126 630 0
189 108 494 631 0
392 -336 -499 632 0
317 -260 152 633 0
400 360 169 634 0
-192 206 -377 635 0
-357 21 226 636 0
-149 -57 190 637 0
201 -3 -249 638 0
-476 178 -204 639 0
-255 48 -471 640 0
393 -370 -253 641 0
-130 -100 178 642 0
296 -387 -138 643 0
-129 -26 -175 644 0
-209 411 -277 645 0
8 7 163 646 0
340 -182 -77 647 0
-386 472 -436 648 0
142 212 -161 649 0
-1 -197 236 650 0
-246 -197 382 651 0
399 -59 -263 652 0
498 279 -458 653 0
375 -273 323 654 0
-37 172 -71 655 0
-228 489 400 656 0
-283 332 317 657 0
-358 -485 281 658 0
246 -90 253 659 0
-80 -186 -99 660 0
-398 59 431 661 0
415 333 -399 662 0
5 -392 248 663 0
110 130 189 664 0
381 95 -435 665 0
342 11 -198 666 0
-162 60 204 667 0
282 -225 471 668 0
243 -299 132 669 0
280 -67 -118 670 0
404 -17 150 671 0
-454 389 476 672 0
383 191 -66 673 0
94 407 15 674 0
194 -225 -26 675 0
-79 -4 84 676 0
371 229 6 677 0
403 6 -46 678 0
10 -186 110 679 0
-343 -215 292 680 0
104 -35 -188 681 0
-396 4 -333 682 0
342 56 482 683 0
468 -141 -211 684 0
-272 254 -203 685 0
-106 444 130 686 0
-4 63 342 687 0
-391 -330 -497 688 0
-5 11 107 689 0
-310 415 -328 690 0
-165 -420 -285 691 0
170 -311 266 692 0
398 38 164 693 0
-283 139 382 694 0
-419 -28 -263 695 0
-192 -149 160 696 0
197 409 -393 697 0
227 -233 162 698 0
-109 274 -144 699 0
-288 73 -47 700 0
-436 440 -280 701 0
120 280 -386 702 0
-347 -322 457 703 0
320 346 26 704 0
480 -66 342 705 0
407 -356 329 706 0
157 -357 401 707 0
218 447 -362 708 0
216 -450 7 709 0
186 8 219 710 0
-325 -380 -252 711 0
-447 349 423 712 0
450 201 -289 713 0
-274 -20 -209 714 0
-121 -206 309 715 0
56 300 -44 716 0
165 -299 334 717 0
-149 266 -197 718 0
-274 -466 -378 719 0
-270 -3 101 720 0
382 258 490 721 0
-344 373 137 722 0
320 119 -4 723 0
305 -408 -104 724 0
-245 -316 -332 725 0
369 -59 -224 726 0
110 -490 -96 727 0
-109 -373 -229 728 0
337 -70 19 729 0
-474 382 -316 730 0
364 -154 141 731 0
-291 -474 -411 732 0
-405 -370 474 733 0
-452 -161 -249 734 0
104 145 440 735 0
-359 414 -220 736 0
-65 419 310 737 0
-62 236 166 738 0
-333 -315 -168 739 0
-113 -325 78 740 0
496 348 -19 741 0
-373 474 -342 742 0
179 221 201 743 0
97 183 439 744 0
275 107 -46 745 0
-35 -274 74 746 0
-384 246 -221 747 0
368 142 -278 748 0
-78 320 -16 749 0
277 331 268 750 0
-167 427 -53 751 0
33 385 482 752 0
379 -231 -259 753 0
60 -280 -354 754 0
-23 -271 448 755 0
-463 -407 185 756 0
-495 -159 317 757 0
-427 252 -461 758 0
-478 -105 -180 759 0
-324 267 44 760 0
121 -418 405 761 0
-381 -150 376 762 0
156 169 33 763 0
355 -220 447 764 0
-274 -142 144 765 0
484 -340 -453 766 0
268 140 -376 767 0
184 -366 -414 768 0
-444 72 106 769 0
462 -292 478 770 0
379 -446 131 771 0
121 -457 146 772 0
-300 -186 -444 773 0
426 447 120 774 0
333 -131 195 775 0
-338 -57 -363 776 0
-426 109 100 777 0
367 69 -182 778 0
332 -193 -175 779 0
63 436 -7 780 0
-212 162 26 781 0
123 -437 -98 782 0
-373 -138 52 783 0
-95 -167 418 784 0
-160 -158 -42 785 0
154 302 78 786 0
378 15 -7 787 0
-399 340 -363 788 0
305 395 310 789 0
200 -444 -281 790 0
-154 65 -18 791 0
-361 -485 -350 792 0
-254 -13 485 793 0
45 353 103 794 0
-374 -422 -335 795 0
265 -30 -435 796 0
-382 54 211 797 0
-18 40 359 798 0
387 -117 339 799 0
-280 -73 255 800 0
337 -386 120 801 0
352 97 61 802 0
-266 -235 305 803 0
-380 -329 -482 804 0
156 341 342 805 0
-489 372 -403 806 0
-320 175 254 807 0
-196 -410 17 808 0
448 118 367 809 0
-254 387 -139 810 0
408 -249 -41 811 0
295 -438 -34 812 0
443 -493 -481 813 0
48 -469 378 814 0
-341 92 -475 815 0
283 478 -24 816 0
-412 144 23 817 0
-378 390 353 818 0
55 271 332 819 0
-389 82 -455 820 0
-262 337 357 821 0
314 -363 -230 822 0
74 -464 107 823 0
422 -1 -404 824 0
-64 -413 -164 825 0
-133 -351 495 826 0
-362 3 -92 827 0
216 29 -424 828 0
-482 -191 -254 829 0
387 15 -340 830 0
366 -181 259 831 0
-310 -22 -323 832 0
51 34 -390 833 0
-78 427 461 834 0
160 -77 -230 835 0
150 157 205 836 0
-279 128 311 837 0
-147 -185 271 838 0
52 -68 -395 839 0
-270 -126 242 840 0
472 -180 166 841 0
-223 34 -300 842 0
287 451 365 843 0
-56 399 -246 844 0
-393 308 35 845 0
-127 -372 461 846 0
-151 -245 179 847 0
387 297 -375 848 0
-72 150 -285 849 0
349 45 -158 850 0
-17 457 276 851 0
370 -473 -102 852 0
-227 337 43 853 0
49 286 -454 854 0
-281 110 120 855 0
-8 -302 314 856 0
-50 -317 -163 857 0
316 23 -22 858 0
87 391 79 859 0
426 -138 -219 860 0
384 259 479 861 0
488 -475 -455 862 0
203 394 -29 863 0
-424 -232 -54 864 0
-395 381 171 865 0
-175 -321 393 866 0
5 354 -322 867 0
33 330 98 868 0
-44 -82 -90 869 0
-465 214 -238 870 0
-144 -436 287 871 0
-367 212 45 872 0
388 380 -186 873 0
492 254 417 874 0
-349 52 256 875 0
157 -100 284 876 0
-57 -221 436 877 0
-315 301 500 878 0
263 467 -266 879 0
-108 -188 -147 880 0
-93 -368 383 881 0
-212 473 176 882 0
418 -162 -334 883 0
15 -243 5 884 0
124 -198 -250 885 0
-271 9 118 886 0
35 -154 122 887 0
70 30 95 888 0
-363 -143 324 889 0
-402 76 -166 890 0
356 -235 344 891 0
-210 359 -302 892 0
228 -356 97 893 0
-477 -449 199 894 0
-311 73 -186 895 0
310 112 390 896 0
-187 423 -150 897 0
20 -309 -145 898 0
384 364 6 899 0
144 349 328 900 0
71 -78 -433 901 0
-421 93 168 902 0
18 398 274 903 0
-17 213 -491 904 0
-169 -59 436 905 0
-486 -106 -41 906 0
314 -210 244 907 0
481 61 107 908 0
-125 313 -104 909 0
-131 -323 75 910 0
-410 283 74 911 0
-24 -146 -200 912 0
90 66 -171 913 0
-15 -365 125 914 0
355 221 493 915 0
188 -187 -292 916 0
-221 -270 461 917 0
445 -132 321 918 0
85 -103 -166 919 0
-160 -292 400 920 0
365 211 -142 921 0
291 -285 451 922 0
-260 202 463 923 0
16 386 283 924 0
-228 -202 -119 925 0
261 -267 321 926 0
-312 -330 484 927 0
-173 88 275 928 0
-344 77 164 929 0
-214 -260 -352 930 0
-200 -454 424 931 0
-324 178 -414 932 0
374 490 -148 933 0
408 382 -462 934 0
267 39 -403 935 0
411 241 87 936 0
-112 162 -20 937 0
-240 471 496 938 0
440 343 134 939 0
123 397 -351 940 0
342 102 -474 941 0
-82 -463 -389 942 0
127 10 -468 943 0
-422 377 -9 944 0
387 21 -476 945 0
377 337 486 946 0
470 -336 197 947 0
85 -82 370 948 0
-329 93 -315 949 0
138 -414 461 950 0
376 29 -473 951 0
251 124 -258 952 0
356 -261 -80 953 0
471 500 -342 954 0
454 235 -320 955 0
350 -312 79 956 0
-101 -100 405 957 0
36 197 -21 958 0
157 -68 482 959 0
-218 -215 -147 960 0
-214 389 208 961 0
-21 -429 6 962 0
-347 -478 386 963 0
-17 259 -38 964 0
261 -369 -167 965 0
-403 -101 89 966 0
461 153 -382 967 0
29 123 -165 968 0
432 288 152 969 0
-289 237 169 970 0
366 -255 354 971 0
-203 -427 -244 972 0
185 178 344 973 0
-297 124 262 974 0
-401 -86 -495 975 0
-40 -138 277 976 0
213 -458 -21 977 0
-351 98 -15 978 0
-153 -421 -354 979 0
168 -10 18 980 0
-261 220 -164 981 0
-421 -53 -133 982 0
-294 -314 -262 983 0
-87 -272 100 984 0
-170 -386 301 985 0
-386 135 413 986 0
-362 -72 -168 987 0
239 -299 112 988 0
74 500 -469 989 0
406 254 105 990 0
200 159 -380 991 0
-486 -235 -244 992 0
262 -325 278 993 0
61 -240 -288 994 0
-59 126 -457 995 0
-209 -240 -429 996 0
246 -224 -393 997 0
-385 382 -444 998 0
241 204 -90 999 0
-234 -346 -85 1000 0
-11 -370 326 1001 0
405 -133 -246 1002 0
-238 470 -207 1003 0
310 -46 -171 1004 0
-317 290 -58 1005 0
130 -279 -395 1006 0
244 -34 -99 1007 0
268 -431 75 1008 0
-184 -109 339 1009 0
-101 -182 -138 1010 0
330 132 -398 1011 0
450 -256 -21 1012 0
373 21 -401 1013 0
-391 234 78 1014 0
-256 -371 72 1015 0
-290 -249 -139 1016 0
498 -17 -286 1017 0
269 -41 115 1018 0
437 294 150 1019 0
-431 -8 294 1020 0
74 -447 -5 1021 0
118 -476 479 1022 0
219 -413 -450 1023 0
126 441 261 1024 0
-187 99 54 1025 0
-344 46 -484 1026 0
-316 93 324 1027 0
197 -105 491 1028 0
122 398 -144 1029 0
-2 216 158 1030 0
-301 361 50 1031 0
-384 34 -305 1032 0
-323 441 189 1033 0
363 -184 91 1034 0
226 64 -178 1035 0
-421 212 -301 1036 0
-136 202 237 1037 0
172 -74 460 1038 0
226 318 403 1039 0
112 -252 -319 1040 0
-356 448 -55 1041 0
-255 415 -169 1042 0
256 196 -166 1043 0
304 -89 -389 1044 0
-435 -292 326 1045 0
-132 491 -62 1046 0
-29 -119 -363 1047 0
-348 -116 -422 1048 0
-162 181 218 1049 0
-294 341 376 1050 0
211 237 -151 1051 0
232 160 -484 1052 0
126 -174 -93 1053 0
-252 -50 -110 1054 0
-320 -71 37 1055 0
67 -79 361 1056 0
76 432 376 1057 0
495 -382 -326 1058 0
10 -255 -387 1059 0
-258 -496 -489 1060 0
484 -235 370 1061 0
367 214 431 1062 0
380 -414 -364 1063 0
41 -46 -166 1064 0
296 -404 142 1065 0
-366 432 -23 1066 0
237 -203 -52 1067 0
-414 137 53 1068 0
-214 -115 28 1069 0
-51 -446 -494 1070 0
-314 48 -158 1071 0
-65 -181 -162 1072 0
226 -100 -184 1073 0
235 289 374 1074 0
-370 -69 82 1075 0
47 -194 -197 1076 0
346 315 -168 1077 0
272 146 -352 1078 0
-246 -415 -46 1079 0
-83 -422 493 1080 0
-271 199 -21 1081 0
-236 156 -352 1082 0
256 304 160 1083 0
222 -499 414 1084 0
-251 104 -499 1085 0
225 -340 13 1086 0
168 -157 -192 1087 0
341 -304 -186 1088 0
-89 -496 -460 1089 0
481 -79 53 1090 0
271 242 164 1091 0
41 158 -409 1092 0
431 330 232 1093 0
176 254 -40 1094 0
-291 -419 -31 1095 0
-126 -261 -404 1096 0
-356 -402 32 1097 0
-116 -385 -141 1098 0
156 -459 -335 1099 0
338 -272 -44 1100 0
99 -260 -27 1101 0
153 -426 351 1102 0
-242 -304 250 1103 0
-15 382 -158 1104 0
451 193 495 1105 0
-127 -288 -202 1106 0
386 -143 -268 1107 0
303 -121 -317 1108 0
341 -104 -107 1109 0
-93 -288 52 1110 0
-496 30 447 1111 0
-182 -142 402 1112 0
120 238 372 1113 0
426 240 137 1114 0
422 105 279 1115 0
408 455 58 1116 0
-464 -331 290 1117 0
419 -377 -179 1118 0
-495 -296 295 1119 0
-22 267 484 1120 0
399 293 -253 1121 0
-78 359 -99 1122 0
280 472 -369 1123 0
-461 -226 -469 1124 0
187 -244 -143 1125 0
146 479 -430 1126 0
-103 275 -220 1127 0
-132 -249 383 1128 0
254 253 148 1129 0
-141 41 -376 1130 0
-414 -174 -345 1131 0
226 -240 -11 1132 0
-394 379 -21 1133 0
-450 -364 238 1134 0
23 89 -239 1135 0
-345 424 303 1136 0
289 -51 125 1137 0
59 -25 -368 1138 0
20 352 -37 1139 0
-293 -351 -500 1140 0
-380 -426 -255 1141 0
40 151 -444 1142 0
-70 -394 -467 1143 0
10 -270 -139 1144 0
-478 122 328 1145 0
-69 421 -327 1146 0
-6 -7 251 1147 0
253 -14 -318 1148 0
79 -92 -121 1149 0
233 -65 -444 1150 0
326 -387 490 1151 0
-365 47 -488 1152 0
-426 454 59 1153 0
-301 218 -83 1154 0
-359 89 -229 1155 0
-123 -390 479 1156 0
-119 259 256 1157 0
-26 237 -383 1158 0
-48 -483 -407 1159 0
109 46 216 1160 0
39 -257 454 1161 0
281 -212 172 1162 0
392 -89 482 1163 0
-149 296 85 1164 0
430 -366 42 1165 0
397 300 1 1166 0
-225 -117 -351 1167 0
-293 -499 144 1168 0
291 99 -237 1169 0
-80 -76 -372 1170 0
399 -242 -335 1171 0
-346 91 -226 1172 0
54 -301 492 1173 0
37 160 -435 1174 0
-478 399 165 1175 0
-61 -99 313 1176 0
138 49 430 1177 0
-169 414 370 1178 0
97 220 21 1179 0
472 98 -391 1180 0
-204 -300 -298 1181 0
-249 31 -182 1182 0
-123 -188 -124 1183 0
-231 95 -56 1184 0
-338 99 -368 1185 0
-325 189 -121 1186 0
230 441 60 1187 0
89 -10 -314 1188 0
70 -458 233 1189 0
24 118 -334 1190 0
277 -469 195 1191 0
-161 253 97 1192 0
149 -486 -479 1193 0
-390 195 305 1194 0
-262 39 -20 1195 0
-241 -78 -335 1196 0
472 -215 -356 1197 0
-9 -379 -48 1198 0
457 -133 -22 1199 0
-235 -322 -417 1200 0
341 -102 453 1201 0
-225 -238 445 1202 0
244 -344 -290 1203 0
-185 -24 -172 1204 0
-462 -53 -447 1205 0
110 88 -365 1206 0
-249 -63 -192 1207 0
484 75 -110 1208 0
-168 -71 -267 1209 0
58 -467 -219 1210 0
485 160 439 1211 0
-39 228 470 1212 0
-89 112 -389 1213 0
-144 -8 -94 1214 0
-252 -222 129 1215 0
-132 -43 165 1216 0
159 -148 409 1217 0
379 -239 95 1218 0
114 226 268 1219 0
-378 -291 -424 1220 0
-496 34 -323 1221 0
-215 479 365 1222 0
337 -494 -123 1223 0
-301 423 -205 1224 0
-214 -374 267 1225 0
-372 -426 45 1226 0
451 191 -168 1227 0
-2 491 487 1228 0
-270 59 166 1229 0
-244 444 148 1230 0
-268 226 436 1231 0
11 -209 4 1232 0
-10 -4 -414 1233 0
7 328 233 1234 0
294 -404 43 1235 0
-153 352 258 1236 0
-218 -268 201 1237 0
-92 299 125 1238 0
-262 -466 3 1239 0
367 -427 -271 1240 0
233 -71 -40 1241 0
311 67 -208 1242 0
-164 365 187 1243 0
308 -170 -285 1244 0
76 346 -404 1245 0
320 -58 -355 1246 0
453 -97 144 1247 0
-11 354 3 1248 0
189 489 -92 1249 0
134 -17 236 1250 0
232 -481 -300 1251 0
115 364 286 1252 0
44 -362 -206 1253 0
322 -167 26 1254 0
-198 376 170 1255 0
418 446 -82 1256 0
192 -301 289 1257 0
488 187 255 1258 0
-41 164 268 1259 0
-208 -211 493 1260 0
-90 389 75 1261 0
283 -91 289 1262 0
69 470 495 1263 0
77 290 -211 1264 0
-368 39 -369 1265 0
-202 -364 -258 1266 0
290 -155 -83 1267 0
406 -276 434 1268 0
-50 285 497 1269 0
345 -147 -226 1270 0
484 -37 -410 1271 0
228 -346 317 1272 0
244 -414 427 1273 0
352 29 -166 1274 0
101 -283 -477 1275 0
372 -437 420 1276 0
373 -1 238 1277 0
191 -82 -353 1278 0
-272 -394 -12 1279 0
356 205 -120 1280 0
-180 -94 -145 1281 0
-85 -487 167 1282 0
-347 -99 429 1283 0
-232 415 66 1284 0
-232 169 128 1285 0
214 83 -28 1286 0
-329 12 284 1287 0
134 472 -153 1288 0
319 500 25 1289 0
234 143 -175 1290 0
-344 -211 217 1291 0
337 -464 390 1292 0
430 -221 349 1293 0
-301 -470 -130 1294 0
328 -65 -204 1295 0
-231 -500 253 1296 0
-385 -43 -193 1297 0
-372 -265 355 1298 0
-447 -299 -209 1299 0
-492 -329 177 1300 0
93 216 109 1301 0
-400 207 362 1302 0
-163 -320 -21 1303 0
26 -309 -315 1304 0
-445 -149 -328 1305 0
150 -223 -334 1306 0
-358 456 182 1307 0
-137 -169 360 1308 0
-441 -400 253 1309 0
-329 -66 11 1310 0
252 -65 -37 1311 0
-422 103 430 1312 0
484 -480 426 1313 0
-347 -27 260 1314 0
298 -356 -79 1315 0
-387 -278 264 1316 0
-262 -468 184 1317 0
-254 -207 465 1318 0
167 152 26 1319 0
-320 -316 -321 1320 0
-404 -36 73 1321 0
246 -386 -276 1322 0
423 73 219 1323 0
-339 384 -22 1324 0
-291 17 -46 1325 0
-189 211 -431 1326 0
238 459 190 1327 0
-391 -408 -455 1328 0
-237 -296 -165 1329 0
486 167 395 1330 0
464 133 -76 1331 0
-314 -200 -93 1332 0
-463 -220 309 1333 0
478 107 -132 1334 0
221 458 -302 1335 0
-176 21 66 1336 0
-275 -124 38 1337 0
27 -8 400 1338 0
338 -343 51 1339 0
202 454 -136 1340 0
-260 -315 -436 1341 0
50 -236 61 1342 0
-281 130 264 1343 0
257 -207 -249 1344 0
237 -419 262 1345 0
-495 -407 308 1346 0
-73 -410 -489 1347 0
455 -211 -456 1348 0
127 466 119 1349 0
-374 -191 367 1350 0
-324 241 370 1351 0
174 -177 281 1352 0
381 210 148 1353 0
117 -394 -409 1354 0
-17 -288 -286 1355 0
-201 95 -71 1356 0
-461 189 -485 1357 0
-293 -69 -52 1358 0
-390 354 -381 1359 0
135 -91 -475 1360 0
-158 478 -324 1361 0
-22 -12 250 1362 0
171 306 -350 1363 0
349 -394 -311 1364 0
223 76 -472 1365 0
-264 297 -60 1366 0
168 -34 -109 1367 0
-21 424 7 1368 0
-80 -472 354 1369 0
261 -135 195 1370 0
235 81 118 1371 0
458 36 -253 1372 0
283 -126 95 1373 0
58 124 -493 1374 0
345 -446 484 1375 0
-148 -318 -385 1376 0
-345 195 75 1377 0
84 259 273 1378 0
252 496 42 1379 0
-413 -497 39 1380 0
-346 248 281 1381 0
-492 -258 82 1382 0
-288 -305 -472 1383 0
-52 238 30 1384 0
-468 -360 -297 1385 0
393 212 -451 1386 0
-285 320 110 1387 0
-79 -154 191 1388 0
109 -92 323 1389 0
455 -40 426 1390 0
-419 237 -83 1391 0
-217 33 308 1392 0
358 -353 -221 1393 0
146 -50 -436 1394 0
-138 -412 328 1395 0
428 208 -287 1396 0
193 -340 -64 1397 0
485 -192 13 1398 0
-251 -95 -391 1399 0
320 293 439 1400 0
-120 -481 155 1401 0
287 405 302 1402 0
497 170 481 1403 0
437 -328 135 1404 0
-33 -490 -70 1405 0
292 -275 406 1406 0
-68 435 -128 1407 0
461 385 380 1408 0
-311 -261 -220 1409 0
343 338 -483 1410 0
370 -24 -377 1411 0
-206 233 46 1412 0
376 -394 -486 1413 0
-225 -304 125 1414 0
465 494 -300 1415 0
115 -338 -29 1416 0
-472 334 -352 1417 0
375 -153 -173 1418 0
-12 -396 -449 1419 0
-318 123 99 1420 0
276 -402 -337 1421 0
-4 174 111 1422 0
415 -46 255 1423 0
-155 -277 -386 1424 0
-192 -39 -99 1425 0
-402 -276 -340 1426 0
-29 -105 88 1427 0
485 202 -473 1428 0
-80 -49 -480 1429 0
-132 286 210 1430 0
78 456 -399 1431 0
-486 -359 247 1432 0
-476 20 39 1433 0
202 -44 -496 1434 0
-493 -277 382 1435 0
396 325 200 1436 0
128 300 -238 1437 0
274 -236 -46 1438 0
-456 -410 -400 1439 0
-337 -259 357 1440 0
484 -224 120 1441 0
117 -325 -206 1442 0
336 248 -10 1443 0
-105 -74 -154 1444 0
-471 283 303 1445 0
-281 -93 216 1446 0
-37 259 100 1447 0
286 -375 -38 1448 0
354 380 -43 1449 0
345 68 300 1450 0
459 -44 248 1451 0
128 -341 470 1452 0
301 146 -238 1453 0
-418 -210 -280 1454 0
-462 218 269 1455 0
-122 -436 30 1456 0
295 -494 -249 1457 0
-461 498 -151 1458 0
-216 -366 447 1459 0
-339 209 -252 1460 0
288 369 55 1461 0
-355 -264 -101 1462 0
-435 -50 -327 1463 0
321 -247 89 1464 0
195 301 73 1465 0
-193 292 300 1466 0
-461 14 281 1467 0
330 -494 -454 1468 0
-470 467 -275 1469 0
496 441 -233 1470 0
185 -19 -354 1471 0
-96 -446 -168 1472 0
199 -305 50 1473 0
199 -51 -267 1474 0
248 131 -438 1475 0
345 -414 -399 1476 0
-219 -201 -54 1477 0
44 -450 -203 1478 0
-117 379 -355 1479 0
385 88 39 1480 0
-62 -4 -434 1481 0
-293 -397 332 1482 0
76 -122 -270 1483 0
381 -24 -341 1484 0
326 421 -388 1485 0
-120 -393 266 1486 0
143 -414 -306 1487 0
388 311 196 1488 0
-299 -430 429 1489 0
-116 -66 388 1490 0
-255 -406 -261 1491 0
21 138 -232 1492 0
426 126 -447 1493 0
398 -235 55 1494 0
-415 214 -286 1495 0
-325 -440 189 1496 0
-489 -115 474 1497 0
-143 -39 -256 1498 0
-447 193 -36 1499 0
-275 482 -440 1500 0
95 -467 -55 1501 0
246 13 399 1502 0
-163 -11 237 1503 0
201 397 -278 1504 0
-24 250 468 1505 0
-419 -179 -439 1506 0
-364 258 317 1507 0
-220 -57 -9 1508 0
43 387 -118 1509 0
91 -232 244 1510 0
-110 467 435 1511 0
-285 -432 68 1512 0
-224 -268 337 1513 0
-299 -171 174 1514 0
416 -292 414 1515 0
33 493 -414 1516 0
-287 318 -300 1517 0
153 377 266 1518 0
-178 -76 47 1519 0
-429 484 175 1520 0
207 -285 -426 1521 0
144 229 -40 1522 0
263 52 -114 1523 0
14 -273 -360 1524 0
66 74 170 1525 0
-82 469 -400 1526 0
-194 -110 202 1527 0
-387 128 304 1528 0
343 147 202 1529 0
175 -487 -305 1530 0
349 -80 -450 1531 0
-470 -500 225 1532 0
214 275 -327 1533 0
-279 -53 -292 1534 0
-74 167 -39 1535 0
214 235 -129 1536 0
-288 -225 11 1537 0
169 -218 189 1538 0
99 -434 437 1539 0
172 -22 -494 1540 0
-335 -48 -441 1541 0
460 161 70 1542 0
-68 -280 -407 1543 0
63 -40 315 1544 0
207 351 201 1545 0
356 -462 -339 1546 0
-218 221 -497 1547 0
282 -210 313 1548 0
-437 -228 154 1549 0
-413 -94 -29 1550 0
61 -326 210 1551 0
333 -360 104 1552 0
246 287 -309 1553 0
-150 -434 -407 1554 0
312 -169 -239 1555 0
90 198 -415 1556 0
-62 350 -267 1557 0
-479 -167 -68 1558 0
-499 189 411 1559 0
69 478 -379 1560 0
248 -154 1 1561 0
29 463 125 1562 0
192 321 -458 1563 0
-386 -136 -22 1564 0
278 304 -378 1565 0
134 -59 358 1566 0
378 476 -16 1567 0
58 -408 174 1568 0
479 -308 -500 1569 0
-61 449 -2 1570 0
-115 -353 -477 1571 0
-478 66 -458 1572 0
-315 -105 -85 1573 0
270 97 436 1574 0
197 413 103 1575 0
367 231 -492 1576 0
-263 282 126 1577 0
-398 -236 -185 1578 0
-214 -440 118 1579 0
-463 497 431 1580 0
-56 -474 15 1581 0
-170 -277 -349 1582 0
288 -387 38 1583 0
187 -414 205 1584 0
-328 -360 -458 1585 0
298 -460 444 1586 0
-109 369 34 1587 0
-347 -370 -318 1588 0
-64 365 -336 1589 0
223 326 303 1590 0
81 -462 -78 1591 0
-460 476 -377 1592 0
-6 257 -294 1593 0
-290 430 48 1594 0
361 492 19 1595 0
181 -375 380 1596 0
296 -443 478 1597 0
285 -35 -13 1598 0
-369 457 394 1599 0
15 383 -54 1600 0
-61 147 114 1601 0
-370 110 152 1602 0
-282 195 -48 1603 0
-211 160 -12 1604 0
-147 -498 -76 1605 0
-425 188 97 1606 0
383 -106 440 1607 0
412 93 1 1608 0
174 422 489 1609 0
-362 357 491 1610 0
-246 66 285 1611 0
162 -193 175 1612 0
23 110 -410 1613 0
-122 63 -149 1614 0
-469 -216 -47 1615 0
72 -118 209 1616 0
186 -103 99 1617 0
-62 169 85 1618 0
195 330 -246 1619 0
371 90 85 1620 0
472 405 -22 1621 0
412 -160 391 1622 0
135 -110 200 1623 0
135 95 -44 1624 0
294 297 -432 1625 0
87 -82 -398 1626 0
-411 -449 -263 1627 0
-107 145 -310 1628 0
-347 328 -186 1629 0
-409 -265 -87 1630 0
-142 -105 69 1631 0
46 -191 -338 1632 0
-349 -383 313 1633 0
278 -374 -444 1634 0
-76 220 -161 1635 0
220 -166 316 1636 0
-144 -358 191 1637 0
-37 244 -321 1638 0
344 -397 -105 1639 0
79 429 -368 1640 0
-213 181 -460 1641 0
-282 456 -160 1642 0
56 36 457 1643 0
361 472 434 1644 0
-159 -93 64 1645 0
7 311 -254 1646 0
-273 169 -261 1647 0
380 299 -114 1648 0
-249 -338 330 1649 0
118 319 -378 1650 0
-483 353 184 1651 0
267 -69 -500 1652 0
-416 -303 390 1653 0
-237 98 126 1654 0
-445 -453 223 1655 0
9 -258 -60 1656 0
-247 378 -154 1657 0
-169 253 117 1658 0
-287 -488 -477 1659 0
-196 25 -26 1660 0
-208 444 -252 1661 0
393 414 -275 1662 0
461 -75 -69 1663 0
289 -179 -359 1664 0
473 -354 -398 1665 0
-245 -390 -418 1666 0
208 -150 -203 1667 0
-449 428 -230 1668 0
67 237 408 1669 0
-51 -134 -313 1670 0
-321 -401 55 1671 0
-139 42 393 1672 0
-354 -13 -428 1673 0
-99 106 500 1674 0
-14 -405 226 1675 0
213 88 -422 1676 0
-247 -396 67 1677 0
-103 -3 -331 1678 0
-316 359 -123 1679 0
-67 -246 440 1680 0
367 308 -262 1681 0
53 463 192 1682 0
-115 -330 277 1683 0
-311 -103 180 1684 0
-172 187 -334 1685 0
-13 37 -282 1686 0
271 -160 -83 1687 0
330 380 -10 1688 0
-151 245 -255 1689 0
-227 -497 -235 1690 0
157 -27 -454 1691 0
234 40 -272 1692 0
-167 -393 28 1693 0
-405 236 -60 1694 0
44 -174 -119 1695 0
384 383 386 1696 0
-396 -145 -448 1697 0
431 307 -167 1698 0
280 -77 -44 1699 0
354 23 261 1700 0
221 92 -220 1701 0
-494 -143 23 1702 0
-249 34 -206 1703 0
418 104 259 1704 0
56 459 -293 1705 0
-448 417 -320 1706 0
-313 21 -110 1707 0
177 431 66 1708 0
-311 -394 315 1709 0
179 270 -117 1710 0
335 -292 -8 1711 0
-459 358 -119 1712 0
449 -285 -292 1713 0
-126 -293 59 1714 0
461 -307 -458 1715 0
291 177 24 1716 0
-455 335 246 1717 0
-321 294 114 1718 0
124 -129 383 1719 0
85 466 -268 1720 0
-305 -65 17 1721 0
315 -330 41 1722 0
146 -334 498 1723 0
-400 192 -17 1724 0
126 205 497 1725 0
-302 444 207 1726 0
190 466 6 1727 0
352 88 -23 1728 0
69 -308 155 1729 0
52 424 89 1730 0
-402 432 60 1731 0
-85 102 170 1732 0
45 -112 -197 1733 0
365 288 84 1734 0
238 -212 -321 1735 0
-367 -144 -55 1736 0
114 -109 -249 1737 0
232 -310 246 1738 0
415 -6 206 1739 0
-66 241 421 1740 0
-130 -53 375 1741 0
50 -369 -398 1742 0
-467 403 282 1743 0
177 274 -223 1744 0
29 -261 -328 1745 0
-361 -192 385 1746 0
-69 385 -423 1747 0
355 -463 -372 1748 0
-334 382 -219 1749 0
-248 481 -297 1750 0
486 -274 489 1751 0
-140 -296 -283 1752 0
155 332 227 1753 0
89 -233 -487 1754 0
382 372 219 1755 0
113 -169 -63 1756 0
-88 193 494 1757 0
431 -114 284 1758 0
313 159 -451 1759 0
467 339 -201 1760 0
214 25 -249 1761 0
145 119 237 1762 0
131 -45 -12 1763 0
-499 46 161 1764 0
395 -479 -10 1765 0
78 480 237 1766 0
41 333 -349 1767 0
-348 -182 -281 1768 0
151 -174 436 1769 0
-183 -212 -13 1770 0
-368 -398 371 1771 0
29 87 284 1772 0
118 -271 58 1773 0
455 -4 381 1774 0
-145 176 -474 1775 0
-446 427 -470 1776 0
288 -205 206 1777 0
162 -17 -238 1778 0
-141 357 458 1779 0
281 44 -142 1780 0
245 479 300 1781 0
-439 66 303 1782 0
34 185 423 1783 0
-259 34 -230 1784 0
-250 420 432 1785 0
30 325 -106 1786 0
363 -133 -438 1787 0
378 36 -212 1788 0
70 -321 -262 1789 0
495 205 -40 1790 0
36 -209 125 1791 0
-483 -214 175 1792 0
-83 323 315 1793 0
237 174 455 1794 0
385 -21 -417 1795 0
436 -55 -67 1796 0
-101 33 130 1797 0
-209 187 -492 1798 0
474 183 203 1799 0
456 407 -425 1800 0
405 -144 370 1801 0
293 260 -372 1802 0
277 -397 210 1803 0
328 -10 305 1804 0
-81 -486 -207 1805 0
489 -191 244 1806 0
-244 132 -87 1807 0
254 227 99 1808 0
41 -240 193 1809 0
-77 -208 -297 1810 0
448 357 142 1811 0
475 -400 376 1812 0
173 -436 108 1813 0
-318 96 -305 1814 0
245 218 -500 1815 0
-367 427 -163 1816 0
-146 35 343 1817 0
399 -202 323 1818 0
-495 5 296 1819 0
74 169 -300 1820 0
-74 390 -9 1821 0
310 12 -167 1822 0
336 -161 457 1823 0
215 412 272 1824 0
197 451 230 1825 0
-180 134 312 1826 0
-1 374 443 1827 0
108 84 -173 1828 0
-160 465 -467 1829 0
87 -280 -378 1830 0
240 -237 -406 1831 0
-425 -98 58 1832 0
234 -258 -203 1833 0
483 234 182 1834 0
270 331 13 1835 0
211 218 -445 1836 0
191 379 -48 1837 0
-322 -341 305 1838 0
93 431 -254 1839 0
-378 112 -187 1840 0
-274 31 471 1841 0
-433 421 237 1842 0
-33 98 -274 1843 0
-274 -341 -429 1844 0
108 178 -223 1845 0
-108 -217 354 1846 0
319 -359 436 1847 0
215 53 411 1848 0
-111 -390 -287 1849 0
-226 462 90 1850 0
112 472 -487 1851 0
268 68 42 1852 0
193 -116 464 1853 0
46 -30 -109 1854 0
232 -21 -150 1855 0
-264 -143 367 1856 0
486 165 -189 1857 0
-83 163 -314 1858 0
-2 -28 226 1859 0
-207 403 448 1860 0
-188 247 -220 1861 0
-447 -220 162 1862 0
-182 262 -424 1863 0
412 -94 -115 1864 0
57 -114 -387 1865 0
299 -332 -159 1866 0
-265 353 284 1867 0
-310 100 69 1868 0
256 140 -155 1869 0
410 30 38 1870 0
6 162 105 1871 0
423 -282 -279 1872 0
496 -300 60 1873 0
-59 306 61 1874 0
-438 -493 131 1875 0
-322 -494 234 1876 0
235 218 142 1877 0
124 117 -305 1878 0
-421 275 228 1879 0
216 -392 172 1880 0
-197 -100 -362 1881 0
-35 428 400 1882 0
292 -217 90 1883 0
-20 -346 -105 1884 0
-203 -21 116 1885 0
-245 -41 -336 1886 0
238 -441 -368 1887 0
-212 -13 -322 1888 0
29 308 203 1889 0
161 -189 215 1890 0
-285 3 -213 1891 0
-80 258 -126 1892 0
432 24 -262 1893 0
362 202 180 1894 0
439 379 373 1895 0
52 161 28 1896 0
-342 476 422 1897 0
168 204 57 1898 0
233 -407 217 1899 0
-236 -33 -451 1900 0
-106 394 -308 1901 0
-83 -254 -29 1902 0
-450 -326 149 1903 0
98 320 127 1904 0
-311 345 -464 1905 0
370 185 358 1906 0
-357 -99 -1 1907 0
312 490 434 1908 0
-327 -398 -498 1909 0
178 283 71 1910 0
315 -159 -330 1911 0
-315 244 -466 1912 0
-341 -462 1 1913 0
7 -425 -301 1914 0
-338 -263 -402 1915 0
-263 -402 -413 1916 0
302 -387 125 1917 0
-259 43 228 1918 0
172 -246 -71 1919 0
329 -370 -118 1920 0
-111 -490 359 1921 0
-69 -30 229 1922 0
-350 130 272 1923 0
-306 132 9 1924 0
-258 76 -61 1925 0
180 -212 267 1926 0
405 81 -378 1927 0
-437 382 -96 1928 0
249 -443 -235 1929 0
499 377 327 1930 0
278 -315 95 1931 0
90 -142 336 1932 0
1 37 -269 1933 0
-140 -290 -23 1934 0
160 -167 -186 1935 0
316 -122 -85 1936 0
-81 -226 98 1937 0
-391 492 -301 1938 0
467 -441 -294 1939 0
-228 -468 283 1940 0
-10 115 383 1941 0
334 -460 -307 1942 0
362 -331 -287 1943 0
-140 495 -356 1944 0
-376 172 -195 1945 0
242 210 -498 1946 0
268 435 -282 1947 0
-93 -235 349 1948 0
-353 -60 255 1949 0
-368 -254 291 1950 0
-51 201 -7 1951 0
390 393 277 1952 0
321 -41 465 1953 0
-260 366 -399 1954 0
138 209 260 1955 0
-2 461 153 1956 0
77 -207 -451 1957 0
402 161 361 1958 0
-499 341 340 1959 0
-274 -248 -94 1960 0
-374 385 150 1961 0
-488 303 -466 1962 0
-475 115 379 1963 0
-417 -98 -153 1964 0
312 46 340 1965 0
-60 -439 -300 1966 0
-166 364 -490 1967 0
77 -346 388 1968 0
150 -241 -236 1969 0
-300 206 -440 1970 0
337 197 287 1971 0
72 -174 -109 1972 0
-313 30 381 1973 0
320 39 -487 1974 0
436 -234 64 1975 0
167 -55 11 1976 0
7 -266 -351 1977 0
366 208 -8 1978 0
-236 19 54 1979 0
-96 -170 -494 1980 0
-140 475 176 1981 0
285 -338 -475 1982 0
-129 466 -397 1983 0
76 282 -331 1984 0
218 -423 -132 1985 0
23 -426 -162 1986 0
-353 -235 285 1987 0
-238 -416 6 1988 0
86 -443 245 1989 0
327 287 127 1990 0
446 239 -279 1991 0
-392 125 -24 1992 0
-318 360 58 1993 0
279 276 -388 1994 0
-66 -463 206 1995 0
-336 -393 79 1996 0
230 481 227 1997 0
-361 -75 475 1998 0
-100 489 -296 1999 0
-247 -117 151 2000 0
324 -278 -87 2001 0
-296 -45 -239 2002 0
167 405 377 2003 0
274 -330 290 2004 0
369 466 -11 2005 0
-307 -77 -211 2006 0
229 -11 391 2007 0
-164 -78 162 2008 0
355 303 -153 2009 0
-8 362 287 2010 0
-182 -346 -220 2011 0
343 273 -435 2012 0
73 -248 412 2013 0
471 -132 91 2014 0
-256 -87 258 2015 0
190 350 -123 2016 0
-203 -80 -224 2017 0
446 -226 -274 2018 0
497 154 32 2019 0
-133 -386 -97 2020 0
230 6 -471 2021 0
-491 199 -17 2022 0
364 227 -371 2023 0
-327 -466 -490 2024 0
450 206 203 2025 0
8 -327 55 2026 0
-342 -412 366 2027 0
-465 -248 439 2028 0
332 428 169 2029 0
-171 -107 -497 2030 0
77 -244 100 2031 0
-344 145 -136 2032 0
82 -73 -385 2033 0
-250 -210 176 2034 0
-312 -350 46 2035 0
-197 -354 477 2036 0
312 -381 177 2037 0
-400 52 435 2038 0
186 -223 438 2039 0
-450 116 143 2040 0
427 386 -367 2041 0
272 -128 -442 2042 0
-406 -374 -142 2043 0
-377 -235 388 2044 0
-146 -236 156 2045 0
69 -445 278 2046 0
308 -155 489 2047 0
163 220 80 2048 0
-57 -376 -2 2049 0
-458 474 315 2050 0
21 96 -426 2051 0
-497 318 18 2052 0
334 -480 138 2053 0
474 387 194 2054 0
-409 22 -332 2055 0
-41 322 160 2056 0
-437 -316 7 2057 0
-158 -266 247 2058 0
7 472 354 2059 0
190 2 -264 2060 0
113 -268 406 2061 0
28 -334 304 2062 0
-230 482 -468 2063 0
109 74 -46 2064 0
-305 485 -218 2065 0
-140 434 100 2066 0
229 -200 -42 2067 0
-373 315 -439 2068 0
-248 -138 -364 2069 0
-84 -426 47 2070 0
286 47 228 2071 0
19 405 -69 2072 0
347 -68 288 2073 0
-22 -220 20 2074 0
-423 483 170 2075 0
-354 -356 313 2076 0
460 -35 -248 2077 0
-110 -423 -53 2078 0
-480 49 -208 2079 0
-363 431 327 2080 0
388 20 -460 2081 0
-19 -91 318 2082 0
-347 271 403 2083 0
186 -421 -55 2084 0
499 128 -14 2085 0
-85 51 221 2086 0
-77 -203 204 2087 0
197 -263 310 2088 0
38 -290 300 2089 0
-152 -158 -48 2090 0
282 23 297 2091 0
33 365 319 2092 0
-176 -439 295 2093 0
-202 -33 -68 2094 0
61 -295 215 2095 0
-68 -89 422 2096 0
-106 292 -423 2097 0
-165 72 -268 2098 0
289 -307 -53 2099 0
159 438 -415 2100 0
-375 -455 325 2101 0
-27 -377 139 2102 0
98 8 -133 2103 0
-311 324 61 2104 0
476 -431 -210 2105 0
-60 253 45 2106 0
-312 64 -391 2107 0
63 -120 -197 2108 0
-133 116 415 2109 0
243 -490 368 2110 0
279 164 -248 2111 0
-402 328 256 2112 0
-207 -296 -223 2113 0
-181 238 441 2114 0
-42 83 449 2115 0
-122 -423 -401 2116 0
-65 -79 477 2117 0
-386 49 -80 2118 0
-265 17 290 2119 0
341 56 324 2120 0
131 -25 342 2121 0
-197 420 -364 2122 0
126 330 59 2123 0
-375 189 -6 2124 0
-126 -89 393 2125 0
418 -372 157 2126 0
86 112 -5 2127 0
-238 235 -432 2128 0
-71 429 -380 2129 0
152 450 -80 2130 0
104 223 464 2131 0
-108 474 183 2132 0
209 443 422 2133 0
165 438 138 2134 0
183 286 225 2135 0
442 -463 418 2136 0
-308 -46 381 2137 0
58 331 -284 2138 0
424 -83 -357 2139 0
-257 302 423 2140 0
-73 21 -240 2141 0
-293 -309 81 2142 0
-186 361 129 2143 0
-312 78 438 2144 0
-132 -457 -440 2145 0
-383 -498 -175 2146 0
-383 -298 -250 2147 0
155 109 -404 2148 0
379 -108 330 2149 0
180 -318 -75 2150 0
-406 -11 -492 2151 0
-10 -24 129 2152 0
196 -292 157 2153 0
-346 54 472 2154 0
123 -23 144 2155 0
314 108 13 2156 0
-204 -3 -488 2157 0
125 451 -488 2158 0
466 329 323 2159 0
81 217 -118 2160 0
-448 351 157 2161 0
-167 -196 456 2162 0
23 392 -9 2163 0
237 379 -411 2164 0
66 429 -281 2165 0
492 344 95 2166 0
89 -269 -334 2167 0
434 -125 -301 2168 0
-3 -121 433 2169 0
-376 247 -480 2170 0
-118 -484 -3 2171 0
276 -279 459 2172 0
-495 -480 250 2173 0
-66 304 460 2174 0
64 -105 436 2175 0
-268 -485 173 2176 0
137 -126 353 2177 0
-411 -151 -213 2178 0
-40 100 -281 2179 0
-188 -453 324 2180 0
288 -352 126 2181 0
45 312 51 2182 0
234 253 -138 2183 0
303 304 -104 2184 0
205 -445 15 2185 0
-68 380 -196 2186 0
-26 -302 -480 2187 0
15 -246 -245 2188 0
107 90 -320 2189 0
145 -288 4 2190 0
326 450 471 2191 0
-355 -297 -80 2192 0
-206 -296 -434 2193 0
453 307 -284 2194 0
283 261 -224 2195 0
376 359 262 2196 0
477 238 -457 2197 0
-20 233 89 2198 0
-408 72 25 2199 0
176 240 -85 2200 0
291 332 -177 2201 0
-490 191 307 2202 0
-461 293 188 2203 0
387 166 163 2204 0
-13 -402 319 2205 0
240 182 217 2206 0
371 430 482 2207 0
-162 164 476 2208 0
-153 -302 -475 2209 0
471 -37 385 2210 0
248 425 -450 2211 0
86 452 -494 2212 0
-281 267 388 2213 0
366 497 317 2214 0
-147 -326 169 2215 0
-384 -144 301 2216 0
484 92 -139 2217 0
198 -223 239 2218 0
121 271 249 2219 0
-295 -116 30 2220 0
227 29 -474 2221 0
-76 -155 -247 2222 0
-411 116 76 2223 0
-258 179 -47 2224 0
330 -148 482 2225 0
-240 -170 216 2226 0
227 -67 -80 2227 0
240 39 -330 2228 0
-248 -135 108 2229 0
436 -40 306 2230 0
-254 -290 -247 2231 0
475 -107 -162 2232 0
415 459 316 2233 0
65 -124 83 2234 0
-315 356 -299 2235 0
-50 -93 278 2236 0
-222 100 249 2237 0
429 440 -379 2238 0
399 -243 -7 2239 0
214 -456 -208 2240 0
385 461 457 2241 0
180 -438 157 2242 0
366 109 -416 2243 0
-12 413 -152 2244 0
367 -458 -265 2245 0
-104 -357 394 2246 0
352 -399 -340 2247 0
-477 212 348 2248 0
122 -167 -402 2249 0
-143 -207 -461 2250 0
148 256 -129 2251 0
408 387 235 2252 0
-152 76 433 2253 0
-274 466 36 2254 0
265 -112 -400 2255 0
-234 418 499 2256 0
440 -267 -256 2257 0
419 -330 -200 2258 0
481 30 102 2259 0
-242 -250 92 2260 0
94 436 380 2261 0
-19 -1 -402 2262 0
86 -266 -433 2263 0
50 -404 -47 2264 0
-52 97 79 2265 0
-112 73 211 2266 0
-282 -400 44 2267 0
-287 85 -103 2268 0
-72 -453 -495 2269 0
49 -119 -241 2270 0
365 -325 -436 2271 0
-238 -447 -318 2272 0
342 -33 127 2273 0
-138 -494 30 2274 0
294 -327 -88 2275 0
210 -469 -464 2276 0
109 -39 453 2277 0
-53 440 -56 2278 0
-174 39 343 2279 0
-59 441 -380 2280 0
-100 -230 214 2281 0
-62 -44 23 2282 0
202 479 455 2283 0
-146 112 -66 2284 0
-231 -82 -242 2285 0
437 -373 -10 2286 0
-430 47 143 2287 0
-240 431 92 2288 0
-255 195 -337 2289 0
-362 -203 492 2290 0
210 465 -250 2291 0
480 281 -350 2292 0
-474 30 369 2293 0
357 -2 330 2294 0
230 -278 -315 2295 0
-392 -426 474 2296 0
-39 274 223 2297 0
-222 372 41 2298 0
-247 -153 -303 2299 0
102 -188 336 2300 0
8 90 -364 2301 0
111 -321 86 2302 0
-177 172 403 2303 0
190 207 187 2304 0
-448 78 421 2305 0
-335 116 163 2306 0
37 -31 -436 2307 0
178 -403 96 2308 0
208 -166 -270 2309 0
158 75 -439 2310 0
387 8 273 2311 0
199 -444 -413 2312 0
184 283 -368 2313 0
-206 325 -257 2314 0
-425 382 -150 2315 0
474 -124 -348 2316 0
133 -430 -286 2317 0
480 26 473 2318 0
380 141 375 2319 0
-206 -18 -298 2320 0
440 -56 -234 2321 0
-368 13 465 2322 0
-365 221 43 2323 0
-420 -470 380 2324 0
479 -190 120 2325 0
-273 101 -206 2326 0
496 409 -31 2327 0
17 269 -150 2328 0
-107 -442 366 2329 0
-240 303 -470 2330 0
450 -112 -39 2331 0
357 -363 70 2332 0
-454 -444 -325 2333 0
-324 123 -285 2334 0
441 470 80 2335 0
-495 461 -356 2336 0
95 -74 -148 2337 0
-386 -114 248 2338 0
308 356 -413 2339 0
-75 -432 -238 2340 0
-283 107 80 2341 0
-334 -468 -155 2342 0
374 -75 16 2343 0
29 288 6 2344 0
226 237 -353 2345 0
-125 -249 266 2346 0
-330 236 -488 2347 0
128 241 -224 2348 0
-121 441 452 2349 0
-488 -398 160 2350 0
-424 60 431 2351 0
-113 -270 486 2352 0
356 -259 337 2353 0
174 -400 457 2354 0
492 -60 -397 2355 0
-473 456 135 2356 0
-351 -427 -22 2357 0
-5 225 -28 2358 0
134 55 -340 2359 0
255 193 -20 2360 0
3 25 205 2361 0
121 228 287 2362 0
-88 -194 -335 2363 0
-337 -69 -300 2364 0
76 424 -270 2365 0
-273 -367 -15 2366 0
417 -102 334 2367 0
393 -36 95 2368 0
232 197 122 2369 0
-397 120 316 2370 0
117 439 77 2371 0
-13 360 -122 2372 0
-62 -179 -249 2373 0
304 -295 -35 2374 0
-329 -348 -370 2375 0
397 199 191 2376 0
278 -239 442 2377 0
-446 420 -494 2378 0
124 306 -402 2379 0
188 463 -440 2380 0
252 399 -418 2381 0
-437 -294 -415 2382 0
-445 310 227 2383 0
-84 177 281 2384 0
57 -170 357 2385 0
-112 173 165 2386 0
-62 491 -313 2387 0
340 268 128 2388 0
-263 -468 457 2389 0
-353 -377 -37 2390 0
-385 -494 -100 2391 0
196 -428 114 2392 0
-36 374 -336 2393 0
-367 -420 -263 2394 0
-365 354 -485 2395 0
-206 -21 394 2396 0
68 -329 -302 2397 0
456 21 -289 2398 0
-349 -260 -138 2399 0
375 -410 73 2400 0
427 488 198 2401 0
-222 443 469 2402 0
167 -112 -184 2403 0
315 192 -426 2404 0
154 -488 398 2405 0
-121 374 129 2406 0
31 -386 -322 2407 0
-167 -131 391 2408 0
-496 299 20 2409 0
443 455 386 2410 0
-406 144 -49 2411 0
-357 -459 463 2412 0
-474 -458 -303 2413 0
-202 373 -278 2414 0
52 -238 20 2415 0
484 283 -397 2416 0
-59 302 -137 2417 0
138 -165 -294 2418 0
-328 -89 -221 2419 0
47 302 361 2420 0
-168 -14 51 2421 0
13 224 295 2422 0
479 -448 -408 2423 0
-428 136 258 2424 0
-213 -163 224 2425 0
-210 -173 437 2426 0
-394 283 -384 2427 0
9 194 50 2428 0
-104 -176 -45 2429 0
348 -3 -279 2430 0
466 330 135 2431 0
-111 54 -113 2432 0
233 333 -358 2433 0
495 391 -224 2434 0
-26 -372 317 2435 0
-336 -67 437 2436 0
23 -346 -215 2437 0
-46 130 67 2438 0
-386 434 -94 2439 0
339 -145 404 2440 0
-253 -180 -205 2441 0
81 496 -401 2442 0
153 -155 -149 2443 0
-341 -487 -80 2444 0
147 109 -326 2445 0
28 -241 290 2446 0
169 -222 8 2447 0
-207 157 479 2448 0
176 -179 -115 2449 0
-235 -351 -31 2450 0
189 -175 337 2451 0
-242 125 493 2452 0
295 -353 371 2453 0
-326 -498 -246 2454 0
471 207 -136 2455 0
78 96 -216 2456 0
-215 -35 59 2457 0
112 23 -119 2458 0
-86 -394 -475 2459 0
-185 -127 -456 2460 0
-56 -243 103 2461 0
125 -489 192 2462 0
-413 71 -165 2463 0
-159 -477 146 2464 0
-271 500 -76 2465 0
398 149 -209 2466 0
-292 401 342 2467 0
-174 428 -426 2468 0
4 127 442 2469 0
331 -286 -427 2470 0
57 -173 96 2471 0
-61 -115 -332 2472 0
-281 -14 73 2473 0
91 -183 122 2474 0
74 -111 190 2475 0
245 403 55 2476 0
-479 -154 -392 2477 0
398 -95 462 2478 0
391 -164 456 2479 0
369 -149 181 2480 0
82 -311 -48 2481 0
310 412 325 2482 0
2 185 -293 2483 0
469 426 -459 2484 0
114 -337 42 2485 0
-110 -136 413 2486 0
-42 434 -248 2487 0
-350 -121 -111 2488 0
139 218 -442 2489 0
-296 377 241 2490 0
359 183 -342 2491 0
499 -304 322 2492 0
-216 438 116 2493 0
-356 -316 429 2494 0
250 -187 102 2495 0
-182 -273 290 2496 0
-246 -154 387 2497 0
-304 -271 19 2498 0
-497 154 128 2499 0
323 206 241 2500 0
293 357 193 2501 0
-416 -430 -476 2502 0
222 -43 161 2503 0
-470 -262 275 2504 0
226 -139 303 2505 0
126 417 -375 2506 0
404 -464 174 2507 0
472 -25 444 2508 0
243 -312 301 2509 0
448 -338 -168 2510 0
369 -230 242 2511 0
-107 -232 336 2512 0
-40 -128 339 2513 0
-311 -419 260 2514 0
-161 -398 -294 2515 0
438 -354 64 2516 0
451 49 -228 2517 0
473 -251 -398 2518 0
144 -34 58 2519 0
288 73 381 2520 0
-410 176 45 2521 0
247 372 371 2522 0
-128 290 474 2523 0
348 19 432 2524 0
460 -54 -412 2525 0
231 -205 -219 2526 0
127 -11 -140 2527 0
426 -302 -237 2528 0
-434 236 331 2529 0
-140 -69 472 2530 0
-214 342 413 2531 0
-468 -227 378 2532 0
-290 -283 -375 2533 0
363 -130 -90 2534 0
-122 477 41 2535 0
266 367 -346 2536 0
-499 -34 -165 2537 0
-91 -155 -326 2538 0
381 291 15 2539 0
-354 61 -325 2540 0
308 -97 136 2541 0
125 394 199 2542 0
297 188 -448 2543 0
456 -240 149 2544 0
-76 432 -52 2545 0
-368 318 2 2546 0
-174 -47 -425 2547 0
79 -420 -63 2548 0
-75 -192 -346 2549 0
169 -14 -186 2550 0
405 166 -363 2551 0
-92 130 -334 2552 0
418 -380 376 2553 0
-414 97 6 2554 0
-192 -23 198 2555 0
-459 320 116 2556 0
-334 -318 -152 2557 0
61 137 -41 2558 0
492 -314 166 2559 0
-251 221 161 2560 0
-114 -409 211 2561 0
-224 145 212 2562 0
-194 433 -448 2563 0
-438 -487 372 2564 0
-79 43 368 2565 0
415 -386 -21 2566 0
10 37 466 2567 0
-270 -263 122 2568 0
197 -466 -90 2569 0
-89 229 489 2570 0
64 -385 346 2571 0
-43 -348 -161 2572 0
185 25 381 2573 0
83 269 349 2574 0
-126 -478 -105 2575 0
-121 498 -212 2576 0
445 250 -257 2577 0
324 -280 282 2578 0
146 276 -119 2579 0
408 330 -290 2580 0
344 -366 127 2581 0
-223 -125 376 2582 0
-229 67 -114 2583 0
25 420 265 2584 0
-471 -209 -110 2585 0
39 -180 243 2586 0
-32 109 202 2587 0
489 156 -288 2588 0
-341 -476 450 2589 0
244 -308 -498 2590 0
308 227 -467 2591 0
21 -301 391 2592 0
-267 -69 22 2593 0
-198 146 -91 2594 0
247 -410 -209 2595 0
-415 -264 -66 2596 0
-446 251 22 2597 0
-310 -448 127 2598 0
90 -52 -419 2599 0
-460 -350 -252 2600 0
-327 -122 336 2601 0
187 399 313 2602 0
-292 234 -90 2603 0
-217 133 286 2604 0
409 106 367 2605 0
-191 421 -211 2606 0
-138 -410 -353 2607 0
-471 434 289 2608 0
99 -220 181 2609 0
43 -251 249 2610 0
-168 268 -477 2611 0
-391 480 139 2612 0
250 85 82 2613 0
-302 142 -366 2614 0
-358 156 229 2615 0
-134 162 -497 2616 0
-51 344 294 2617 0
-335 -129 206 2618 0
33 -143 -422 2619 0
486 -148 -176 2620 0
198 194 384 2621 0
116 128 -269 2622 0
113 177 -326 2623 0
-207 317 366 2624 0
334 488 -345 2625 0
-52 28 -348 2626 0
398 96 473 2627 0
407 318 -194 2628 0
103 419 160 2629 0
456 439 -192 2630 0
325 -236 168 2631 0
-274 -334 299 2632 0
-463 -29 221 2633 0
-92 -457 12 2634 0
-101 3 -193 2635 0
21 248 485 2636 0
-107 -238 -354 2637 0
176 20 70 2638 0
-345 381 -272 2639 0
-267 -304 -212 2640 0
303 -192 477 2641 0
-392 -96 -42 2642 0
-6 -302 -374 2643 0
168 -142 132 2644 0
-322 -360 97 2645 0
102 247 312 2646 0
2 461 24 2647 0
-51 -114 152 2648 0
-111 448 352 2649 0
205 -18 -410 2650 0
