p cnf 275 1171
88 87 182 0
-157 -151 -130 0
228 139 -230 0
-215 -241 -259 0
-92 -194 31 0
13 208 -7 0
251 14 263 0
115 -210 188 0
133 -6 20 0
110 -166 -51 0
-155 163 87 0
-63 215 22 0
-72 81 190 0
81 -271 -154 0
-227 187 -74 0
-180 -272 65 0
170 -269 152 0
-208 45 -127 0
93 232 172 0
55 167 116 0
173 -124 -181 0
240 121 70 0
-137 -246 -170 0
191 -26 119 0
28 59 -167 0
-261 -113 217 0
-130 145 -35 0
119 227 -242 0
-175 -63 -252 0
16 -69 -14 0
262 -50 -48 0
74 121 -197 0
39 -16 211 0
185 -22 -23 0
-193 -23 -272 0
-205 26 -68 0
32 -87 -225 0
-38 93 -270 0
-164 194 -108 0
140 -259 206 0
117 -49 -125 0
178 201 -79 0
-145 5 -14 0
-181 -17 -230 0
-42 184 -94 0
-263 -21 -175 0
-2 -169 -13 0
107 -229 174 0
81 -85 -217 0
-227 -142 -221 0
-193 -97 71 0
10 107 223 0
152 133 -235 0
-22 -86 -129 0
52 -271 47 0
-183 154 -205 0
67 259 34 0
69 -256 -205 0
-211 -69 96 0
-22 136 149 0
-13 -59 -27 0
-70 46 -16 0
-40 226 -52 0
-216 -155 -93 0
-40 54 -109 0
-54 158 -48 0
-261 177 174 0
-173 -168 -243 0
-275 41 112 0
-37 -14 -171 0
-123 45 161 0
-142 56 -4 0
248 133 49 0
-141 -193 177 0
208 183 172 0
262 -249 40 0
-39 -201 -221 0
139 45 79 0
-228 -199 -145 0
155 86 -118 0
9 211 -54 0
226 68 61 0
22 -212 271 0
-231 241 86 0
154 -157 3 0
120 -14 213 0
146 -211 -2 0
56 -238 -17 0
-81 -266 -192 0
-8 103 67 0
-139 -181 208 0
-220 -39 41 0
-26 99 13 0
247 -4 -56 0
44 -148 -160 0
12 240 219 0
-5 -131 21 0
6 -94 203 0
267 73 -72 0
-197 -103 -239 0
223 100 -83 0
-157 103 -113 0
-40 -101 -145 0
-138 210 -271 0
150 173 105 0
30 -92 41 0
120 258 -31 0
244 14 68 0
44 194 -229 0
-36 -192 -135 0
10 84 -77 0
46 -63 31 0
-148 162 116 0
-273 -119 96 0
-16 161 -229 0
93 -150 7 0
-245 -133 190 0
-80 -211 -267 0
-6 247 -270 0
38 -135 124 0
261 170 22 0
-132 -19 -28 0
-113 2 63 0
55 141 -166 0
229 206 144 0
160 -221 -134 0
-234 -274 -20 0
-262 76 55 0
80 186 189 0
186 163 196 0
51 63 -104 0
88 -60 98 0
268 93 -120 0
144 7 112 0
21 37 -181 0
-273 -234 -79 0
-112 260 71 0
-154 -128 210 0
60 161 -220 0
-132 -149 -137 0
-50 -88 -26 0
-217 -236 -59 0
-37 -162 76 0
-190 -41 -265 0
111 199 -93 0
-169 -26 -240 0
81 -77 -176 0
-31 -162 -146 0
93 220 -228 0
-209 -64 166 0
268 -178 42 0
165 -50 26 0
208 -241 -1 0
-70 -105 -99 0
20 112 40 0
-107 -66 197 0
138 -185 191 0
-1 145 203 0
97 27 179 0
-125 -263 233 0
147 275 -245 0
-212 -208 -119 0
144 238 129 0
183 -64 -149 0
23 -25 109 0
-102 167 44 0
-252 140 194 0
-198 -240 140 0
-12 -113 96 0
-23 148 -198 0
-271 220 42 0
-271 -14 -99 0
233 31 -72 0
-2 242 -6 0
254 -15 246 0
-100 -63 -84 0
-57 -45 -7 0
-242 -176 180 0
139 -127 -60 0
15 199 -5 0
197 -183 7 0
-126 -94 -166 0
-1 9 87 0
135 -102 234 0
-248 -173 -154 0
65 -222 -80 0
-151 144 72 0
-39 95 126 0
216 209 -144 0
-204 154 -47 0
-267 -197 -229 0
6 -59 -172 0
59 240 -160 0
-274 118 11 0
-168 -68 -227 0
67 -204 -14 0
200 -120 -91 0
65 -13 195 0
239 -224 -212 0
135 107 125 0
-16 -85 259 0
73 -244 -265 0
114 -75 -212 0
162 102 143 0
-108 -2 145 0
-220 -127 -181 0
54 250 256 0
-204 -16 169 0
254 -181 -90 0
113 -28 49 0
31 194 11 0
-135 171 -224 0
106 183 113 0
138 70 -180 0
-177 -115 149 0
-200 38 66 0
-183 -150 131 0
71 98 230 0
224 -37 31 0
217 -25 -258 0
-228 223 -116 0
-151 204 115 0
-219 259 14 0
-272 253 259 0
-64 -241 -239 0
207 103 -272 0
241 216 -268 0
19 155 79 0
-159 61 -1 0
153 -93 -68 0
243 -20 190 0
185 -74 237 0
-158 -168 -169 0
56 65 -165 0
-141 -44 18 0
262 219 76 0
255 270 -56 0
-219 67 -92 0
14 108 -220 0
-161 -254 -264 0
80 -169 -159 0
-174 96 178 0
41 115 225 0
272 63 53 0
-258 266 136 0
-126 128 106 0
-156 -41 193 0
-28 234 -88 0
247 243 -197 0
-89 45 57 0
-99 156 -41 0
35 76 -243 0
46 189 178 0
119 88 175 0
133 -56 36 0
210 11 -89 0
-111 -143 79 0
66 73 -241 0
-231 -70 223 0
-76 -87 26 0
-178 50 200 0
107 222 -154 0
-72 15 -133 0
142 -46 19 0
-264 113 218 0
169 4 -27 0
-202 -93 -11 0
58 197 156 0
269 120 -4 0
-53 -192 -148 0
131 -16 -92 0
-146 -7 212 0
258 -91 48 0
167 -178 -35 0
271 -131 -252 0
-124 -270 -198 0
131 -1 -158 0
75 67 -32 0
50 -262 173 0
111 247 -96 0
98 -223 -176 0
-220 150 -240 0
259 32 256 0
1 86 -82 0
97 -85 207 0
233 237 -124 0
-48 88 -8 0
-247 163 242 0
272 16 201 0
58 -160 -263 0
-239 -115 -146 0
-184 -144 -41 0
-70 -28 -137 0
131 19 133 0
228 -117 34 0
21 -116 -262 0
117 95 141 0
-130 -139 -187 0
124 17 74 0
-194 104 -169 0
-219 111 -131 0
89 248 18 0
-172 -96 -48 0
-53 37 145 0
234 20 38 0
14 110 75 0
54 -143 -25 0
224 -219 -44 0
134 40 -4 0
257 183 -221 0
226 -241 156 0
23 -58 114 0
108 -205 175 0
-181 264 31 0
-172 218 -72 0
258 143 -36 0
-195 -243 -229 0
-262 111 -77 0
-220 57 62 0
262 53 244 0
-164 123 -148 0
168 -187 -11 0
57 -271 -101 0
56 -103 -14 0
79 96 -209 0
-103 9 8 0
25 -20 244 0
-58 -238 275 0
222 -191 -257 0
105 -150 -205 0
-102 4 30 0
215 -144 -46 0
-150 -205 33 0
220 133 167 0
13 226 251 0
54 84 -170 0
126 241 66 0
-185 -109 208 0
7 223 108 0
-70 20 -154 0
-86 -189 -8 0
164 271 -146 0
-157 146 -78 0
-245 103 267 0
169 -66 -217 0
-12 83 -162 0
123 224 42 0
-273 90 -242 0
-61 -130 74 0
-78 193 266 0
55 -2 275 0
-35 204 185 0
-39 236 -225 0
54 -75 219 0
183 35 -248 0
-95 -247 60 0
38 271 151 0
197 -260 -214 0
-76 36 232 0
-275 156 89 0
88 -150 180 0
270 274 95 0
219 168 -134 0
153 -6 166 0
164 73 274 0
265 35 -64 0
-15 253 211 0
94 -51 -266 0
80 -179 -9 0
102 19 167 0
-102 59 -209 0
-169 204 -144 0
-241 -63 -223 0
-34 61 -54 0
234 -254 203 0
271 119 73 0
-245 -40 186 0
-109 -236 194 0
186 -205 200 0
160 -212 -146 0
3 -19 118 0
49 10 259 0
240 -198 162 0
-209 221 235 0
69 204 -67 0
15 113 -178 0
190 117 -254 0
-128 -241 149 0
-151 119 -86 0
-218 -131 -201 0
-28 272 236 0
39 176 217 0
-164 -109 -251 0
-219 40 236 0
68 130 240 0
142 95 -110 0
120 -248 -86 0
-95 -76 -201 0
-223 258 -208 0
-70 -108 146 0
173 117 232 0
127 -223 -15 0
157 -223 -117 0
-155 -269 -95 0
-269 -106 13 0
-141 142 -139 0
-62 -9 256 0
275 222 -253 0
-107 -249 -140 0
72 125 -4 0
-258 96 -195 0
-76 4 -136 0
35 -77 143 0
238 231 170 0
139 -208 -201 0
168 -133 -8 0
219 -30 260 0
177 17 15 0
218 39 -105 0
64 -183 -161 0
121 -198 244 0
-216 -195 258 0
16 195 -14 0
-210 -90 216 0
-224 -179 127 0
166 48 -4 0
-110 -55 206 0
230 205 -108 0
167 -21 -42 0
157 -224 -23 0
201 120 195 0
101 76 127 0
161 -48 73 0
91 -129 -213 0
-100 229 256 0
-10 158 234 0
-215 228 240 0
237 -132 -106 0
-212 -122 249 0
-181 272 80 0
-2 -73 187 0
-216 226 161 0
148 -204 -192 0
-225 -30 -97 0
157 -268 129 0
22 -188 38 0
76 215 -112 0
240 113 133 0
196 -198 240 0
-176 63 -11 0
164 32 -168 0
273 -194 232 0
-101 -202 -198 0
251 -83 -215 0
59 82 -62 0
44 -115 149 0
268 87 -130 0
225 124 208 0
273 229 190 0
-138 -62 -15 0
118 -161 23 0
-26 21 -86 0
-115 29 -70 0
-214 -228 170 0
159 115 -163 0
94 -74 -72 0
-162 92 54 0
-239 -82 70 0
62 211 108 0
203 -164 -155 0
-4 273 -244 0
121 43 69 0
-250 217 200 0
-258 186 234 0
112 110 102 0
221 40 273 0
-182 215 106 0
16 147 -81 0
-62 268 223 0
-125 56 -62 0
183 -197 -78 0
232 128 270 0
28 -47 -88 0
148 -197 -156 0
-82 -268 166 0
-116 181 -7 0
258 150 -12 0
125 -136 -58 0
-222 -67 -159 0
155 196 189 0
-168 122 -216 0
-58 259 -135 0
-65 62 -174 0
-235 92 -14 0
22 -76 -20 0
-130 234 -99 0
-121 -181 -230 0
253 -185 -78 0
-102 -23 -63 0
-252 196 37 0
234 226 85 0
147 -197 -141 0
-201 23 248 0
-6 -164 -251 0
-225 22 -170 0
-103 224 -3 0
-137 257 210 0
-146 181 -87 0
118 42 -5 0
-255 137 45 0
-147 159 -172 0
-88 117 157 0
72 -115 -136 0
-199 -244 60 0
-61 67 -252 0
125 188 -64 0
-103 -146 170 0
-207 68 18 0
80 -15 160 0
110 80 -178 0
-244 14 -74 0
-77 -234 269 0
-42 -205 59 0
258 -11 135 0
-64 203 197 0
-23 225 27 0
-120 -76 148 0
-23 195 67 0
-182 160 -192 0
87 -249 38 0
-113 -233 -143 0
-201 204 -17 0
-110 -39 151 0
261 267 -49 0
-109 -227 52 0
93 89 -88 0
131 -263 -63 0
63 64 -86 0
13 180 244 0
248 -184 43 0
-190 254 115 0
-22 -261 9 0
270 138 130 0
-72 239 167 0
81 19 -114 0
32 50 97 0
214 -203 157 0
-159 -101 -83 0
140 -155 -10 0
-224 -256 -138 0
-23 136 122 0
140 -49 -219 0
45 236 -243 0
-44 125 -228 0
39 -60 -204 0
-85 211 103 0
22 -189 -174 0
-46 -264 122 0
105 90 169 0
-63 -206 -25 0
-174 248 -203 0
275 -197 -86 0
209 -220 143 0
270 231 -205 0
132 -228 -5 0
82 191 -119 0
-254 146 -50 0
143 47 102 0
121 172 241 0
63 -31 -21 0
55 -234 191 0
148 -22 91 0
51 -59 -147 0
117 151 -178 0
107 -230 101 0
266 8 -64 0
-33 -92 -76 0
102 268 -115 0
232 -199 -172 0
-156 -9 -54 0
214 -22 -207 0
22 228 -258 0
98 -160 -155 0
-72 131 -256 0
173 229 -164 0
79 -8 -221 0
113 3 76 0
57 24 35 0
144 -36 -178 0
108 -255 -243 0
95 230 103 0
-126 38 189 0
232 -24 -121 0
73 261 22 0
-247 -136 88 0
-87 103 -182 0
22 125 -50 0
88 -135 37 0
108 -200 206 0
-265 -88 -73 0
-145 -43 99 0
-102 185 -148 0
-117 10 -114 0
-147 145 -240 0
163 70 3 0
79 21 229 0
254 -203 -255 0
-64 84 -273 0
248 -206 40 0
49 191 -227 0
129 46 245 0
-208 156 40 0
218 -174 137 0
234 -67 -71 0
-195 -231 -213 0
133 52 -173 0
161 -271 -166 0
-8 -200 -39 0
45 -2 -83 0
-49 -83 27 0
71 246 -275 0
109 -193 222 0
-51 131 128 0
113 80 6 0
-25 -92 -248 0
-126 45 34 0
-123 229 -112 0
-33 20 -172 0
-102 86 -11 0
-114 64 98 0
5 183 -84 0
45 -254 -157 0
-127 27 209 0
87 -189 -196 0
-190 -29 116 0
-210 -23 231 0
-253 -191 196 0
-242 208 113 0
186 -142 -73 0
-80 -267 -153 0
-250 -184 -23 0
-64 -29 -8 0
-203 159 85 0
251 -132 45 0
-155 111 -50 0
240 273 -190 0
96 -104 126 0
-264 214 241 0
94 -90 201 0
34 -170 1 0
-62 -255 116 0
-168 96 -197 0
222 -7 61 0
-155 -5 225 0
204 21 -131 0
274 -33 258 0
175 -274 79 0
206 160 152 0
-196 181 -135 0
-196 -181 190 0
190 -271 258 0
-2 -196 263 0
48 82 -104 0
-35 -204 -50 0
176 -254 -160 0
-231 77 49 0
37 -260 228 0
-139 -206 37 0
-146 -189 -30 0
-266 -70 232 0
-188 -87 -172 0
62 -270 108 0
217 98 -124 0
-161 90 24 0
-230 109 206 0
-270 -10 -5 0
-170 -140 -214 0
-221 134 223 0
-257 -63 245 0
187 82 38 0
-74 -207 -69 0
-127 150 -228 0
-265 -211 72 0
-63 189 -95 0
247 -141 -257 0
-199 129 248 0
-19 154 -151 0
-168 252 -185 0
208 207 191 0
-177 -83 77 0
-28 -164 266 0
-10 -132 128 0
-159 -221 -88 0
80 -216 -99 0
158 241 199 0
-16 -171 -78 0
156 -134 -169 0
-114 37 -227 0
255 -118 -86 0
-13 -143 233 0
83 -86 -169 0
54 -183 105 0
-268 266 -107 0
222 126 143 0
214 -98 105 0
121 203 -143 0
45 166 -223 0
249 219 -66 0
80 -220 214 0
213 251 189 0
-16 -1 256 0
-18 188 169 0
44 -275 -83 0
212 -4 -60 0
207 -48 248 0
-190 -259 220 0
-46 264 -225 0
109 -238 -108 0
29 68 242 0
243 160 -30 0
-246 -60 -229 0
253 -163 229 0
-164 -159 91 0
-61 -62 -128 0
-185 258 50 0
87 81 -59 0
200 -11 260 0
-239 -112 216 0
164 122 -134 0
-188 -13 -216 0
-191 208 146 0
143 109 -208 0
182 -117 -41 0
-269 246 99 0
129 218 76 0
45 -160 180 0
-217 -226 -59 0
-66 91 84 0
14 -201 -144 0
106 35 113 0
-10 150 181 0
-142 -124 -100 0
131 -189 152 0
95 106 216 0
-238 200 245 0
-5 60 -1 0
84 71 -87 0
-56 108 -228 0
210 -259 -126 0
75 83 186 0
-9 -143 94 0
-211 134 175 0
169 -175 141 0
6 233 -110 0
242 -195 -150 0
52 -28 272 0
-256 14 157 0
227 43 -85 0
-222 274 -240 0
-108 -86 -202 0
137 181 -201 0
249 -170 211 0
161 242 44 0
-269 12 -145 0
-77 -78 37 0
-240 143 -197 0
-135 69 192 0
-60 -268 141 0
-166 -130 -10 0
261 159 113 0
-43 -238 114 0
118 -123 -33 0
-69 -178 110 0
66 -224 -214 0
-23 248 -178 0
83 201 114 0
227 -174 102 0
184 -76 6 0
-103 -201 -6 0
270 -98 17 0
77 -179 82 0
192 -247 -118 0
175 -41 105 0
-127 -133 -12 0
-51 -272 80 0
150 -26 -46 0
81 -260 60 0
-50 -242 85 0
-165 173 225 0
230 140 243 0
-217 -105 -160 0
48 9 72 0
255 229 13 0
45 210 -50 0
-174 265 -58 0
-127 120 237 0
-134 -223 -204 0
-206 27 -2 0
212 -273 177 0
63 -84 98 0
-151 78 239 0
-60 -135 -9 0
62 -99 135 0
-240 179 88 0
38 -49 117 0
-124 -88 26 0
-48 -124 -111 0
-88 -215 -19 0
-171 146 -96 0
-151 109 84 0
245 -31 -225 0
-21 216 -44 0
169 159 -132 0
86 262 7 0
-60 186 39 0
-241 -233 -242 0
-203 -155 103 0
86 220 98 0
-176 211 -50 0
185 -132 -222 0
152 -31 181 0
-100 198 38 0
-37 271 141 0
133 -30 -73 0
-41 -20 -214 0
-36 -71 -270 0
-172 -113 95 0
-194 -199 174 0
44 214 -19 0
222 178 219 0
2 -231 11 0
-167 157 -231 0
119 -109 -228 0
-185 -67 -41 0
102 99 268 0
-35 -67 238 0
-117 -270 206 0
-56 -14 152 0
167 216 130 0
-40 183 -118 0
42 -7 -186 0
11 -137 175 0
271 267 -17 0
-200 -53 -120 0
-8 200 -214 0
4 -143 212 0
-44 80 -188 0
-211 250 -71 0
-214 243 -31 0
134 -115 -177 0
-225 263 183 0
193 229 -155 0
-184 -153 -223 0
-136 -54 169 0
264 -114 1 0
-71 -262 13 0
97 250 -2 0
-69 70 -148 0
27 -81 -241 0
163 272 -87 0
198 -179 -40 0
-85 -242 203 0
-213 -240 -137 0
-57 73 -231 0
168 -181 -105 0
100 -177 -47 0
54 -235 -69 0
119 135 137 0
258 -243 26 0
-13 182 240 0
34 116 10 0
275 -176 -239 0
-65 -181 -41 0
-1 -94 117 0
-234 -39 -194 0
154 -187 244 0
49 118 17 0
-222 190 104 0
-225 -147 242 0
-147 181 -140 0
162 88 35 0
34 246 36 0
-111 132 -83 0
-91 -171 113 0
266 -199 -241 0
234 -139 222 0
61 -3 121 0
-246 -133 -52 0
194 19 -138 0
43 -148 254 0
-187 -30 -85 0
210 76 -257 0
244 -125 -12 0
92 139 -1 0
200 7 210 0
77 -260 -57 0
-158 222 243 0
-216 89 74 0
263 222 117 0
-209 -117 -245 0
-9 -234 -170 0
-186 49 269 0
225 14 121 0
-135 -127 -235 0
-265 192 -141 0
-17 -2 -236 0
-40 -218 -178 0
-179 150 -265 0
99 -20 139 0
-249 27 -124 0
-215 94 -265 0
46 162 -218 0
265 252 -148 0
168 -232 -52 0
-220 271 110 0
86 -275 231 0
137 -122 269 0
-258 17 99 0
275 46 -265 0
75 154 115 0
-157 -59 -35 0
-182 56 194 0
-80 225 -61 0
267 200 87 0
-96 -32 105 0
-25 -20 3 0
20 -179 -139 0
161 165 -114 0
-32 -176 15 0
-108 -236 174 0
-58 -179 -129 0
16 -135 80 0
58 20 -219 0
133 -14 -105 0
141 -72 217 0
-201 -15 -42 0
106 -171 209 0
192 129 275 0
44 -40 25 0
6 -176 -261 0
146 13 123 0
-58 120 -34 0
-204 -193 113 0
260 67 60 0
223 261 237 0
-102 -70 -51 0
-189 187 -13 0
-267 -197 -102 0
264 165 -194 0
98 249 141 0
201 -30 -39 0
250 251 -91 0
-134 87 -9 0
111 -186 -251 0
12 -238 56 0
-123 169 58 0
-215 172 -108 0
-228 145 94 0
-163 183 -252 0
64 233 -232 0
-49 176 22 0
44 -50 -51 0
59 -50 -65 0
-187 69 225 0
7 -88 10 0
11 -53 57 0
137 251 -230 0
-106 205 -17 0
210 140 -26 0
-7 69 -116 0
104 219 228 0
-102 -51 -239 0
135 -44 95 0
144 -12 -181 0
104 127 153 0
224 -173 53 0
159 230 -114 0
121 242 -82 0
-200 -61 -24 0
-272 -223 -209 0
247 53 114 0
102 -48 76 0
-26 -32 146 0
-89 -203 29 0
199 -8 -31 0
63 196 229 0
13 -64 216 0
40 58 -70 0
-175 -123 228 0
-70 2 -253 0
62 -245 165 0
-240 -102 -258 0
51 -25 -102 0
-231 -165 -21 0
149 -109 266 0
222 -76 87 0
228 122 -241 0
-3 -114 -93 0
192 135 -205 0
173 265 71 0
226 164 -211 0
-36 251 -146 0
42 -203 -209 0
-113 209 -239 0
95 -9 52 0
-64 -94 216 0
-110 208 -47 0
-56 -207 17 0
58 -24 -139 0
-148 261 -33 0
85 60 -66 0
-219 171 -213 0
-267 136 231 0
46 -165 -238 0
-24 -10 90 0
41 -14 -141 0
225 155 118 0
98 -223 -193 0
208 275 -164 0
141 -36 -177 0
-265 209 -222 0
-144 162 -102 0
184 145 -88 0
187 -201 -49 0
13 -265 -90 0
-234 28 178 0
-205 -45 -169 0
141 63 -87 0
119 174 -208 0
-161 -66 -268 0
-112 -166 -233 0
-121 153 191 0
-84 -80 15 0
216 -144 146 0
-253 54 134 0
242 231 42 0
-201 207 -81 0
237 90 -191 0
189 185 -193 0
-237 12 191 0
91 56 47 0
-135 88 196 0
170 -78 -134 0
77 1 -202 0
1 -67 -165 0
-90 -201 -263 0
1 -102 148 0
2 -199 236 0
115 -46 -131 0
-150 24 88 0
115 189 -1 0
223 147 272 0
-90 -146 47 0
-2 187 43 0
213 149 -14 0
-18 -90 83 0
24 -232 241 0
-41 36 101 0
-105 98 -87 0
-95 62 226 0
261 -102 -211 0
85 128 264 0
230 -68 131 0
269 -35 -272 0
181 -49 235 0
71 184 -29 0
-1 -177 -55 0
49 -37 18 0
185 90 -173 0
-253 54 216 0
-134 125 -244 0
-115 -221 -7 0
-9 230 -112 0
163 142 196 0
-192 159 -30 0
-231 153 144 0
-97 265 84 0
-198 201 -244 0
-166 111 -24 0
74 -60 197 0
-152 -218 -237 0
153 -179 -26 0
126 247 -254 0
-178 179 273 0
102 91 113 0
192 -44 -39 0
-263 185 -10 0
68 110 -273 0
-99 -196 36 0
-91 171 240 0
93 -192 132 0
-152 272 -212 0
-5 187 254 0
275 159 108 0
156 -219 -23 0
-11 -175 194 0
-234 -98 -223 0
108 249 -174 0
-270 -256 -5 0
-65 121 270 0
199 208 -8 0
-165 -67 -150 0
135 -54 70 0
-274 13 -271 0
-215 25 164 0
229 195 -11 0
-194 123 220 0
226 184 -117 0
-148 -216 91 0
126 -235 156 0
-130 -85 64 0
-56 -74 19 0
213 -26 145 0
68 51 258 0
-250 -22 -138 0
-45 -239 76 0
-90 -192 -22 0
243 268 44 0
-55 271 62 0
-256 120 -9 0
219 -202 171 0
-30 168 -22 0
-218 -151 230 0
-27 88 -213 0
66 -78 137 0
-138 -160 -85 0
-59 -234 -173 0
-88 84 13 0
-58 213 197 0
-10 -247 48 0
31 -205 246 0
-91 63 190 0
-14 -19 -219 0
-24 155 228 0
267 -119 208 0
-126 -162 -116 0
14 101 -139 0
-42 -172 -157 0
248 -87 -111 0
-38 112 55 0
253 -92 135 0
185 221 80 0
224 -159 158 0
183 155 51 0
243 182 178 0
185 -106 77 0
-253 117 -23 0
225 -237 219 0
207 2 -256 0
-108 221 217 0
148 -103 -229 0
-274 -171 16 0
51 -148 -34 0
258 -235 -51 0
46 -107 51 0
259 -253 46 0
187 -144 35 0
44 69 -117 0
-129 114 197 0
262 189 82 0
114 68 -161 0
77 198 -45 0
95 -8 131 0
-185 49 -100 0
62 -28 -252 0
72 -87 -25 0
-144 -271 -84 0
-89 122 133 0
-139 39 245 0
162 253 145 0
-68 243 163 0
