p cnf 275 1171
-234 171 226 0
17 47 169 0
-39 18 105 0
16 15 -186 0
124 -84 -161 0
-167 54 -179 0
-244 -151 70 0
-53 -61 205 0
-53 -48 -255 0
101 -131 215 0
126 -166 125 0
-49 158 -226 0
-51 -205 185 0
11 -218 112 0
48 -184 253 0
-215 80 188 0
23 -196 272 0
105 188 -233 0
20 -5 -15 0
-106 -113 234 0
229 -35 -176 0
53 269 166 0
113 -31 -237 0
-149 243 161 0
-106 -55 -19 0
-119 139 -167 0
-112 102 179 0
102 -125 -12 0
9 -54 114 0
105 15 48 0
192 -20 269 0
-103 -120 2 0
-74 -27 270 0
86 121 -172 0
-140 -65 93 0
68 50 19 0
-259 67 -140 0
76 -172 -3 0
-138 -100 109 0
-123 98 266 0
135 -1 209 0
-87 137 104 0
-239 33 135 0
215 -68 87 0
-171 116 275 0
173 81 -253 0
-76 273 52 0
215 -268 -6 0
-227 -141 -274 0
-23 -33 193 0
39 -229 246 0
-222 -275 55 0
31 157 76 0
15 -242 -75 0
-248 235 -231 0
-82 252 -111 0
-265 -142 -155 0
173 -39 -81 0
90 -147 104 0
207 -22 -47 0
93 96 -137 0
-145 42 -111 0
-196 74 -43 0
-244 -266 227 0
-30 -63 167 0
-203 -177 -249 0
145 190 -250 0
-161 -257 195 0
210 -54 79 0
-103 142 -123 0
-156 246 114 0
-235 176 209 0
105 -142 -145 0
-226 86 4 0
187 -245 -192 0
-57 -228 92 0
254 106 33 0
-253 53 -184 0
-59 -162 132 0
274 79 220 0
-209 137 27 0
-103 -142 258 0
-113 -70 192 0
49 7 -127 0
188 108 -131 0
163 -1 274 0
17 147 206 0
-3 234 36 0
112 -140 45 0
34 -186 -173 0
-51 -203 -26 0
-23 -266 231 0
238 -215 88 0
-152 -228 -83 0
126 -2 -233 0
-176 124 -155 0
-81 -60 73 0
251 -198 92 0
211 215 -121 0
-168 -144 83 0
117 -51 -86 0
-81 -15 -203 0
-15 90 127 0
101 202 254 0
-83 -275 -89 0
-238 -147 -182 0
-85 241 -66 0
-41 33 136 0
-268 159 47 0
207 202 142 0
-82 9 110 0
-250 -89 -173 0
75 -50 65 0
122 222 112 0
-117 -146 162 0
41 30 67 0
-150 -113 -268 0
-136 -40 219 0
-207 -39 250 0
39 148 197 0
-194 -161 -82 0
-140 164 95 0
231 -213 -12 0
-37 -125 -271 0
183 6 53 0
-21 153 -227 0
-172 186 -237 0
130 -47 209 0
-10 -203 108 0
242 121 30 0
195 -101 78 0
-104 -177 -151 0
-47 -220 -170 0
132 -180 97 0
121 29 138 0
226 -146 274 0
13 -133 -188 0
-2 30 -132 0
-53 -45 -126 0
187 111 265 0
-41 226 -120 0
113 4 93 0
-245 -196 -144 0
172 33 35 0
-160 23 -222 0
118 -59 194 0
89 -150 -197 0
46 -158 209 0
-73 246 -130 0
-42 -162 79 0
-175 126 -18 0
-209 -69 139 0
-82 -203 -185 0
146 -263 83 0
143 -205 49 0
-232 115 67 0
-166 77 -59 0
-229 -59 -230 0
158 -92 -215 0
149 92 -192 0
145 210 95 0
164 234 -132 0
264 -34 174 0
-155 -86 -257 0
-143 -198 -12 0
-38 -12 272 0
-224 112 -123 0
18 55 268 0
211 -41 191 0
208 -143 232 0
165 -270 145 0
-157 -202 70 0
113 267 -83 0
260 146 -271 0
-181 210 22 0
-135 147 69 0
-202 208 113 0
92 237 184 0
-2 111 -76 0
-263 121 -149 0
230 172 52 0
124 -74 -193 0
55 -118 -227 0
-63 113 -242 0
-29 -49 1 0
-86 -243 -257 0
41 -106 99 0
-109 39 82 0
-133 -37 83 0
271 -43 -208 0
197 -15 132 0
255 221 -114 0
-254 -57 -268 0
110 14 -273 0
192 252 -230 0
153 -86 266 0
-226 -274 164 0
264 -140 -274 0
24 48 -219 0
-53 248 257 0
79 241 99 0
134 114 110 0
88 95 128 0
-103 100 -228 0
28 -7 -247 0
127 -139 186 0
46 -63 40 0
-43 134 -234 0
-194 107 58 0
-132 180 -194 0
-269 124 -65 0
110 4 -180 0
131 -172 -173 0
-224 -269 270 0
254 267 220 0
274 -150 -13 0
-262 172 233 0
-13 184 146 0
74 -40 -136 0
-177 -162 103 0
-254 137 77 0
178 18 10 0
180 -182 2 0
-12 -46 -80 0
126 -22 -179 0
16 -188 -29 0
-70 202 144 0
-72 -187 -249 0
224 167 -120 0
194 9 -16 0
144 -176 -110 0
-208 -98 -133 0
243 90 -102 0
258 -93 -101 0
76 220 -99 0
136 -194 176 0
156 27 186 0
-174 -198 -248 0
-149 238 39 0
-80 88 -155 0
104 153 84 0
-167 115 18 0
-107 64 -152 0
195 50 116 0
-121 103 190 0
-241 205 -254 0
-257 -11 -143 0
2 219 237 0
-179 -263 -261 0
265 34 -248 0
171 247 28 0
193 -30 72 0
-108 -142 -238 0
15 149 -164 0
-176 19 240 0
-74 -172 -10 0
-203 -80 150 0
-136 261 -72 0
18 173 218 0
1 95 -135 0
7 -121 25 0
-228 -73 -262 0
166 -229 190 0
204 19 120 0
48 -73 -102 0
204 104 55 0
-65 77 -117 0
-105 143 144 0
108 -67 -171 0
-220 256 -254 0
110 -184 49 0
271 112 61 0
-150 44 -179 0
-92 30 -54 0
-271 -215 -225 0
54 9 19 0
100 -206 -116 0
229 -95 52 0
92 11 264 0
-13 37 189 0
114 241 -93 0
-67 -231 -125 0
167 -266 120 0
-243 -265 -220 0
-128 -225 74 0
170 102 199 0
-39 69 226 0
207 92 -85 0
157 266 -11 0
172 -229 -265 0
201 -149 109 0
-43 -196 -178 0
-140 137 233 0
-21 -188 -80 0
161 146 -241 0
184 247 220 0
-4 8 -169 0
99 50 -74 0
-57 206 86 0
-98 -273 -103 0
-63 51 172 0
-39 -186 35 0
-240 32 219 0
-238 164 42 0
-73 -137 -255 0
91 155 9 0
271 87 66 0
-184 -8 -224 0
-54 275 -193 0
-243 -53 261 0
87 -137 208 0
-73 259 -89 0
233 -40 228 0
-158 -190 227 0
76 181 -197 0
253 -158 209 0
-85 171 42 0
109 -194 112 0
-147 234 102 0
92 -85 161 0
78 148 -183 0
129 -42 -254 0
-51 174 -114 0
-181 -272 -83 0
61 205 166 0
-253 -123 -68 0
103 -171 120 0
-47 229 80 0
104 247 117 0
-111 223 -207 0
274 244 -96 0
-150 87 159 0
197 275 261 0
136 -46 -57 0
-193 31 74 0
222 26 -217 0
60 125 102 0
22 -19 73 0
124 90 -192 0
99 -35 -179 0
-190 -81 -106 0
-210 -191 -110 0
-47 134 -163 0
158 -176 -142 0
-174 26 -106 0
-58 207 -122 0
77 -242 -95 0
23 163 61 0
-235 141 -55 0
-218 158 250 0
-201 -274 -259 0
-157 -3 121 0
-61 117 -91 0
-272 104 -190 0
-266 76 254 0
-257 -242 123 0
122 -111 -237 0
-239 -166 -198 0
135 17 -224 0
141 -142 167 0
-44 -26 135 0
-24 41 172 0
151 194 9 0
103 149 153 0
-70 146 -196 0
-9 -143 147 0
50 179 203 0
200 -134 -43 0
30 239 184 0
-155 124 228 0
-239 27 260 0
180 263 -68 0
83 -73 -230 0
200 250 99 0
260 56 -211 0
10 35 -275 0
-39 104 148 0
-139 95 47 0
-65 191 210 0
-38 109 177 0
111 -167 -239 0
-228 -240 179 0
172 -103 107 0
203 111 8 0
-41 -200 -250 0
-140 -178 -105 0
-127 238 166 0
149 261 14 0
228 -198 -59 0
-99 195 160 0
275 184 71 0
-218 -195 -91 0
116 -239 148 0
222 -159 -139 0
91 194 -224 0
11 136 104 0
-236 87 -71 0
-69 -73 126 0
-80 -41 -63 0
-69 -160 -112 0
244 194 104 0
-67 -87 -234 0
247 -175 172 0
7 193 -200 0
133 252 92 0
163 -4 -79 0
37 -192 41 0
-161 -122 80 0
124 77 -248 0
-148 81 -45 0
22 -33 62 0
13 273 147 0
-11 -70 -232 0
-8 117 187 0
7 -8 -40 0
-182 223 80 0
-68 107 -16 0
-32 -60 -97 0
228 219 82 0
-234 -153 43 0
53 -28 201 0
-78 -47 255 0
-136 -68 -232 0
-208 -233 131 0
102 -11 -76 0
-265 96 44 0
267 -231 124 0
-236 270 256 0
-1 -217 225 0
-45 228 261 0
31 -218 167 0
-220 227 155 0
-38 228 -161 0
145 19 265 0
-240 163 5 0
-185 18 -220 0
220 -8 -210 0
-66 -251 165 0
193 74 -109 0
-10 -185 -39 0
165 264 113 0
114 198 14 0
-125 257 63 0
217 -186 171 0
88 123 29 0
160 156 203 0
228 -25 94 0
69 -254 117 0
219 -261 -141 0
268 -176 223 0
-5 -252 239 0
115 29 93 0
240 258 165 0
59 68 166 0
-228 -195 -179 0
-62 148 -108 0
-102 -166 -33 0
-31 -187 -242 0
-131 -135 -240 0
-11 -204 52 0
78 -242 63 0
31 -241 118 0
-73 31 -33 0
-81 -263 -3 0
-44 -84 -122 0
-18 -93 101 0
-237 125 57 0
253 12 -147 0
36 -243 139 0
-248 -26 -165 0
60 217 92 0
203 -4 -197 0
-181 245 -35 0
-64 -258 -185 0
-139 -88 250 0
49 -201 191 0
-46 -212 51 0
-203 -115 -31 0
30 -265 -221 0
-232 -4 21 0
-71 209 -34 0
-170 272 87 0
-262 106 -96 0
82 -2 -18 0
108 147 258 0
76 192 -254 0
-251 185 -254 0
35 -184 182 0
64 57 -248 0
-101 -8 84 0
71 -142 242 0
226 -128 -35 0
-249 184 -203 0
182 35 259 0
-86 33 218 0
-184 3 -238 0
243 153 234 0
-163 246 -266 0
80 145 154 0
-147 -69 -201 0
-222 -216 156 0
233 78 -254 0
-128 245 79 0
-181 -226 -263 0
240 223 190 0
130 -166 180 0
43 -122 209 0
-61 77 11 0
147 -70 183 0
249 -193 -88 0
-137 186 204 0
-260 247 -104 0
163 -100 -52 0
163 -83 -275 0
-79 -22 -182 0
119 -258 48 0
184 190 -199 0
-146 13 -182 0
45 21 -207 0
-230 -170 -120 0
15 -274 -119 0
-148 160 -155 0
-260 -167 270 0
-82 -194 -91 0
-223 246 -63 0
-88 177 -49 0
-70 209 59 0
238 -41 273 0
-210 96 129 0
-135 -86 -51 0
-97 274 -21 0
-115 -77 -103 0
-61 16 141 0
-243 33 -181 0
-134 -206 82 0
-138 42 -183 0
-222 71 130 0
-256 -42 -15 0
-49 161 257 0
228 -84 -26 0
207 -191 213 0
259 -137 263 0
19 228 -50 0
212 146 115 0
82 84 -5 0
31 -164 -108 0
-11 -229 -155 0
-43 109 -100 0
70 -266 -120 0
-249 -26 259 0
168 -114 -84 0
256 -248 180 0
265 -107 173 0
-9 117 -119 0
-87 57 -229 0
174 -26 -194 0
-258 256 94 0
118 241 -13 0
211 36 223 0
185 31 -251 0
-208 -61 -86 0
8 -64 55 0
118 40 127 0
-271 93 174 0
210 115 55 0
243 -170 -134 0
-222 126 -255 0
210 -55 -85 0
-8 -173 195 0
-8 -165 -9 0
-68 -197 16 0
-106 -210 145 0
-43 -178 -157 0
86 10 69 0
-79 -163 -6 0
-117 -31 -244 0
228 -189 -125 0
12 232 155 0
19 147 273 0
-12 -18 138 0
-269 -236 -261 0
-248 -21 -197 0
236 -182 150 0
-108 -25 -145 0
-103 -25 -185 0
-211 -152 -85 0
-269 235 -7 0
225 193 -224 0
197 -35 174 0
-253 216 222 0
-251 133 85 0
84 137 134 0
179 -26 -168 0
-21 -61 254 0
120 -79 -255 0
249 9 -227 0
32 8 235 0
-125 -230 -67 0
-117 -213 123 0
103 218 -25 0
-251 205 3 0
16 111 71 0
8 87 125 0
-196 250 99 0
-125 25 -94 0
-145 263 -36 0
53 154 -259 0
63 190 256 0
117 85 128 0
-270 163 -154 0
-271 250 -81 0
241 106 -46 0
-52 194 -171 0
239 -136 233 0
261 -15 32 0
221 -45 83 0
-65 -121 86 0
249 70 -97 0
-191 49 -87 0
-100 -275 126 0
163 -238 -103 0
-72 15 202 0
-165 250 -56 0
35 223 119 0
44 102 -2 0
223 162 130 0
163 -223 250 0
-131 153 169 0
163 113 80 0
245 88 56 0
114 -133 -244 0
28 161 -137 0
78 51 256 0
86 125 -264 0
-15 206 -240 0
-160 158 -178 0
-215 97 -59 0
-244 223 25 0
78 193 -124 0
-119 -121 202 0
-82 85 30 0
-164 263 -17 0
114 -250 175 0
80 -38 -255 0
-75 -90 211 0
-76 35 16 0
125 -43 -195 0
-54 191 84 0
-219 184 250 0
215 117 236 0
-171 -228 102 0
109 -83 17 0
35 111 -42 0
-89 -45 38 0
-193 82 74 0
-193 -90 206 0
-187 60 237 0
-176 -46 -74 0
158 -222 -65 0
-262 159 -238 0
98 63 66 0
-106 116 -30 0
53 58 251 0
-30 -179 73 0
76 -149 -180 0
-88 48 -93 0
-32 164 77 0
140 -251 -255 0
-237 238 -146 0
-271 64 206 0
-179 101 83 0
-195 -81 -223 0
-109 -124 82 0
-245 85 -91 0
-56 271 -212 0
105 -83 9 0
-139 104 -212 0
42 55 -238 0
-206 -121 -13 0
-158 177 -26 0
255 -80 -157 0
199 93 -155 0
-18 -191 102 0
-83 -157 -253 0
241 -235 -38 0
245 266 -154 0
17 -211 110 0
186 -161 -212 0
-86 -114 233 0
31 116 -191 0
96 122 -188 0
-18 -177 -20 0
-9 -98 -1 0
219 8 -7 0
75 -54 74 0
99 36 92 0
269 217 -79 0
249 30 231 0
72 -92 194 0
212 -18 153 0
237 -229 264 0
40 -186 -237 0
-130 137 172 0
-118 -180 -183 0
78 238 -186 0
123 -270 88 0
-192 -25 122 0
275 -243 203 0
-105 212 240 0
-238 73 -220 0
-85 6 -175 0
-246 -152 -216 0
-248 -266 -268 0
94 -241 99 0
248 102 -21 0
70 219 245 0
8 -190 -165 0
-201 -183 -161 0
25 -148 209 0
-249 -10 212 0
124 242 68 0
-171 108 -97 0
-16 179 -103 0
41 88 219 0
-72 -92 112 0
49 149 142 0
184 64 -212 0
224 71 -100 0
239 96 -181 0
-119 -255 2 0
232 128 140 0
155 -248 -116 0
-210 93 -168 0
134 116 -49 0
218 3 99 0
142 126 -40 0
168 151 -76 0
-107 -7 -54 0
56 120 -144 0
-137 -261 189 0
-38 -233 13 0
32 -61 -65 0
96 1 267 0
-61 -206 -86 0
259 231 186 0
186 121 42 0
-188 -181 -9 0
140 -126 269 0
1 247 209 0
42 80 -31 0
253 146 72 0
-247 145 -242 0
246 -157 -41 0
-244 -157 -173 0
205 -217 -34 0
-275 136 -213 0
-113 -18 125 0
-161 -115 84 0
-154 268 73 0
-147 -19 -73 0
201 -109 259 0
49 266 137 0
-33 238 -100 0
-78 -113 221 0
50 6 -155 0
11 -8 -12 0
-26 -27 35 0
29 119 120 0
-232 -148 110 0
-58 78 32 0
-72 -263 153 0
-165 91 53 0
204 -78 -137 0
-104 105 235 0
17 -14 -258 0
229 207 121 0
-41 166 -250 0
10 182 259 0
-257 267 111 0
-150 -114 144 0
182 -225 57 0
-255 196 273 0
-199 -42 -215 0
-236 -181 -93 0
15 249 131 0
73 151 18 0
-194 250 40 0
-30 -142 -193 0
-241 36 129 0
-10 8 154 0
112 204 -50 0
-149 153 192 0
111 193 -30 0
-155 -62 -97 0
-155 -89 -237 0
-46 -204 123 0
196 135 115 0
-54 271 124 0
-176 -65 146 0
21 -188 -96 0
-143 -169 -14 0
-150 -11 204 0
-236 32 -209 0
-100 52 -56 0
-67 190 -13 0
-119 -230 -259 0
225 -37 85 0
-134 -2 3 0
-236 121 -135 0
-83 -12 -162 0
120 92 271 0
-18 -104 230 0
169 -172 -149 0
8 156 -115 0
-107 264 -49 0
-253 -217 267 0
23 258 -81 0
-42 159 -183 0
212 260 -34 0
-2 -90 206 0
-61 -240 -12 0
-225 -43 -83 0
181 213 -222 0
222 -99 -219 0
212 132 50 0
1 -34 42 0
-168 -236 -97 0
6 -101 -87 0
-116 -59 -76 0
-64 -201 238 0
-99 -164 -192 0
156 -106 38 0
16 -139 -249 0
-20 -183 218 0
-133 -60 -77 0
-260 65 -6 0
236 108 -141 0
-207 -51 19 0
260 -169 -149 0
-15 200 -17 0
-83 -52 158 0
-177 -197 169 0
-174 -212 74 0
53 -192 9 0
258 99 -36 0
-102 82 -245 0
-167 -222 -128 0
131 -184 -264 0
255 -127 -230 0
211 -45 33 0
37 -93 250 0
-23 209 -80 0
11 181 -34 0
250 -100 -83 0
97 2 133 0
-183 270 -109 0
-58 60 -151 0
-192 60 187 0
13 -22 156 0
202 -95 -191 0
184 69 -149 0
-106 -214 -255 0
-127 149 239 0
170 -79 258 0
201 146 -89 0
271 -127 -235 0
-169 -154 -78 0
258 130 219 0
252 -176 -212 0
228 137 -193 0
64 165 -189 0
106 -98 -148 0
-155 -178 -232 0
-220 71 -4 0
89 -52 -161 0
-51 -135 -184 0
-240 35 -134 0
-37 -155 167 0
266 57 -1 0
-234 158 -21 0
203 -87 139 0
-92 127 -59 0
-158 -49 150 0
94 167 -75 0
64 151 145 0
158 213 98 0
58 194 251 0
165 49 28 0
262 116 230 0
143 -215 -226 0
245 200 -53 0
-248 15 -255 0
87 90 247 0
-10 214 -249 0
192 121 -185 0
-198 -259 56 0
169 171 11 0
-12 185 -253 0
4 -24 171 0
-121 181 -126 0
-235 -160 -55 0
-264 -239 31 0
43 -202 173 0
-128 258 -238 0
-20 -251 -180 0
224 -179 250 0
-14 -167 89 0
-20 149 -51 0
61 -249 -118 0
5 -237 -13 0
152 73 -243 0
-213 -208 -32 0
77 203 -211 0
-258 142 -205 0
33 181 -137 0
151 -259 226 0
-26 24 268 0
112 37 88 0
82 119 274 0
180 -247 15 0
-145 68 67 0
-95 -272 -46 0
125 -8 271 0
261 -218 -69 0
-40 -167 10 0
11 186 -263 0
-212 -247 22 0
-93 -113 67 0
-126 -175 36 0
-195 62 -44 0
-244 271 226 0
-186 33 251 0
178 48 -179 0
-152 59 -220 0
47 88 90 0
269 -36 124 0
-121 -237 -156 0
29 38 -257 0
106 -265 -50 0
213 230 26 0
73 52 -42 0
56 -50 10 0
-68 202 -145 0
42 -27 -70 0
197 -248 179 0
226 -207 -56 0
-132 124 32 0
239 -226 -144 0
157 71 118 0
-245 65 11 0
-236 -129 37 0
-3 19 44 0
154 129 197 0
131 101 176 0
-128 -178 41 0
-55 -94 -101 0
70 -164 -213 0
40 265 248 0
188 -240 263 0
133 -214 -103 0
-197 112 -158 0
121 44 -18 0
96 -4 -109 0
190 91 -151 0
262 138 -105 0
78 -13 29 0
73 212 -210 0
-69 48 -67 0
29 80 102 0
-195 -103 -98 0
250 -166 -168 0
-101 111 261 0
-125 126 -225 0
-172 -217 -31 0
-248 -110 170 0
-268 40 -257 0
178 -57 109 0
259 -174 -208 0
-89 209 107 0
96 -260 -209 0
-164 49 -98 0
-158 -3 -25 0
240 -77 -183 0
-258 -27 -180 0
44 67 267 0
-123 -165 -275 0
259 126 -119 0
-251 -7 -37 0
188 -63 -178 0
-127 -96 82 0
-167 -95 27 0
-90 -192 -223 0
-130 -50 30 0
-126 -166 38 0
-25 -271 -9 0
146 183 251 0
-30 96 119 0
195 -242 -236 0
180 -2 -16 0
-118 230 -102 0
-173 256 -140 0
-143 4 -12 0
-97 21 79 0
184 -212 -6 0
264 3 -57 0
-105 -114 17 0
-166 189 17 0
208 51 -148 0
229 23 -191 0
255 118 84 0
-275 -238 269 0
250 32 41 0
-223 -243 222 0
-41 -236 249 0
-229 -181 -239 0
54 50 249 0
13 -114 -77 0
-224 -134 -145 0
214 66 37 0
-71 67 -148 0
-107 7 82 0
-10 -201 -66 0
136 -137 -185 0
164 142 -75 0
275 -159 258 0
-217 -105 -98 0
-257 -47 89 0
-176 70 -89 0
-268 52 240 0
-26 -232 103 0
170 233 -193 0
-178 -202 165 0
172 120 198 0
274 215 20 0
-126 12 122 0
177 230 -105 0
129 -249 -248 0
-161 89 95 0
69 -167 91 0
127 -173 -90 0
-275 -147 113 0
-160 267 -120 0
-55 237 -180 0
-109 151 57 0
261 233 221 0
-36 -66 234 0
19 -125 239 0
155 107 -55 0
-197 237 -188 0
-77 -70 99 0
-110 -81 74 0
-8 -253 17 0
-49 32 100 0
158 -144 67 0
-126 -109 -127 0
227 -108 150 0
-62 -124 44 0
-246 25 -47 0
-167 -137 -134 0
125 -110 -222 0
48 -127 38 0
-123 -12 219 0
-78 240 -263 0
-152 49 136 0
-165 205 -223 0
216 -228 -196 0
38 -260 184 0
-170 224 181 0
-268 -248 57 0
-122 21 140 0
26 -224 146 0
-106 72 -34 0
185 97 222 0
-166 -156 -271 0
-149 108 -274 0
-160 254 275 0
266 33 -8 0
244 158 154 0
113 9 266 0
78 -159 -204 0
76 -92 137 0
45 -275 70 0
205 -98 66 0
68 -139 -121 0
-198 -180 -137 0
-124 209 -93 0
220 222 -23 0
212 -202 -136 0
-193 -215 -106 0
-27 265 -140 0
-235 261 -121 0
-77 212 -48 0
7 -226 -59 0
-170 25 -146 0
-54 240 -6 0
-247 -65 129 0
102 -154 101 0
142 -254 113 0
-114 167 -239 0
-165 215 -36 0
-172 17 -150 0
273 -29 267 0
67 50 -193 0
36 61 80 0
-172 -38 117 0
141 152 -115 0
149 -268 -167 0
-161 -45 155 0
-6 -26 58 0
-231 247 116 0
39 53 -79 0
-46 -87 -106 0
-155 -139 184 0
-209 43 -236 0
87 -245 33 0
72 -209 -241 0
-170 70 -90 0
-206 -189 -142 0
41 -137 141 0
79 100 -125 0
158 169 -232 0
23 -261 36 0
54 -103 256 0
-202 161 -263 0
-171 253 263 0
225 272 -107 0
148 -218 268 0
-255 2 -272 0
139 -270 204 0
-176 215 -93 0
-19 97 -150 0
-44 -54 80 0
-195 -21 -108 0
-33 -208 -161 0
-145 23 96 0
243 -187 158 0
164 -274 5 0
-57 183 81 0
97 -143 -120 0
-192 34 2 0
78 102 -141 0
-104 -248 252 0
213 -200 148 0
-69 -202 192 0
107 -176 -67 0
-161 -117 41 0
-194 262 153 0
-264 48 -244 0
162 -92 -129 0
-196 -55 -69 0
-269 -226 -105 0
-119 -194 137 0
214 275 -84 0
52 96 -121 0
148 94 127 0
140 39 243 0
72 138 148 0
-156 214 152 0
232 224 -265 0
117 -219 -156 0
43 -263 -87 0
-267 -132 -192 0
-154 -31 211 0
-257 202 204 0
197 127 227 0
234 28 150 0
240 -74 170 0
-265 221 -67 0
-133 267 -190 0
204 -265 21 0
229 -212 253 0
