p cnf 275 1171
-51 -233 193 0
253 79 -151 0
14 193 -169 0
-152 -95 123 0
237 69 208 0
-247 62 166 0
-34 -218 -121 0
158 75 150 0
-200 -9 -181 0
241 81 20 0
259 43 71 0
-80 -231 207 0
186 -275 -182 0
109 193 187 0
-59 274 93 0
-80 -274 137 0
100 -180 -146 0
-164 210 28 0
46 12 230 0
82 203 268 0
25 -59 -199 0
43 102 -217 0
-14 51 57 0
43 16 -275 0
135 19 233 0
-16 7 266 0
-223 -170 -67 0
-132 -142 16 0
-203 -139 256 0
252 -190 197 0
-25 236 28 0
-219 -242 -157 0
168 201 82 0
126 183 132 0
153 116 -108 0
155 -110 -222 0
128 -204 193 0
223 -69 79 0
-186 8 42 0
142 44 -42 0
-94 -229 -103 0
186 -194 -14 0
196 -21 150 0
-115 113 58 0
265 -54 -187 0
-93 17 -263 0
-122 202 -183 0
60 82 16 0
198 -43 -56 0
-60 10 -162 0
174 194 6 0
-40 104 117 0
18 -29 -102 0
-94 151 83 0
-103 -41 -157 0
257 -212 -186 0
-56 17 150 0
-59 -194 -254 0
183 -186 -35 0
127 5 -89 0
49 89 163 0
129 233 -131 0
105 -87 119 0
17 120 190 0
84 23 -2 0
90 259 -195 0
16 -121 -221 0
5 -14 193 0
217 -206 -87 0
7 271 -173 0
258 169 38 0
-197 239 -116 0
107 -268 -39 0
-134 130 -15 0
84 -26 -124 0
-23 -261 265 0
-175 271 -237 0
145 67 208 0
-251 257 148 0
-130 -198 19 0
-149 213 21 0
-117 -256 273 0
162 -96 -98 0
-148 47 -14 0
153 242 158 0
-194 -18 -31 0
261 -108 157 0
-58 -135 -191 0
64 -25 -160 0
99 -257 7 0
-246 230 43 0
-274 -266 -201 0
80 259 -96 0
-15 54 -75 0
-146 -140 -213 0
-102 122 -195 0
-214 -253 220 0
139 110 64 0
-199 -84 -196 0
-3 -273 19 0
-212 91 62 0
267 -45 -55 0
168 270 213 0
-48 198 -124 0
-53 208 -210 0
-137 -96 39 0
-103 -242 -168 0
-271 237 232 0
-44 -146 -179 0
165 7 129 0
-197 243 68 0
-45 -271 -133 0
79 173 -271 0
-108 213 34 0
51 -53 -205 0
243 222 -40 0
-112 247 -164 0
91 -97 85 0
252 83 183 0
-212 120 -218 0
163 247 -113 0
-73 29 69 0
-23 260 -201 0
42 222 6 0
119 74 209 0
239 -68 230 0
248 -188 161 0
-231 -37 -241 0
257 -247 228 0
205 166 119 0
70 186 24 0
133 -61 254 0
64 24 -191 0
212 -152 -79 0
74 170 -29 0
-40 90 -132 0
251 68 -211 0
160 1 -97 0
-169 254 -221 0
-191 251 145 0
-201 177 240 0
187 144 227 0
-50 -154 60 0
117 -267 123 0
4 32 -79 0
-64 -271 177 0
-204 -74 214 0
-178 157 145 0
-193 -58 -108 0
106 152 -54 0
-52 -251 270 0
46 -161 43 0
-62 231 -185 0
235 216 -107 0
-139 -206 97 0
248 -203 3 0
100 62 269 0
-119 -196 -218 0
-265 14 24 0
226 32 -93 0
269 113 -225 0
-261 -69 -136 0
253 77 241 0
-151 77 19 0
55 -2 92 0
-200 -110 -246 0
98 -170 163 0
84 -245 47 0
-216 -245 -132 0
-136 99 -262 0
13 190 -97 0
120 -178 163 0
234 223 134 0
-29 112 -20 0
166 110 -34 0
-105 -125 236 0
185 -215 22 0
68 67 99 0
262 -56 241 0
208 162 -131 0
-48 195 25 0
-75 135 199 0
-159 -86 -149 0
239 -242 -164 0
216 -273 -80 0
-79 -22 140 0
194 -177 109 0
7 149 -224 0
50 161 -212 0
-205 -209 229 0
-164 -230 -35 0
114 -16 11 0
-232 -48 125 0
243 -39 -256 0
88 -171 -90 0
-136 155 210 0
-265 193 -29 0
-43 242 213 0
-19 -44 -194 0
-108 -41 23 0
173 -108 -218 0
93 58 -207 0
-255 -110 179 0
108 192 264 0
185 -97 -62 0
16 194 -7 0
157 4 -166 0
66 -36 -113 0
146 244 256 0
139 225 -23 0
-39 261 70 0
104 211 -91 0
-132 14 -216 0
137 -249 167 0
-143 105 189 0
112 65 -223 0
-52 -59 -163 0
232 274 52 0
-216 -272 211 0
-61 -176 -268 0
35 -141 50 0
-176 170 114 0
-101 88 -81 0
-84 76 271 0
-227 112 134 0
164 -212 -175 0
64 -41 -34 0
-75 -7 149 0
170 -244 -151 0
255 46 204 0
62 -272 -86 0
-60 24 -117 0
-135 -120 217 0
258 126 -48 0
-6 100 -78 0
-22 29 -243 0
-83 34 -155 0
222 87 197 0
91 -116 -50 0
-245 -165 -249 0
87 -11 -43 0
-27 -228 -187 0
-31 215 14 0
38 169 30 0
88 -183 -47 0
159 -79 -266 0
-68 -167 4 0
-183 62 -132 0
-127 -140 118 0
-9 -244 -260 0
-223 -224 141 0
-187 -53 267 0
-86 -130 4 0
-177 -181 239 0
259 166 69 0
-234 -160 136 0
-99 275 164 0
10 247 91 0
194 71 254 0
-179 47 92 0
45 47 -234 0
35 23 -65 0
222 -31 -238 0
226 142 198 0
-237 -165 156 0
264 44 -172 0
153 60 -200 0
272 241 264 0
-252 262 -263 0
174 27 -39 0
52 -53 -194 0
243 -131 171 0
267 -46 270 0
66 -253 117 0
242 221 12 0
118 -78 250 0
-30 174 -10 0
261 157 177 0
31 73 -102 0
-73 254 -121 0
13 -203 71 0
155 -85 198 0
-43 265 108 0
196 187 37 0
-97 -14 -218 0
-214 -23 -110 0
-61 -237 -206 0
91 201 -17 0
-155 -179 -150 0
-253 238 -272 0
25 -128 -144 0
-244 -145 -227 0
168 268 205 0
-61 220 85 0
-232 177 -69 0
-207 164 -236 0
-92 252 109 0
-139 117 -38 0
215 -239 46 0
249 17 186 0
-70 189 110 0
-262 75 -40 0
-86 -129 -192 0
-225 3 84 0
-136 -203 -141 0
-27 -238 -126 0
69 -49 -140 0
223 -109 97 0
91 128 -26 0
-30 -93 -219 0
-89 -114 -273 0
96 215 182 0
-228 -99 55 0
108 25 -162 0
-147 -83 -162 0
-174 171 -250 0
273 110 -229 0
-46 197 68 0
-75 -192 -243 0
32 207 246 0
69 269 -169 0
103 -264 260 0
62 -187 10 0
4 68 201 0
57 -246 228 0
144 -198 -155 0
163 -20 195 0
-260 -81 184 0
82 -38 -149 0
-101 -165 110 0
192 265 -173 0
-72 -232 -265 0
91 111 59 0
33 -253 269 0
-94 -51 179 0
-52 36 -116 0
-229 -158 -71 0
170 -30 168 0
203 -190 105 0
-92 -252 -56 0
-227 -29 -70 0
-141 -2 -138 0
203 213 58 0
-273 -217 43 0
199 219 -62 0
-273 -100 -247 0
125 42 48 0
-151 208 -239 0
-200 -28 27 0
13 161 136 0
108 26 -165 0
-85 250 -178 0
-120 -34 269 0
75 108 15 0
254 226 -208 0
-225 -76 -213 0
262 -154 -233 0
-145 -219 105 0
50 247 36 0
180 -173 31 0
-162 -140 -133 0
-261 -196 -54 0
-235 128 130 0
183 -120 -210 0
18 212 49 0
-7 -226 14 0
202 145 26 0
15 73 -30 0
-252 107 -270 0
-143 -113 150 0
-31 198 223 0
-1 115 -179 0
21 -203 200 0
-160 -164 257 0
72 2 -99 0
16 -164 225 0
-168 247 130 0
-89 -197 34 0
255 -87 -274 0
-262 7 -224 0
51 -41 216 0
-81 -133 263 0
160 262 -51 0
-59 224 -235 0
-241 58 144 0
40 -260 -24 0
-56 -87 -73 0
83 13 17 0
128 -250 -173 0
104 220 -189 0
183 -28 246 0
57 -18 48 0
-116 96 -195 0
-106 191 121 0
-37 -181 24 0
-217 -252 -122 0
125 8 110 0
237 47 260 0
131 145 -41 0
-55 52 -29 0
-31 -219 112 0
-86 266 106 0
251 -103 -197 0
-72 140 201 0
-51 -125 -176 0
36 -195 -46 0
126 -84 -242 0
78 -2 20 0
114 146 264 0
75 -200 99 0
31 -39 -219 0
156 -80 9 0
-164 123 144 0
-270 -241 210 0
-90 211 -190 0
260 -7 -205 0
24 -117 213 0
-132 -243 202 0
184 112 49 0
267 -266 -116 0
131 -222 -63 0
246 108 207 0
239 -193 200 0
-32 87 18 0
136 -164 -168 0
-135 141 173 0
-147 136 124 0
-264 140 50 0
139 -236 -187 0
-263 -175 -66 0
48 275 -112 0
-273 -65 96 0
-131 -66 109 0
-40 188 7 0
9 207 -28 0
-105 -205 213 0
-202 -266 -73 0
50 183 11 0
51 244 -85 0
-68 275 170 0
249 167 5 0
106 79 71 0
-90 273 128 0
96 220 -210 0
-231 -97 -53 0
163 -160 139 0
-191 229 -25 0
-10 174 146 0
-130 203 107 0
75 112 243 0
53 -60 209 0
267 -238 -77 0
-219 220 -151 0
265 -18 44 0
-257 229 -247 0
274 21 -211 0
153 -213 89 0
-56 101 -241 0
179 17 242 0
165 99 -83 0
-30 -24 -46 0
193 -169 153 0
-171 -153 23 0
184 -232 -255 0
-67 77 91 0
33 111 -196 0
166 -249 187 0
-197 -74 92 0
44 -20 182 0
177 -227 223 0
-163 -139 -84 0
208 -174 -170 0
-23 118 -110 0
51 -261 106 0
274 270 -251 0
123 259 -65 0
-35 85 234 0
-183 136 117 0
22 207 -73 0
-132 94 -127 0
-134 -97 -92 0
255 -137 159 0
141 193 245 0
70 164 258 0
161 25 -189 0
-110 71 70 0
144 -40 45 0
-114 -115 -1 0
-261 -55 -94 0
251 37 -193 0
247 -216 258 0
47 245 -260 0
-14 195 -18 0
190 -96 -85 0
-166 125 -41 0
-266 -212 -119 0
-267 -107 185 0
-229 182 195 0
-40 -171 135 0
60 -34 -45 0
-177 87 -234 0
91 -239 227 0
94 230 265 0
226 -61 -55 0
-218 2 -94 0
100 -124 -183 0
171 61 -186 0
217 81 -253 0
-124 43 -115 0
-45 95 -17 0
258 28 267 0
-181 128 1 0
204 -81 89 0
143 33 244 0
-133 -17 -59 0
93 57 -2 0
89 -63 228 0
106 74 40 0
263 137 -206 0
-269 -213 -235 0
69 162 137 0
-122 -153 -23 0
-265 143 -65 0
270 -167 -4 0
-209 47 -232 0
-33 -213 -98 0
-119 118 167 0
-164 82 245 0
-203 86 -54 0
243 -269 -72 0
171 -235 84 0
-100 -184 -207 0
-53 136 -115 0
151 135 -267 0
275 118 -248 0
108 -123 -199 0
-242 -259 -91 0
-109 -250 -241 0
-173 142 -23 0
28 -217 -123 0
193 144 -211 0
119 83 268 0
27 -220 113 0
189 -75 135 0
180 -119 -187 0
9 -149 -94 0
183 -22 -246 0
-119 -98 -159 0
89 -163 182 0
41 3 195 0
2 -112 220 0
266 -128 180 0
-144 -59 162 0
-193 111 -87 0
-164 -262 -116 0
-199 81 265 0
-198 201 -143 0
-4 62 -103 0
-29 264 -253 0
-230 35 251 0
149 -130 82 0
-193 -178 254 0
-204 149 220 0
-252 -210 28 0
-161 18 80 0
-159 -32 -92 0
25 -223 -122 0
246 157 31 0
74 204 126 0
172 86 213 0
-56 -151 -137 0
-81 95 139 0
-254 32 168 0
206 83 -198 0
197 257 246 0
215 55 -183 0
-116 107 258 0
184 249 -197 0
-266 -30 20 0
95 44 237 0
-250 236 56 0
-19 -113 -151 0
33 258 -109 0
80 -144 -59 0
-251 -198 121 0
-274 194 -29 0
48 -125 -73 0
-136 52 -96 0
-10 -65 -30 0
77 -271 28 0
-81 214 100 0
252 59 207 0
193 45 -90 0
55 205 32 0
184 166 108 0
123 140 -80 0
188 97 -143 0
-66 -236 -205 0
153 -104 -25 0
-55 158 253 0
-57 180 39 0
58 -268 274 0
239 111 234 0
19 132 206 0
4 -195 -266 0
-55 -117 -209 0
91 -192 20 0
-198 28 -14 0
8 100 -65 0
-80 -274 -196 0
103 -1 -66 0
178 121 -79 0
-37 135 -93 0
52 -121 -22 0
115 -31 177 0
244 111 130 0
-181 151 -212 0
58 252 25 0
-191 -240 -232 0
-246 244 250 0
-269 -56 94 0
196 -126 -18 0
-79 254 275 0
-148 -23 -195 0
-178 233 -137 0
162 -180 244 0
-14 -189 -58 0
244 -270 -130 0
120 219 -82 0
-197 -228 169 0
131 -78 173 0
27 -240 -81 0
-133 -34 69 0
94 201 -16 0
-35 24 161 0
81 229 94 0
-121 73 145 0
-80 196 121 0
-48 121 136 0
-217 -216 43 0
1 232 -97 0
-100 207 -205 0
13 -65 242 0
-231 -226 -75 0
-70 -198 238 0
227 12 -229 0
-130 -246 162 0
47 -225 150 0
-169 -218 114 0
-138 143 89 0
227 -272 -247 0
103 15 -61 0
186 -58 215 0
251 232 -244 0
8 57 -55 0
-115 219 202 0
243 46 -41 0
-182 -119 243 0
27 235 -152 0
195 -152 -196 0
-108 -10 -210 0
-258 263 214 0
184 92 -8 0
202 4 237 0
212 143 -230 0
-123 -76 -38 0
138 96 233 0
-67 261 192 0
-149 -150 176 0
28 140 -33 0
-59 67 -150 0
189 -101 -127 0
199 180 23 0
-226 -151 -69 0
246 -134 127 0
100 -96 230 0
167 -164 149 0
-240 43 -109 0
48 38 169 0
-229 149 140 0
-108 255 -23 0
-19 77 -134 0
-117 95 -200 0
-93 -135 221 0
-187 137 121 0
-132 -205 -131 0
-93 -115 -217 0
39 -111 231 0
-33 203 146 0
48 -135 209 0
-189 -131 -36 0
-271 -25 247 0
225 239 22 0
220 -196 234 0
133 -232 -157 0
114 213 146 0
51 232 -96 0
33 117 -248 0
-219 -117 32 0
-209 -255 -132 0
-209 228 92 0
-189 232 13 0
52 -28 73 0
-148 -151 186 0
127 52 -94 0
-211 185 19 0
-156 131 167 0
30 161 99 0
-210 48 18 0
223 -60 78 0
-267 -127 140 0
-193 -259 -90 0
-228 76 -155 0
205 20 -202 0
102 -25 -55 0
27 -226 109 0
226 -234 150 0
-217 -220 259 0
-202 -66 -96 0
-66 -34 -9 0
120 10 -17 0
242 33 -202 0
-100 -116 130 0
123 189 -149 0
211 -198 240 0
-135 118 156 0
-161 175 -236 0
-219 -237 221 0
-170 -168 -135 0
-18 138 -241 0
236 145 199 0
42 -66 -30 0
88 -219 -113 0
102 119 215 0
-147 -182 233 0
-104 145 -267 0
-38 99 171 0
-253 -123 -161 0
76 255 -133 0
-220 -145 -40 0
134 -199 -187 0
-38 99 194 0
160 123 140 0
-274 -33 161 0
185 -192 -178 0
262 -213 -164 0
82 -69 -182 0
-38 166 36 0
153 255 39 0
189 -256 -258 0
149 271 56 0
-35 186 193 0
-255 -198 -211 0
-117 -102 73 0
150 131 -117 0
-59 -243 140 0
-49 -5 -232 0
163 220 -10 0
-30 151 -85 0
-168 -257 -135 0
-107 -263 244 0
-209 140 -109 0
-123 -212 -210 0
-139 -180 -192 0
218 149 122 0
-66 154 -243 0
-270 251 -110 0
43 -252 -224 0
121 -9 171 0
176 -107 -149 0
44 -232 194 0
198 6 -132 0
243 131 9 0
-11 -15 -164 0
32 -190 38 0
128 199 -101 0
-67 -192 244 0
138 -173 97 0
-275 -62 -120 0
72 -45 -165 0
1 271 205 0
152 69 177 0
-174 -175 76 0
260 -35 -92 0
262 12 241 0
231 232 -153 0
-31 114 7 0
2 132 237 0
-245 -233 113 0
64 -209 137 0
-193 167 265 0
250 99 52 0
-263 99 -98 0
9 -231 142 0
-141 -177 -62 0
227 -70 121 0
209 182 117 0
-256 227 -86 0
-45 185 240 0
17 -81 -6 0
111 -179 -43 0
218 -120 -233 0
-93 -148 -158 0
-149 -155 119 0
65 260 62 0
-74 -164 20 0
-131 -64 29 0
-136 -55 201 0
-138 -190 -243 0
137 -166 -75 0
77 144 -113 0
-207 10 259 0
-194 -150 -26 0
-136 241 -147 0
-232 37 14 0
273 200 124 0
53 -238 -262 0
-38 -267 157 0
-219 -124 168 0
74 170 101 0
9 82 125 0
-165 -160 -78 0
-274 -194 60 0
46 87 254 0
274 -28 -53 0
-3 34 -176 0
4 -46 -259 0
-76 197 -30 0
-15 -93 176 0
-34 163 219 0
-230 80 249 0
220 35 52 0
145 -92 -117 0
38 25 -173 0
-84 -217 -152 0
45 160 -211 0
52 -271 127 0
-237 -58 -56 0
211 -231 -23 0
-224 253 -29 0
153 -201 65 0
87 98 -251 0
86 -220 -198 0
-268 237 259 0
102 -118 202 0
31 -241 203 0
-101 69 -97 0
24 264 -268 0
-154 128 -251 0
-132 -81 -190 0
-77 -44 212 0
-229 68 -72 0
36 11 194 0
240 120 -246 0
8 106 -128 0
-93 29 -68 0
-241 66 204 0
73 -260 -255 0
-6 77 -213 0
-203 -195 67 0
-38 -256 10 0
-264 -98 -36 0
-240 -163 -12 0
-70 -102 204 0
43 11 -211 0
-273 -73 265 0
89 -49 -273 0
218 119 -217 0
40 252 -111 0
2 97 -30 0
256 141 -73 0
-136 61 -107 0
-111 -92 -84 0
249 215 33 0
220 254 -48 0
67 197 26 0
-82 116 -2 0
80 -262 88 0
-235 144 -249 0
-273 -65 -268 0
-98 -51 251 0
205 -153 266 0
-131 -71 162 0
176 -152 -208 0
49 181 52 0
153 -164 130 0
-89 107 -8 0
162 189 47 0
14 -162 67 0
-62 -141 180 0
91 -158 118 0
-62 -204 -97 0
-223 51 -77 0
-99 57 102 0
168 -189 232 0
-167 -159 -69 0
-275 180 210 0
113 151 -246 0
90 165 40 0
-38 227 -111 0
151 10 -61 0
-48 141 91 0
-175 -124 -149 0
-232 -190 -30 0
-137 196 -84 0
-37 -243 -79 0
-106 -192 -137 0
-21 69 -104 0
161 -101 -63 0
8 208 65 0
45 -37 -122 0
185 129 -58 0
57 93 -170 0
-27 -172 46 0
-243 -98 151 0
-29 227 -264 0
-274 -172 180 0
227 52 46 0
-70 19 -46 0
-260 42 -110 0
-189 196 -56 0
-46 212 224 0
-161 -157 -75 0
-243 213 258 0
193 16 -168 0
-230 -17 -258 0
-178 63 -118 0
217 37 124 0
-7 69 -111 0
-229 -5 -165 0
148 191 -216 0
22 161 226 0
-75 -18 2 0
-233 120 130 0
-229 219 -170 0
-154 -178 -161 0
166 5 60 0
258 148 35 0
-16 -260 -20 0
-153 39 79 0
-63 124 -262 0
40 103 -41 0
157 -152 84 0
42 180 -43 0
230 174 77 0
127 -158 222 0
-130 -3 -224 0
158 -147 96 0
251 -90 -203 0
99 172 -178 0
-90 174 -85 0
178 -147 116 0
-56 72 -225 0
139 244 -160 0
-209 -246 98 0
259 -253 -187 0
190 -259 228 0
-147 -249 -93 0
-50 -117 -98 0
56 -26 45 0
268 -77 258 0
-155 94 -166 0
-157 272 -60 0
-230 70 -21 0
40 -180 12 0
122 -21 194 0
124 -176 -192 0
235 -176 89 0
42 191 29 0
191 -120 217 0
-98 -165 -57 0
10 -124 57 0
-223 100 37 0
-125 92 250 0
-44 58 -246 0
223 -44 174 0
-158 -203 151 0
72 -250 258 0
-168 219 -42 0
105 93 -204 0
234 -242 -12 0
-200 -72 -138 0
-140 -182 -144 0
-224 161 -70 0
229 -166 89 0
23 173 132 0
-105 222 156 0
-256 -138 -20 0
246 -85 -60 0
-158 149 -104 0
250 150 156 0
206 -143 -261 0
-86 169 217 0
-250 2 119 0
144 121 238 0
-266 -49 -183 0
146 239 -243 0
181 219 4 0
15 -57 -54 0
223 -192 -47 0
92 61 -143 0
-104 114 92 0
48 -153 36 0
-208 -96 190 0
86 178 95 0
24 -113 -237 0
-162 -87 72 0
-184 -207 -62 0
219 120 -81 0
-209 -27 114 0
-116 39 184 0
-118 -79 82 0
-56 102 187 0
31 145 -207 0
-125 -248 169 0
24 -113 27 0
237 -148 215 0
73 -17 -179 0
130 -70 25 0
257 -42 102 0
227 -94 -139 0
-223 248 -146 0
-163 -235 -172 0
-160 179 219 0
40 -78 265 0
-207 -62 -83 0
118 -241 -169 0
265 -122 -214 0
171 163 157 0
187 -67 -40 0
-129 -101 257 0
-131 245 257 0
248 -252 196 0
249 -118 -84 0
-13 139 7 0
-70 244 -49 0
28 39 -156 0
-188 42 -151 0
-233 -41 -181 0
116 -98 -253 0
247 34 -14 0
233 163 247 0
109 -77 -215 0
-253 -271 -92 0
-77 227 -112 0
-56 113 179 0
149 208 -234 0
84 -214 -46 0
-199 -234 104 0
254 72 -223 0
262 -150 140 0
45 39 -66 0
-60 -159 -100 0
7 147 173 0
58 -3 258 0
165 -90 94 0
-107 84 -237 0
105 -242 -11 0
58 -27 -229 0
-140 -145 118 0
-228 -164 37 0
-5 131 45 0
113 177 76 0
-13 258 209 0
-1 116 113 0
115 -86 -135 0
227 237 59 0
-83 39 -87 0
-48 215 -29 0
-218 203 -234 0
-26 -73 -43 0
-56 24 125 0
254 -75 236 0
-203 -120 -101 0
-86 254 181 0
-18 -241 -237 0
-246 -128 -226 0
-246 15 -25 0
-193 -273 -55 0
172 -77 55 0
-273 159 243 0
-209 149 26 0
174 161 7 0
-90 -108 -245 0
-32 137 -69 0
18 192 71 0
139 -44 -263 0
167 -234 233 0
127 149 47 0
66 -261 -203 0
-207 -45 146 0
92 154 -81 0
76 -28 184 0
-21 -191 -63 0
22 -10 138 0
-223 -266 -198 0
-158 208 -274 0
64 265 -162 0
37 110 17 0
-155 264 125 0
46 -268 272 0
264 -203 46 0
197 -207 -107 0
-177 86 216 0
-32 117 86 0
247 -225 78 0
-160 -218 78 0
133 -120 -158 0
158 -247 -274 0
101 48 36 0
-205 259 54 0
48 -238 -84 0
182 -156 -202 0
44 39 173 0
156 -9 120 0
-225 91 -109 0
126 -150 230 0
227 -263 -182 0
235 -273 152 0
270 29 -133 0
230 114 100 0
-85 -44 167 0
54 165 -138 0
-241 260 141 0
84 160 191 0
207 185 59 0
190 -159 21 0
28 84 204 0
59 -1 -225 0
138 29 218 0
-234 -268 -71 0
195 -65 -171 0
-48 146 -169 0
-130 -237 -24 0
188 137 -257 0
236 -266 61 0
-70 -78 -232 0
83 193 273 0
167 -23 -133 0
-225 110 178 0
-112 221 -133 0
-123 -56 -151 0
100 -9 36 0
-258 -21 133 0
31 205 -10 0
-114 20 -69 0
-138 -223 202 0
-189 -54 211 0
32 86 271 0
-23 174 71 0
99 110 -251 0
-238 -165 89 0
217 203 -135 0
-77 42 -48 0
-107 -170 247 0
187 -238 -174 0
3 -144 60 0
131 211 55 0
37 -194 108 0
247 -167 140 0
91 -56 229 0
-145 11 195 0
18 210 -190 0
-263 -172 239 0
76 34 -161 0
125 36 -148 0
149 44 182 0
-72 -95 262 0
21 265 214 0
181 -248 -66 0
261 8 -54 0
