p cnf 275 1171
111 -80 -49 0
-270 91 -17 0
170 -215 -41 0
-39 -35 -41 0
-87 161 42 0
-60 -11 152 0
90 232 118 0
-1 235 -138 0
193 -6 196 0
-267 63 118 0
44 -241 -205 0
258 152 -21 0
240 192 209 0
-13 124 -238 0
-266 99 -232 0
-143 -34 -262 0
-66 127 49 0
100 -239 -254 0
33 -244 249 0
-73 -125 215 0
-93 -20 -7 0
215 190 261 0
-219 51 -189 0
25 15 175 0
-243 175 271 0
-128 -66 248 0
-136 -15 258 0
138 263 -79 0
247 169 -230 0
-132 177 255 0
110 -38 -199 0
-53 273 159 0
-227 275 -131 0
89 -48 -142 0
-212 -138 -148 0
83 -269 58 0
163 47 207 0
212 62 -43 0
48 33 -13 0
147 -268 105 0
-219 150 -207 0
-158 224 -162 0
177 -171 -14 0
253 -188 247 0
107 96 55 0
77 -212 -122 0
92 74 52 0
75 42 -82 0
-140 206 -247 0
-120 70 60 0
74 -113 6 0
256 -164 191 0
-127 54 191 0
245 130 -2 0
-207 -92 120 0
-35 -259 -269 0
262 -188 125 0
197 223 171 0
-84 -259 205 0
86 206 8 0
67 40 151 0
205 197 160 0
146 104 118 0
141 -29 113 0
35 70 -11 0
-195 241 -7 0
-240 197 -185 0
-134 80 -250 0
-246 -23 2 0
-108 174 -192 0
-28 4 -45 0
211 -11 64 0
-208 -263 -97 0
29 -31 52 0
266 -20 217 0
-271 -91 -81 0
-182 220 65 0
161 -155 99 0
264 -27 211 0
-155 -168 20 0
-2 -194 134 0
-117 -1 -26 0
182 -104 -85 0
107 219 217 0
28 -58 -156 0
-142 -219 203 0
-57 -179 162 0
159 -200 -227 0
-12 270 9 0
-60 50 -65 0
46 122 -109 0
-119 -172 -191 0
-27 -22 -158 0
-115 38 50 0
-12 191 48 0
32 -233 -104 0
-181 273 197 0
247 -75 200 0
142 -193 -110 0
-193 169 4 0
252 -203 216 0
-41 -197 26 0
211 254 47 0
-210 42 -272 0
142 -252 -31 0
-247 -128 -71 0
-81 18 -267 0
47 -143 -150 0
-217 -212 258 0
212 246 201 0
26 -116 256 0
-113 -50 5 0
-234 -249 182 0
104 -65 74 0
35 264 246 0
-267 275 94 0
12 112 170 0
-252 211 -269 0
-274 -59 174 0
109 -267 237 0
28 273 -130 0
-136 -105 -166 0
88 83 52 0
101 30 40 0
-67 6 -143 0
-257 53 -238 0
-174 -8 -72 0
-18 110 76 0
244 -79 -134 0
78 81 2 0
197 -173 180 0
-44 227 -12 0
195 248 -268 0
150 116 -170 0
-201 -51 -46 0
-75 216 -14 0
-237 -64 207 0
99 -235 118 0
-84 -134 -33 0
164 63 13 0
263 165 -104 0
-17 -137 181 0
30 -46 86 0
-132 -160 56 0
35 275 254 0
-102 -211 -26 0
208 121 75 0
-238 -113 140 0
-80 -67 -158 0
174 -212 162 0
7 -43 -108 0
38 224 -52 0
196 163 -52 0
240 -165 -32 0
228 203 229 0
246 180 -251 0
179 31 -147 0
152 -181 53 0
75 -78 -73 0
63 166 189 0
-154 -216 -132 0
29 -43 -92 0
121 150 -65 0
60 -183 151 0
-63 26 20 0
-83 154 271 0
-90 -185 -45 0
40 -117 254 0
268 -178 -209 0
261 -251 -226 0
53 163 -177 0
-112 -42 -173 0
171 170 29 0
187 -14 61 0
36 -228 16 0
20 -205 152 0
153 -166 -265 0
237 -227 52 0
-17 94 146 0
210 -226 36 0
-44 -45 -272 0
174 106 143 0
-269 -214 -68 0
-123 -163 103 0
-107 83 -174 0
-189 -253 -6 0
54 -38 -221 0
240 -3 62 0
-120 223 -148 0
-251 -29 -71 0
-247 -47 -102 0
-8 -152 154 0
3 -147 184 0
60 33 -42 0
-8 -93 176 0
166 -213 75 0
-116 50 205 0
81 39 -160 0
184 79 -168 0
216 -80 95 0
234 -71 26 0
151 252 -257 0
-33 -229 21 0
67 154 27 0
-239 207 -245 0
-127 19 -45 0
199 -275 -143 0
-31 213 -24 0
115 -60 -25 0
127 -130 -175 0
83 91 -106 0
64 -191 33 0
161 188 -23 0
-175 -149 -150 0
120 -140 -165 0
-88 -195 -3 0
108 -130 76 0
122 239 -17 0
-101 198 -119 0
-188 -13 -215 0
-54 114 -253 0
-252 -155 232 0
124 -104 -162 0
-223 -140 -28 0
-228 119 -207 0
-25 -63 -92 0
-95 263 121 0
248 117 7 0
-254 -6 -120 0
-18 93 261 0
-118 111 162 0
12 166 211 0
186 231 -89 0
261 -39 98 0
268 -122 179 0
-186 193 155 0
181 227 -20 0
142 143 31 0
-57 15 -120 0
-32 19 232 0
-68 -148 175 0
157 -205 33 0
55 -24 -96 0
-249 54 -211 0
-3 168 41 0
8 80 112 0
-196 217 241 0
2 127 -241 0
110 5 -151 0
265 -79 137 0
107 18 83 0
180 221 -275 0
221 231 192 0
-151 -222 -247 0
-117 -160 -127 0
-209 -6 186 0
158 -215 42 0
-58 -19 -14 0
71 -194 265 0
-194 -187 -30 0
-147 95 57 0
-262 195 -238 0
61 -153 29 0
-112 273 248 0
89 249 -87 0
143 269 255 0
212 251 176 0
-157 -58 -252 0
-153 -150 236 0
-101 209 124 0
208 164 146 0
-133 176 -205 0
-41 -237 145 0
-136 -96 -271 0
75 26 99 0
-165 135 -198 0
199 -257 37 0
-167 -34 40 0
-28 92 -35 0
-86 111 23 0
267 151 130 0
-93 -205 -22 0
-238 -34 -105 0
-217 -65 35 0
7 202 70 0
272 -30 17 0
-53 12 -59 0
-82 50 -81 0
-41 -236 -249 0
-122 -236 233 0
-164 123 -68 0
173 16 -17 0
173 -134 214 0
62 127 -93 0
-127 -106 -120 0
-106 143 90 0
245 53 160 0
-246 -235 41 0
-139 -124 228 0
210 266 114 0
-81 57 257 0
-56 93 -58 0
-266 -138 -217 0
33 178 150 0
-96 23 45 0
-214 215 -225 0
-258 -31 48 0
-205 -97 8 0
241 -69 -261 0
29 -112 -49 0
-182 -93 188 0
23 232 -56 0
126 24 -31 0
-204 -161 122 0
-275 24 -35 0
15 -217 216 0
21 169 4 0
-91 -260 255 0
-208 -132 -237 0
257 90 47 0
-177 15 148 0
150 70 -65 0
247 246 106 0
-227 136 135 0
-272 -179 101 0
-128 124 -165 0
-212 237 151 0
-266 15 -70 0
138 260 136 0
-102 -65 -106 0
213 -87 136 0
-52 -21 262 0
-51 -104 18 0
-96 47 -239 0
129 231 -225 0
-176 194 -96 0
-64 60 248 0
144 -178 -165 0
-33 183 255 0
-51 -186 -193 0
241 -17 36 0
232 -210 194 0
-112 -26 15 0
-246 -140 9 0
51 232 -268 0
193 -29 -116 0
137 163 -42 0
-108 83 -155 0
-209 -256 -16 0
41 274 97 0
-48 -146 -242 0
186 -271 142 0
-272 78 -227 0
74 -161 -225 0
-191 170 113 0
11 31 -99 0
215 114 -59 0
-135 87 141 0
207 19 125 0
-209 -52 274 0
-242 -234 -63 0
81 189 -270 0
231 -97 -55 0
58 -83 151 0
-260 2 4 0
123 -66 179 0
233 -82 52 0
-123 148 92 0
-231 264 -112 0
-39 150 80 0
10 13 -137 0
-136 130 60 0
126 223 -225 0
206 -104 -8 0
-58 -188 101 0
267 133 -224 0
230 -216 -266 0
248 267 -77 0
33 198 222 0
127 261 -26 0
-121 -15 -67 0
54 -56 -201 0
139 -18 117 0
-111 231 2 0
270 -115 147 0
201 -213 -156 0
126 -39 -40 0
62 -108 61 0
51 -138 131 0
108 173 17 0
218 -142 123 0
51 -39 114 0
-186 189 95 0
241 -29 -227 0
-247 138 173 0
-275 52 -172 0
225 145 30 0
-35 -273 271 0
58 174 -230 0
176 -217 -246 0
182 -171 -30 0
205 -116 -67 0
252 -19 -177 0
27 -182 120 0
-10 -59 -189 0
144 248 7 0
89 268 262 0
209 -165 263 0
211 115 125 0
92 225 68 0
-121 -218 11 0
118 -140 -198 0
-128 104 246 0
135 -26 -28 0
-38 -205 -116 0
107 40 -148 0
-204 35 7 0
132 -43 269 0
15 -130 71 0
154 -149 34 0
-21 269 -104 0
76 85 -209 0
271 -202 252 0
-151 29 -5 0
46 -153 -37 0
-211 109 -220 0
-55 -15 45 0
-200 55 -84 0
71 -217 178 0
-175 172 74 0
70 -87 -192 0
105 -109 237 0
-165 95 190 0
136 -115 -112 0
8 -211 -158 0
-241 -76 170 0
-236 -175 -31 0
-191 -150 183 0
112 -212 -267 0
232 -11 -176 0
-89 -244 45 0
242 -47 -264 0
-50 -224 -83 0
234 -44 68 0
-178 71 107 0
137 105 205 0
85 -20 -151 0
-44 -70 -190 0
194 -63 -147 0
54 87 -210 0
218 -35 110 0
267 -223 -23 0
171 22 49 0
128 -46 174 0
256 215 -27 0
137 255 -196 0
110 33 84 0
138 9 -93 0
-68 -183 219 0
73 -68 235 0
23 260 -77 0
140 35 -23 0
-74 -174 -237 0
-162 215 234 0
-111 14 -13 0
-91 -78 -269 0
223 220 -144 0
140 201 -113 0
224 -238 -48 0
141 94 119 0
128 159 -166 0
-190 45 -210 0
-120 -192 -153 0
-168 -102 164 0
107 116 -50 0
-11 -108 -156 0
-131 -30 -118 0
260 -191 -34 0
225 -24 169 0
-53 273 -27 0
-104 275 206 0
-210 117 -131 0
-233 7 167 0
-94 215 117 0
-16 -108 -266 0
104 45 53 0
92 219 -146 0
74 254 89 0
24 -212 26 0
-218 261 70 0
-15 -222 139 0
-221 182 -205 0
-183 -156 244 0
15 -212 154 0
78 134 -111 0
55 -243 82 0
-212 238 138 0
71 142 -127 0
-70 15 -7 0
-193 -37 36 0
-125 26 -93 0
-250 -66 -199 0
128 -62 154 0
126 -35 -16 0
203 -115 -48 0
-241 -182 114 0
-137 59 -125 0
236 -158 204 0
-244 218 187 0
270 266 -91 0
176 133 -209 0
102 176 119 0
102 55 -70 0
12 -50 -39 0
28 -257 -162 0
251 140 15 0
-246 17 113 0
-207 144 79 0
-56 -232 -161 0
-203 263 -56 0
51 -21 147 0
-70 1 269 0
155 -153 -125 0
-275 252 234 0
-196 -71 -157 0
229 -169 -230 0
-157 -134 41 0
257 254 137 0
-21 210 -19 0
-132 142 270 0
-160 -100 138 0
-181 188 -242 0
258 -241 217 0
257 25 10 0
-273 -260 -206 0
26 -13 -159 0
31 -198 93 0
239 182 -119 0
-22 204 -119 0
32 252 257 0
-272 -213 125 0
-97 167 47 0
-22 269 -2 0
-219 -91 -261 0
124 -169 154 0
-261 -232 -34 0
-23 -156 -183 0
111 13 89 0
225 262 158 0
-76 -80 24 0
-1 232 -133 0
125 140 -266 0
6 157 -232 0
47 -78 -125 0
9 -103 233 0
161 -42 27 0
151 -101 -182 0
-13 24 -148 0
-109 166 1 0
-179 16 -237 0
-270 -240 -157 0
168 -215 28 0
-198 -184 -232 0
35 -252 -221 0
-20 19 105 0
-174 -3 -213 0
156 -252 52 0
185 -233 161 0
192 170 -113 0
-248 9 214 0
-208 -182 235 0
-194 -240 101 0
-222 29 72 0
-116 87 -107 0
-217 -177 242 0
266 82 -83 0
3 -122 30 0
-60 -171 -2 0
-65 57 -64 0
116 137 84 0
-128 -20 -97 0
-101 -152 -22 0
203 171 246 0
196 56 141 0
185 -92 -184 0
225 -84 -179 0
-155 -66 -118 0
-267 -69 -247 0
107 35 189 0
-108 250 -144 0
51 -183 198 0
-81 -50 -229 0
126 -249 -124 0
-93 -98 -78 0
180 207 40 0
-186 189 -118 0
15 168 116 0
-171 33 148 0
177 115 -45 0
133 -266 -203 0
236 98 164 0
272 -45 -62 0
40 -192 -61 0
187 -83 165 0
200 264 -110 0
255 -134 -207 0
22 -258 275 0
178 -141 -270 0
-18 -258 272 0
119 17 95 0
139 228 -253 0
261 -158 -97 0
242 186 38 0
-274 -102 59 0
-37 2 -147 0
158 4 -236 0
-139 123 238 0
5 -57 90 0
159 -20 -91 0
-151 -61 -232 0
-245 202 217 0
-94 -88 -126 0
6 -104 -47 0
-112 240 148 0
-211 -213 1 0
55 -141 -112 0
121 -61 -34 0
160 261 -103 0
197 195 -198 0
74 58 106 0
19 207 -273 0
-106 228 -151 0
-84 191 -56 0
265 168 239 0
-76 -41 -9 0
-64 -143 -30 0
-238 -258 153 0
128 244 144 0
182 -203 -165 0
-66 -186 -52 0
-128 9 56 0
188 -38 -70 0
22 -206 -84 0
218 188 52 0
-195 35 185 0
-160 -228 110 0
-25 -202 253 0
-252 -73 -78 0
-86 113 251 0
123 100 71 0
-104 -267 139 0
-162 78 -20 0
117 -51 161 0
-129 115 -262 0
-122 178 -212 0
-8 -262 72 0
91 -153 190 0
-216 -78 195 0
231 205 175 0
-223 -115 82 0
-73 -170 119 0
-203 67 -245 0
150 -40 119 0
-239 -201 -64 0
166 -46 -142 0
2 174 -235 0
115 -246 -232 0
172 -173 -98 0
-16 55 215 0
-230 211 -261 0
174 -180 -218 0
244 -44 253 0
49 75 207 0
89 77 -52 0
-31 -19 -238 0
-134 -175 -132 0
125 -109 113 0
95 -205 -91 0
-69 263 13 0
70 96 -106 0
264 173 -215 0
-218 126 -264 0
-153 -234 -151 0
264 44 -187 0
-168 100 136 0
-132 30 103 0
-21 -3 17 0
207 -228 138 0
-227 254 4 0
14 139 -9 0
-51 180 -259 0
122 197 44 0
166 -142 -220 0
-184 -38 -117 0
160 -102 -59 0
-159 240 239 0
-232 -235 -251 0
-11 -119 -126 0
202 252 -70 0
107 175 268 0
-85 134 -274 0
86 102 90 0
242 63 141 0
215 97 -220 0
-7 -130 -236 0
221 225 168 0
169 45 -130 0
-174 -61 -263 0
31 157 241 0
-212 -164 239 0
203 144 127 0
260 24 -239 0
-267 68 71 0
-194 -6 57 0
-204 -166 -87 0
120 -133 -43 0
120 -102 -224 0
222 59 -53 0
-20 71 -187 0
98 -210 75 0
-211 76 249 0
-195 -240 63 0
149 62 -64 0
-252 144 -35 0
-191 -223 76 0
-270 84 258 0
48 -263 -67 0
-107 -145 -122 0
-20 155 83 0
242 42 -234 0
116 80 -117 0
240 -260 -46 0
171 193 -40 0
147 245 -157 0
203 9 53 0
-115 -7 -252 0
-3 153 92 0
212 141 -14 0
229 -181 -104 0
41 -222 184 0
-165 -230 -216 0
150 -202 240 0
-36 256 156 0
-270 201 -29 0
173 55 -99 0
-188 -195 -18 0
-256 -242 -22 0
183 -124 -162 0
-77 -25 -62 0
103 -186 114 0
109 -203 -51 0
-235 -182 38 0
-116 -232 -245 0
-271 158 -15 0
19 149 -171 0
-180 38 14 0
44 -173 -184 0
126 237 -202 0
-126 -193 -118 0
169 -49 -31 0
-151 -136 -139 0
-24 -253 32 0
-193 74 -261 0
20 133 109 0
-76 120 -275 0
156 -135 31 0
-216 136 14 0
186 -76 149 0
38 -268 37 0
-31 48 253 0
-192 -73 -76 0
-174 201 225 0
46 1 8 0
196 85 -202 0
261 270 95 0
124 -231 -143 0
204 256 182 0
-24 206 -93 0
85 196 -213 0
-255 7 190 0
172 -213 -73 0
-155 237 204 0
170 166 -209 0
-83 139 187 0
-196 128 -231 0
186 -32 192 0
186 36 69 0
-267 88 258 0
225 134 207 0
209 147 133 0
-83 -183 -125 0
225 140 -132 0
-15 237 133 0
174 167 247 0
17 46 85 0
58 -37 -174 0
193 69 209 0
61 118 13 0
189 -190 8 0
-219 230 -39 0
39 191 137 0
-43 -108 252 0
99 -191 87 0
230 178 176 0
40 125 -68 0
37 -22 -8 0
174 -8 89 0
97 68 -8 0
-248 -220 218 0
258 159 26 0
-110 109 145 0
-74 -147 64 0
111 124 -81 0
179 26 -219 0
242 207 175 0
219 -75 -175 0
144 267 -64 0
71 1 -73 0
261 -244 236 0
96 -156 -70 0
112 -74 -39 0
-12 106 67 0
185 20 125 0
44 105 -174 0
190 268 -61 0
-189 -185 58 0
271 -249 -114 0
52 -109 243 0
188 165 45 0
-107 26 113 0
96 -54 212 0
-38 -91 -25 0
269 -141 177 0
-118 242 275 0
-268 208 -1 0
-36 165 217 0
149 133 3 0
248 165 15 0
218 -51 110 0
-115 -91 274 0
-156 -50 -42 0
270 -33 -109 0
-273 -256 -229 0
-43 112 -80 0
-152 -195 12 0
-81 209 -205 0
-234 -82 76 0
-153 191 171 0
127 167 53 0
-72 92 -116 0
213 43 2 0
-37 237 -241 0
48 244 220 0
128 -245 38 0
-94 -93 256 0
-228 -76 3 0
-84 -34 217 0
-109 230 -270 0
172 186 36 0
72 -6 -18 0
-256 -110 24 0
239 181 228 0
216 -159 -121 0
-140 -26 260 0
104 185 17 0
82 -72 -266 0
-10 -54 196 0
-164 120 151 0
-81 129 212 0
83 272 -28 0
-169 178 -217 0
-248 -188 81 0
16 254 186 0
115 -31 266 0
-265 -61 58 0
-230 48 101 0
159 -236 -238 0
-203 167 140 0
3 -87 -122 0
241 257 149 0
-8 272 211 0
-257 137 -10 0
-116 -118 53 0
158 -200 110 0
-71 96 -6 0
173 174 -29 0
189 -170 -258 0
-76 54 -223 0
-9 -49 212 0
-237 79 11 0
179 127 220 0
52 230 -182 0
-52 257 -105 0
220 -174 -98 0
56 -133 83 0
267 251 88 0
196 -254 12 0
-129 -189 -250 0
231 262 272 0
207 -190 -60 0
31 155 -259 0
-34 -71 155 0
107 9 194 0
-105 169 37 0
-98 -141 -38 0
191 68 -60 0
-61 -18 120 0
-54 119 176 0
-165 73 -196 0
241 -1 188 0
-5 -166 164 0
14 -48 68 0
128 237 156 0
-66 29 127 0
178 151 -226 0
77 -86 -183 0
-172 29 187 0
-269 57 121 0
-112 -245 -268 0
-105 189 149 0
103 50 -271 0
138 60 96 0
195 160 -244 0
185 -161 -92 0
-130 263 -44 0
-153 -110 -193 0
-132 202 -6 0
-183 -255 -118 0
20 -244 -46 0
240 -59 -244 0
-102 -253 -191 0
273 -187 92 0
170 -7 253 0
-137 254 -224 0
-66 16 -148 0
-245 -107 1 0
111 53 -92 0
161 192 96 0
-256 199 -92 0
-120 -19 218 0
150 38 250 0
23 167 -21 0
-77 -247 -91 0
134 59 66 0
-215 -102 -273 0
192 71 205 0
-62 152 90 0
191 74 210 0
158 -213 149 0
-59 91 -210 0
100 -186 213 0
-185 132 -254 0
104 -83 12 0
212 232 3 0
246 -117 232 0
-139 39 -193 0
-263 23 79 0
75 -156 -16 0
238 132 2 0
38 -159 -65 0
-194 -253 -4 0
153 -100 -275 0
-17 -156 -220 0
53 273 -247 0
-17 237 -134 0
-248 -86 96 0
44 -48 -109 0
253 28 197 0
-93 50 254 0
-74 -270 -139 0
199 114 -237 0
-142 -42 -157 0
-53 -261 -196 0
14 -269 52 0
98 174 193 0
-88 221 -85 0
212 161 -45 0
225 242 237 0
-178 -70 -211 0
247 -54 172 0
-146 -201 12 0
95 -203 -55 0
-33 -154 -149 0
238 -101 82 0
-165 -153 228 0
-189 -110 -188 0
114 -112 -56 0
234 4 42 0
-240 272 -190 0
256 -248 207 0
210 69 58 0
-143 147 -204 0
-230 -68 261 0
235 116 254 0
255 175 -202 0
-127 -23 -178 0
245 -14 78 0
46 145 160 0
-22 -97 185 0
240 212 -140 0
-165 77 96 0
-103 -131 105 0
-206 191 26 0
-189 61 162 0
-230 -18 -34 0
73 -58 32 0
-233 -70 -116 0
96 210 230 0
206 273 55 0
36 78 -271 0
-14 -22 -273 0
-252 191 -152 0
-81 117 132 0
89 -181 -194 0
48 -186 85 0
-227 -51 109 0
-157 206 189 0
184 -207 -42 0
115 1 -261 0
67 132 -100 0
-2 -69 -226 0
-49 243 -161 0
-145 229 -146 0
43 69 49 0
158 -40 -170 0
-168 30 -146 0
-17 97 166 0
-162 195 98 0
-105 85 -242 0
-126 50 -44 0
-65 -85 215 0
69 97 -112 0
-7 46 -222 0
-61 229 209 0
213 -274 227 0
100 272 38 0
-164 238 -225 0
167 267 -272 0
90 -208 -98 0
31 -60 -128 0
-143 17 -220 0
226 -99 -163 0
-150 -229 -220 0
-51 267 271 0
14 -119 99 0
-191 243 32 0
223 -211 232 0
-3 -93 136 0
196 -33 -178 0
18 -24 -133 0
9 266 -134 0
91 -108 113 0
199 95 258 0
-60 110 -175 0
-174 -227 -37 0
217 -6 -29 0
36 104 -169 0
-224 -123 100 0
158 265 -9 0
-145 -146 121 0
-211 -260 162 0
157 272 -149 0
249 32 -100 0
-178 101 -171 0
-116 -268 24 0
-254 -213 222 0
184 -94 -267 0
252 -130 53 0
-8 200 -133 0
204 -166 53 0
140 20 -57 0
75 -194 27 0
273 249 125 0
-201 -184 -144 0
-155 166 38 0
216 264 237 0
32 -107 10 0
-5 -122 214 0
4 -202 30 0
-183 -148 -223 0
163 -67 194 0
190 -61 248 0
-128 -35 -147 0
264 -169 179 0
-167 138 49 0
95 214 77 0
28 92 -113 0
267 -201 -111 0
189 48 210 0
-7 63 81 0
-48 231 250 0
-255 7 188 0
105 -256 -28 0
262 232 -12 0
13 -103 -29 0
30 -38 -129 0
140 -77 -88 0
250 -194 149 0
271 -245 -137 0
149 -72 189 0
-125 259 61 0
-137 -52 8 0
-159 162 -172 0
-69 -182 -112 0
-40 -79 -249 0
-101 265 225 0
-180 -227 -111 0
275 194 187 0
-199 -106 -156 0
-66 -25 1 0
190 -35 -167 0
-84 -126 256 0
-165 12 240 0
230 113 168 0
-76 -228 7 0
-167 76 161 0
-20 240 167 0
40 -21 -68 0
-223 -133 -167 0
195 -80 76 0
-160 -28 -223 0
247 -69 125 0
155 173 69 0
244 193 -164 0
-251 70 -183 0
-146 69 -86 0
111 -134 218 0
-17 -32 -209 0
-15 -147 140 0
-245 -40 216 0
-77 139 -184 0
-63 251 169 0
88 -22 -186 0
-66 -109 -179 0
-113 185 -138 0
176 148 -75 0
-172 -118 16 0
-182 -83 -28 0
29 -60 -41 0
142 -158 169 0
53 -79 45 0
-92 83 173 0
-118 142 258 0
-160 105 5 0
214 -189 232 0
-173 102 218 0
212 258 136 0
14 260 125 0
-225 79 149 0
9 15 -41 0
-128 13 -164 0
-20 -143 247 0
131 -143 -103 0
92 -253 -210 0
-238 -271 67 0
237 172 168 0
127 -270 -212 0
105 -258 58 0
-202 -41 -193 0
-154 163 -197 0
154 -59 234 0
84 197 -127 0
-29 10 -165 0
-69 -56 -238 0
-87 -117 70 0
-216 -105 -255 0
73 64 7 0
-138 -47 187 0
-138 -25 130 0
170 31 217 0
42 86 -261 0
