p cnf 275 1171
213 197 -166 0
196 130 -176 0
-76 -42 -155 0
-102 39 -99 0
-255 149 28 0
-92 232 -19 0
56 -45 141 0
-234 -17 258 0
-238 -235 249 0
184 69 170 0
268 36 221 0
65 17 213 0
23 34 -127 0
190 -91 -155 0
-9 -197 -171 0
220 218 111 0
61 -102 -119 0
-57 209 249 0
253 137 98 0
-229 -239 172 0
122 190 -3 0
-165 -254 150 0
11 175 -119 0
167 139 10 0
174 -250 -1 0
100 195 -61 0
24 98 222 0
133 160 207 0
221 43 -20 0
-233 -273 -59 0
19 -11 -261 0
-119 -173 -203 0
-248 -275 241 0
198 -117 -205 0
-198 29 -68 0
-27 166 135 0
172 78 147 0
-120 81 -61 0
-224 270 -26 0
-102 72 270 0
264 -232 -59 0
-230 -173 38 0
-98 -212 222 0
-177 63 -97 0
232 166 33 0
92 -133 -236 0
-235 56 49 0
56 127 177 0
201 -127 116 0
-122 89 -237 0
-82 -208 78 0
-42 162 63 0
52 154 103 0
-258 80 -211 0
-88 -8 -16 0
72 -162 40 0
-175 115 -259 0
77 -122 -155 0
75 188 -68 0
76 -151 -152 0
170 248 -101 0
164 -175 45 0
152 259 251 0
-192 -88 -63 0
-206 -271 51 0
101 -40 68 0
-31 171 -30 0
-244 18 272 0
62 17 64 0
190 15 -121 0
271 215 -23 0
266 265 -138 0
241 -182 3 0
-46 -165 -272 0
204 -220 183 0
2 -181 35 0
225 54 -121 0
-116 59 180 0
139 -153 -257 0
-119 -232 -25 0
58 93 205 0
-29 -163 170 0
-135 -265 53 0
198 171 -43 0
-99 203 -137 0
25 63 260 0
-58 -152 105 0
-201 -41 225 0
-217 40 161 0
57 266 154 0
-197 -13 16 0
-206 116 67 0
-207 -138 25 0
-130 -158 4 0
73 67 -102 0
157 138 107 0
-141 56 90 0
-173 -257 -195 0
-186 213 -167 0
-96 231 26 0
159 -84 37 0
-243 185 90 0
32 -207 265 0
-16 126 269 0
-42 -172 -213 0
105 -75 -183 0
194 -255 32 0
-35 -188 234 0
185 232 141 0
-228 84 -261 0
205 -39 -119 0
-68 159 108 0
242 75 154 0
188 218 88 0
256 -153 -197 0
-69 -66 164 0
224 -30 -48 0
175 -104 180 0
134 -145 -257 0
-180 -84 -213 0
164 -236 168 0
119 258 21 0
-88 214 -23 0
-87 -242 -271 0
114 108 -63 0
-12 237 -41 0
152 -69 -82 0
192 -96 234 0
-206 261 -240 0
34 -86 -95 0
-203 -179 -245 0
258 -197 -150 0
-102 105 -216 0
-237 -250 -154 0
4 -2 -226 0
-216 -251 57 0
122 2 197 0
143 22 124 0
39 238 -113 0
30 -187 -72 0
211 158 -232 0
-240 -148 180 0
169 -258 185 0
130 83 30 0
210 14 -203 0
-198 85 -254 0
270 111 58 0
136 -22 -74 0
205 -19 226 0
53 -80 56 0
133 -19 175 0
66 190 -62 0
221 -131 49 0
-22 213 253 0
182 -149 -263 0
-274 -228 66 0
-156 -260 -204 0
135 113 -150 0
-87 126 -252 0
-258 78 -212 0
262 -76 205 0
73 -146 -107 0
188 205 -190 0
209 -11 -49 0
-87 -139 -56 0
134 108 -98 0
-33 14 96 0
-217 256 125 0
-260 77 175 0
46 168 152 0
73 -275 43 0
16 119 139 0
-32 -129 179 0
170 -94 -121 0
99 -160 -171 0
-105 238 23 0
-105 156 122 0
-14 187 -70 0
68 -188 239 0
154 157 -55 0
-98 -101 217 0
93 -229 -155 0
44 -18 -32 0
-237 -233 113 0
123 -4 57 0
-187 -113 60 0
66 -113 -53 0
261 -163 -201 0
-169 114 -206 0
271 -194 -29 0
207 205 -212 0
274 88 105 0
-170 -54 173 0
252 -215 62 0
248 -93 266 0
175 -131 -222 0
139 -101 223 0
140 45 192 0
-119 -49 138 0
196 -44 -272 0
-109 -88 -197 0
71 -126 -177 0
192 -181 63 0
18 -16 167 0
-159 273 -176 0
53 49 33 0
261 180 116 0
108 -18 169 0
-34 100 -185 0
-85 -23 -133 0
159 146 173 0
-128 -167 4 0
222 -209 27 0
214 101 65 0
-45 205 11 0
174 75 -39 0
156 -213 -215 0
163 110 60 0
-106 -168 -206 0
154 58 -256 0
-16 -58 -68 0
-38 182 244 0
-195 -63 55 0
-75 -163 118 0
-69 -58 160 0
-249 160 -44 0
36 84 -122 0
176 106 88 0
209 235 -145 0
35 131 -67 0
71 248 218 0
-234 -196 3 0
-130 -69 36 0
162 -192 117 0
44 88 106 0
-177 229 271 0
22 -26 246 0
-116 -187 -42 0
-104 230 71 0
-144 174 -38 0
-237 180 219 0
-230 -110 50 0
-118 -233 -51 0
51 65 245 0
267 44 -194 0
-41 -258 -39 0
-85 53 -94 0
-202 84 -223 0
198 -241 75 0
204 -182 -30 0
4 -95 -217 0
227 -177 -225 0
5 -9 217 0
-104 -207 155 0
25 -134 157 0
-165 -272 158 0
88 108 -132 0
-115 35 264 0
-164 88 -240 0
-187 235 -199 0
32 -46 164 0
103 93 -177 0
105 270 -216 0
264 35 123 0
-223 -202 -129 0
227 -128 8 0
-217 -169 -227 0
43 -223 -75 0
75 221 72 0
-62 -223 -260 0
161 255 -9 0
163 -245 -118 0
-45 105 30 0
14 -218 -63 0
-164 40 106 0
-91 -220 -6 0
167 -274 -59 0
73 -205 -249 0
-140 61 119 0
157 267 -22 0
-51 226 -22 0
12 -113 -267 0
-86 -219 -211 0
-21 -92 129 0
-234 -274 87 0
202 160 -264 0
197 -51 -143 0
178 -53 208 0
189 123 73 0
-274 -227 68 0
253 179 -38 0
21 94 79 0
-93 120 174 0
255 228 -85 0
-198 105 -244 0
229 -112 -211 0
221 230 125 0
50 -112 -146 0
136 236 -224 0
117 41 135 0
-261 -152 197 0
21 -203 -22 0
-185 55 110 0
82 -158 118 0
-263 241 -244 0
12 232 -205 0
157 31 -125 0
-203 -156 247 0
3 58 78 0
-87 -107 219 0
236 -164 134 0
-8 -66 -149 0
-269 -147 -36 0
115 -174 -82 0
140 -168 106 0
-105 -112 58 0
127 136 69 0
-12 -179 131 0
-145 -223 -23 0
211 102 -213 0
159 -235 -91 0
69 -275 60 0
-47 27 -38 0
83 273 -43 0
122 206 -195 0
-178 141 -29 0
91 136 -182 0
-131 -96 210 0
39 -90 231 0
71 170 264 0
169 74 -93 0
-271 -34 246 0
-23 -40 230 0
126 -181 86 0
76 -242 132 0
-128 33 -155 0
243 -12 119 0
-167 -197 -138 0
-273 -26 -170 0
-170 270 73 0
-207 266 -78 0
249 195 1 0
131 47 -230 0
-153 71 -117 0
160 -269 80 0
58 250 271 0
90 208 -203 0
-228 -271 -87 0
7 164 -37 0
85 221 270 0
25 -109 -146 0
-162 5 145 0
140 -20 -201 0
-193 270 176 0
-37 36 -212 0
55 -21 -223 0
-47 -11 -170 0
-80 -200 215 0
110 193 96 0
-39 205 201 0
46 -54 -197 0
213 -180 64 0
219 -89 -237 0
172 -62 20 0
6 -193 -70 0
18 -199 -196 0
-148 94 67 0
39 104 -273 0
127 122 -113 0
216 -42 19 0
-259 -201 50 0
-53 -44 119 0
245 213 -4 0
-2 216 240 0
-251 -176 41 0
-268 201 166 0
243 -5 -90 0
220 -105 -227 0
-225 61 -246 0
275 243 12 0
-21 -214 -64 0
-242 37 108 0
228 107 -92 0
-239 231 -13 0
238 -37 46 0
217 -227 37 0
253 207 -35 0
180 -241 -137 0
-194 -61 -49 0
20 12 -4 0
-182 -265 -77 0
-229 88 -131 0
-236 24 241 0
212 137 -53 0
-13 58 -193 0
180 207 -17 0
-127 187 156 0
228 -28 44 0
-64 176 -200 0
223 -227 237 0
80 -185 -246 0
221 -143 -211 0
243 117 271 0
207 96 -127 0
77 -33 225 0
250 -242 82 0
-120 -227 9 0
170 -175 122 0
-212 170 -14 0
151 256 -171 0
-164 75 -189 0
-143 127 -131 0
-217 218 -228 0
-203 -269 -73 0
-108 -168 -34 0
-139 -229 165 0
-211 71 -156 0
80 102 181 0
207 -52 -228 0
148 11 115 0
62 44 216 0
234 223 -266 0
158 241 -227 0
34 257 195 0
206 -225 -218 0
173 187 -175 0
232 66 -171 0
-110 -103 -268 0
223 219 137 0
258 -238 229 0
-23 -185 -164 0
256 -18 -137 0
245 -106 -99 0
-71 -24 -137 0
-85 -58 174 0
-156 -112 -139 0
83 -72 250 0
273 94 -208 0
-184 90 30 0
171 7 -56 0
-184 53 -71 0
8 -107 -210 0
268 -170 -131 0
190 162 239 0
-223 -39 -274 0
241 155 21 0
-158 -218 84 0
-271 -126 -194 0
250 130 -2 0
179 -22 219 0
-271 159 -121 0
61 -147 -266 0
-150 22 -238 0
-274 -89 20 0
148 -1 -242 0
-169 -91 200 0
-187 -271 122 0
159 230 121 0
81 -126 -9 0
-71 78 -73 0
-174 -81 -48 0
160 29 -2 0
126 -13 66 0
-76 84 255 0
169 -60 164 0
-196 258 86 0
-204 213 -136 0
122 -126 90 0
-97 -15 -159 0
-31 58 76 0
-171 84 -119 0
-158 154 -181 0
200 -158 -146 0
204 -196 -24 0
238 266 156 0
201 36 -174 0
-110 -79 -92 0
-267 -223 -50 0
154 -118 35 0
81 -110 -12 0
137 -231 -263 0
-163 165 -226 0
48 -114 12 0
-261 92 -184 0
-242 -22 206 0
86 -12 259 0
-162 -217 56 0
174 -171 -217 0
90 -250 -84 0
18 -43 -183 0
-34 -156 -196 0
-166 -245 -1 0
-13 51 230 0
-152 219 -243 0
-154 -269 -57 0
-68 6 248 0
132 -36 -44 0
219 58 158 0
165 157 31 0
121 -208 234 0
90 125 -94 0
-31 -199 94 0
-246 -92 -104 0
152 -27 -264 0
123 85 -270 0
-92 236 253 0
-143 -259 50 0
272 -237 187 0
-239 -73 -265 0
-144 169 -272 0
6 -126 -2 0
131 110 -250 0
-88 187 200 0
256 -31 171 0
-75 -124 243 0
136 161 251 0
7 -170 132 0
-134 236 -219 0
16 144 203 0
146 184 -112 0
233 -72 220 0
-148 -241 -113 0
-234 254 118 0
48 -233 -75 0
-223 176 264 0
-103 -94 -14 0
-101 -43 -55 0
-2 87 154 0
204 14 97 0
160 -98 161 0
-222 -150 -83 0
-162 -209 -111 0
-17 33 76 0
-56 -68 59 0
194 -126 -116 0
-135 66 -17 0
91 -182 75 0
196 71 -15 0
-4 223 -59 0
-117 183 146 0
-233 -179 32 0
160 -38 -4 0
192 17 242 0
-97 -149 154 0
-271 255 84 0
204 -217 -142 0
-49 -209 114 0
-256 122 71 0
270 -119 142 0
116 -162 137 0
-80 114 55 0
32 -166 108 0
-114 210 -196 0
243 -187 136 0
-129 -250 86 0
149 214 -176 0
73 -81 26 0
-40 139 -251 0
-193 -26 -241 0
-249 -168 100 0
18 -117 -149 0
-44 192 64 0
114 7 196 0
236 -33 194 0
255 -163 -23 0
136 -14 -66 0
-85 223 -120 0
-132 -247 -255 0
120 29 -210 0
98 -106 -77 0
63 -119 102 0
-52 -272 55 0
223 96 199 0
61 -24 179 0
-175 186 168 0
-224 -184 -192 0
-8 234 135 0
258 174 -171 0
65 -134 43 0
147 -158 -211 0
148 195 -264 0
-165 145 93 0
6 129 133 0
28 127 105 0
184 -29 -222 0
153 -113 206 0
69 -165 15 0
-225 -113 -57 0
-247 114 209 0
71 5 61 0
57 191 -156 0
-207 -103 191 0
-116 237 -38 0
-216 90 -61 0
90 232 221 0
113 242 155 0
12 118 -65 0
-93 164 159 0
59 249 43 0
73 117 -266 0
-256 -113 247 0
-197 257 1 0
-262 -10 69 0
-237 -266 -139 0
-152 195 -216 0
-238 -211 -20 0
243 12 -51 0
228 -275 269 0
-66 -252 -141 0
-181 -85 27 0
258 188 172 0
-243 -267 -203 0
-226 -29 11 0
-57 198 -163 0
191 123 -206 0
-261 180 109 0
113 -132 -25 0
-66 -132 272 0
199 -239 -84 0
-128 -146 -251 0
-25 211 74 0
249 -260 -162 0
168 -57 -160 0
13 215 20 0
-69 173 240 0
169 -195 -29 0
231 33 -190 0
65 109 15 0
-87 34 -58 0
-63 -79 -80 0
-95 -236 -15 0
-145 68 240 0
-213 -78 -263 0
4 -28 -133 0
-134 -46 1 0
-195 -154 -196 0
-154 106 118 0
-23 -204 140 0
88 150 199 0
7 10 126 0
119 157 -111 0
-241 -109 -30 0
184 47 -163 0
111 255 -30 0
-54 -265 251 0
-181 110 22 0
140 189 72 0
196 71 144 0
-72 -204 252 0
-200 77 198 0
-160 -65 -172 0
-158 112 27 0
-69 -138 -164 0
-209 219 -7 0
159 54 -144 0
-61 205 -161 0
196 -220 1 0
236 -256 271 0
-23 185 -69 0
65 -39 -250 0
-213 65 -195 0
215 -102 -160 0
-114 270 -246 0
187 -161 172 0
134 247 -77 0
186 -229 -7 0
158 -126 -264 0
-273 -103 114 0
160 -138 -95 0
-57 -10 221 0
-255 209 126 0
100 262 79 0
-19 -219 -25 0
-112 -251 -93 0
223 180 107 0
-130 259 -244 0
-26 4 8 0
173 -59 -241 0
-161 260 -138 0
216 176 -142 0
162 -72 -47 0
-55 206 205 0
-241 -64 -99 0
132 -263 -113 0
-228 273 -240 0
159 -109 -21 0
-46 87 195 0
175 131 -92 0
-14 -9 101 0
-244 137 130 0
132 -19 209 0
200 -54 23 0
-111 143 174 0
88 206 -198 0
-63 -1 -168 0
20 -42 245 0
159 153 -70 0
70 105 -3 0
78 -157 266 0
134 -205 -26 0
-240 -98 -22 0
192 63 -116 0
-169 43 -96 0
-257 -242 267 0
-92 136 205 0
-72 -144 138 0
172 45 33 0
-271 106 -69 0
205 -135 -170 0
-184 -197 -238 0
-46 68 4 0
-88 85 -141 0
163 -29 52 0
241 266 107 0
216 -2 238 0
-46 163 264 0
-71 -170 -122 0
-232 -35 -29 0
-119 157 -103 0
164 12 -45 0
-142 32 -35 0
212 117 -233 0
5 93 183 0
6 -226 -200 0
31 211 -49 0
159 -210 -71 0
-162 -261 47 0
172 -230 233 0
262 -214 -20 0
-197 96 249 0
-80 -97 211 0
56 275 -3 0
79 95 136 0
-147 -102 -164 0
-275 -23 -241 0
210 -94 -160 0
-123 -12 -84 0
-239 -237 221 0
252 132 -150 0
208 19 61 0
208 -168 164 0
160 -67 -129 0
-256 102 -145 0
156 -233 274 0
-67 -85 82 0
-147 -47 230 0
-95 127 -92 0
-180 41 192 0
-1 265 25 0
10 201 38 0
-102 -253 -139 0
-186 52 114 0
180 -105 -225 0
-103 202 -186 0
62 182 123 0
209 -215 -193 0
-234 262 186 0
-215 184 77 0
154 143 -122 0
-176 -145 191 0
-113 211 29 0
-27 -81 206 0
250 -224 183 0
-105 -201 -24 0
55 -50 -46 0
6 -271 225 0
97 43 -247 0
15 -80 206 0
-190 180 156 0
41 115 -141 0
-261 -191 223 0
23 243 193 0
-131 -112 -140 0
28 -23 -200 0
37 -34 239 0
230 -223 139 0
112 16 239 0
-232 -150 208 0
-123 -94 121 0
-236 167 -265 0
119 5 14 0
-81 43 -250 0
-186 258 -72 0
174 -229 -207 0
126 152 -206 0
-272 -197 208 0
42 -152 -147 0
-46 11 17 0
-131 -217 -201 0
-165 225 -2 0
216 -191 65 0
9 234 198 0
-212 54 -40 0
-234 -240 -232 0
228 -218 -217 0
-122 98 88 0
-71 -165 112 0
19 195 75 0
271 -65 -178 0
28 118 198 0
-148 241 17 0
-80 -74 -113 0
143 18 128 0
222 -178 -190 0
-274 56 -94 0
228 -16 -267 0
-16 112 -72 0
-58 226 -144 0
-258 -7 -74 0
-88 70 -219 0
-216 126 -41 0
228 -273 -220 0
16 142 -220 0
-12 157 -201 0
106 14 -247 0
230 -267 -274 0
137 -158 115 0
-246 -165 109 0
-250 -68 -3 0
245 206 147 0
122 -136 38 0
-7 -105 -59 0
222 193 -91 0
224 79 -233 0
-244 -89 109 0
204 -81 136 0
-8 -22 -11 0
-153 -102 225 0
225 -36 -39 0
-242 -85 -270 0
-145 198 -236 0
-101 120 -112 0
122 213 233 0
163 62 220 0
-38 204 96 0
138 159 -66 0
-52 222 -68 0
39 96 7 0
-216 76 122 0
169 179 178 0
15 -100 175 0
-129 -65 82 0
92 -55 -221 0
13 8 -182 0
-243 -192 24 0
247 -209 -120 0
-74 35 63 0
-112 2 178 0
-33 -69 -194 0
67 162 103 0
79 275 -251 0
-274 102 256 0
160 157 -254 0
-262 -67 229 0
124 42 -55 0
204 -197 -149 0
-82 48 -194 0
30 -151 -166 0
274 -204 16 0
213 253 -34 0
-60 236 247 0
165 52 49 0
-141 114 -106 0
244 -60 42 0
28 -240 -248 0
98 -193 92 0
175 -218 -231 0
106 96 -252 0
-275 43 223 0
-158 210 -53 0
-25 -132 -117 0
121 -113 -183 0
240 -94 -87 0
-192 -163 -109 0
132 239 -267 0
147 -140 33 0
-12 -33 -101 0
-78 196 258 0
-240 248 128 0
191 266 61 0
-104 -261 139 0
12 -206 184 0
245 188 197 0
234 -226 -263 0
-12 56 133 0
222 263 -103 0
240 -226 -98 0
153 -203 -199 0
175 20 -259 0
-74 137 124 0
-245 143 -230 0
139 204 144 0
-107 62 82 0
3 -128 -140 0
210 232 190 0
163 249 -254 0
231 33 247 0
-221 64 -50 0
195 -32 -203 0
-118 -249 38 0
174 254 107 0
195 240 -207 0
211 35 144 0
233 158 34 0
-170 257 -128 0
-109 -253 71 0
112 -117 17 0
42 100 -78 0
-25 -74 -202 0
222 203 -37 0
100 36 -264 0
-79 99 -45 0
55 168 -211 0
75 -194 193 0
255 -135 272 0
-150 -58 56 0
-70 71 -144 0
-56 167 85 0
57 -79 16 0
104 -135 43 0
-28 31 -95 0
-132 98 188 0
265 248 -169 0
205 227 -229 0
-218 -229 134 0
-196 40 44 0
126 118 10 0
92 -205 -150 0
-9 -232 62 0
17 71 -32 0
-213 95 254 0
-89 108 -138 0
71 20 43 0
-93 -42 -217 0
30 -154 246 0
188 -152 20 0
237 251 197 0
-111 -240 -210 0
67 -134 -175 0
113 -20 157 0
124 -200 -122 0
97 104 -105 0
44 110 175 0
266 -191 247 0
-225 178 91 0
-32 227 -213 0
153 -89 117 0
267 -196 244 0
238 -142 -217 0
-209 -21 -156 0
97 -257 -77 0
-35 -145 91 0
99 -189 -18 0
95 -53 -83 0
45 133 -273 0
237 192 125 0
-220 137 -232 0
252 253 -273 0
-157 -69 -24 0
49 56 43 0
75 161 200 0
-32 167 -98 0
81 -209 -171 0
72 -86 -169 0
-254 50 -245 0
-98 -6 -238 0
-157 -242 -196 0
-128 -181 -238 0
-34 271 128 0
96 -251 9 0
-159 -15 144 0
-76 -129 50 0
-102 96 142 0
-33 71 77 0
66 -194 20 0
41 -62 168 0
-252 -91 114 0
103 269 25 0
248 227 267 0
88 46 260 0
-230 64 -22 0
-96 -90 -113 0
77 144 -97 0
-80 220 -69 0
-98 -166 208 0
-160 -274 -18 0
265 -16 -182 0
51 239 -71 0
169 -121 -273 0
-112 270 87 0
-80 -166 26 0
106 -213 -249 0
-121 -104 153 0
165 176 -3 0
81 203 -177 0
-181 -46 138 0
-243 -271 65 0
-115 113 -273 0
-53 50 169 0
72 -168 -156 0
56 229 -16 0
-134 -132 141 0
103 -44 -90 0
199 -231 178 0
250 -195 -208 0
198 -19 171 0
-231 148 269 0
263 77 -164 0
22 -93 50 0
53 255 -82 0
9 -114 12 0
-16 -248 117 0
93 205 -29 0
249 247 108 0
274 -31 120 0
98 -155 60 0
124 -199 -114 0
129 -58 -214 0
-198 -226 -70 0
222 -44 212 0
230 115 207 0
72 35 59 0
-268 62 -39 0
232 216 193 0
-65 152 197 0
246 165 152 0
-153 -172 100 0
118 -61 9 0
-154 240 -45 0
99 -126 85 0
198 -159 109 0
-193 254 228 0
-96 -43 44 0
-179 175 -136 0
-118 78 74 0
-219 212 114 0
-188 -57 -17 0
-134 105 154 0
129 -69 -240 0
29 -125 -245 0
157 -143 -3 0
-244 60 252 0
55 26 -212 0
82 57 207 0
41 46 191 0
-165 269 -21 0
-188 -125 3 0
-85 3 -64 0
20 232 -74 0
243 212 -250 0
-137 5 225 0
-209 265 222 0
-214 -189 256 0
-70 -240 275 0
-109 -90 232 0
139 -217 -5 0
256 -265 244 0
239 -47 -108 0
89 -220 -211 0
174 240 -41 0
-235 129 219 0
85 -163 -143 0
106 200 79 0
-272 256 -177 0
-35 -82 83 0
106 181 231 0
-105 56 -44 0
-152 -8 -267 0
-186 24 -33 0
-180 36 -271 0
134 -81 7 0
126 -128 -21 0
-164 47 -204 0
-77 -29 -50 0
-259 -212 2 0
-233 -25 148 0
-13 226 185 0
237 -163 -58 0
-66 -96 -86 0
202 -127 214 0
-52 271 46 0
29 79 190 0
54 128 -55 0
-275 -19 -102 0
136 178 -39 0
-137 -149 54 0
260 -110 -71 0
47 -65 -101 0
102 11 228 0
263 236 -79 0
50 32 57 0
251 -99 6 0
-195 137 -78 0
-245 -243 -206 0
-4 -88 112 0
-189 169 -187 0
222 -108 -196 0
-49 -273 251 0
143 -221 55 0
128 180 43 0
-143 -86 23 0
192 -217 158 0
228 35 -139 0
-22 -56 -148 0
-120 5 -4 0
37 156 75 0
-122 181 76 0
171 78 118 0
-75 -156 78 0
-52 267 85 0
-35 121 -222 0
-220 -100 -109 0
264 245 97 0
-123 -140 -87 0
-49 173 -225 0
-8 248 190 0
-157 -79 246 0
-125 228 4 0
85 -12 -222 0
180 -84 -172 0
16 124 275 0
188 -272 -23 0
172 -43 152 0
-12 -107 -111 0
173 -106 161 0
49 -258 -163 0
-80 241 -134 0
-1 13 -54 0
-144 103 146 0
79 -274 19 0
190 -42 24 0
27 6 -101 0
147 77 141 0
19 -103 37 0
221 -211 267 0
-158 61 206 0
-206 -219 269 0
193 49 -261 0
221 -185 -267 0
-14 -162 273 0
201 -99 -150 0
-132 -148 124 0
242 -184 141 0
40 224 -159 0
-96 -113 -85 0
239 -80 -12 0
26 46 -125 0
77 57 -217 0
272 174 113 0
13 -15 -275 0
-41 13 -140 0
137 -29 141 0
117 226 5 0
88 -32 -87 0
108 -84 -149 0
-16 -257 -42 0
173 68 181 0
-14 -51 147 0
31 150 15 0
171 -227 101 0
-43 274 40 0
-167 274 -23 0
-217 -199 -230 0
-79 131 -92 0
-158 -156 -275 0
-79 -232 -55 0
35 -105 131 0
112 -73 184 0
-235 14 78 0
-85 45 2 0
-153 101 192 0
