p cnf 275 1171
-120 -221 17 0
-81 -26 35 0
139 -96 47 0
141 152 -71 0
186 -101 125 0
227 -128 61 0
158 -180 89 0
-14 179 11 0
60 -252 194 0
171 -144 -151 0
-43 -207 -77 0
134 23 -145 0
-57 169 -25 0
256 41 -96 0
16 -55 201 0
154 -188 -187 0
-248 -167 -37 0
274 91 163 0
-97 -232 162 0
-150 -271 -81 0
-116 -24 -189 0
210 -43 199 0
144 -180 185 0
-123 -228 18 0
178 258 46 0
-71 192 -159 0
-71 -60 55 0
8 186 -57 0
-102 208 261 0
132 -208 190 0
109 -161 118 0
169 39 34 0
18 232 10 0
-134 21 202 0
205 47 26 0
-127 71 219 0
35 101 86 0
-95 -121 255 0
88 85 -272 0
-189 158 -253 0
205 204 -256 0
111 -204 134 0
-137 -51 -26 0
49 -56 -161 0
82 25 -145 0
3 25 -243 0
-154 -112 233 0
143 -66 90 0
-118 -208 172 0
-90 211 -229 0
243 -88 128 0
70 -127 124 0
205 27 -28 0
83 157 233 0
221 202 -108 0
137 -238 -85 0
241 -92 94 0
95 246 55 0
162 -76 26 0
-95 233 7 0
-202 -67 -137 0
-46 -245 -191 0
-72 -90 -89 0
-141 126 184 0
59 229 97 0
-93 -4 -45 0
-213 -53 -99 0
104 -206 -98 0
-96 -68 201 0
88 -247 -17 0
-21 -116 50 0
149 -181 -130 0
150 -157 -89 0
50 -103 247 0
-28 -265 -88 0
-106 -238 -171 0
-262 82 32 0
120 -272 -141 0
206 78 262 0
-147 -11 109 0
-168 -155 266 0
-184 31 -245 0
199 178 205 0
-178 232 99 0
-40 107 -196 0
-106 -183 -104 0
-115 48 -255 0
-141 -9 166 0
-39 271 112 0
-15 -244 259 0
53 231 237 0
142 27 -90 0
-149 -128 -138 0
109 -111 -116 0
-194 266 161 0
-219 -75 42 0
193 -264 -267 0
13 -85 256 0
263 -23 86 0
145 -246 -162 0
243 -120 -40 0
231 -204 -100 0
83 -212 -65 0
213 254 165 0
7 69 189 0
235 -104 262 0
-175 98 49 0
253 -204 82 0
238 19 142 0
-235 -242 40 0
-60 127 139 0
113 -237 -218 0
82 -196 191 0
7 202 156 0
-13 -21 -129 0
174 120 200 0
190 -9 18 0
57 122 86 0
-53 -31 -163 0
-138 168 162 0
180 15 129 0
248 -229 153 0
-46 253 -256 0
-89 30 -208 0
-27 -154 84 0
-142 -10 -171 0
71 158 -92 0
-131 137 248 0
-92 -163 -53 0
-119 47 -145 0
245 110 157 0
-208 166 -15 0
244 121 -206 0
265 45 -43 0
29 265 54 0
227 75 -255 0
6 -51 267 0
-13 -184 116 0
-9 -219 -209 0
177 14 125 0
125 -166 -107 0
-101 155 -34 0
27 -269 -87 0
96 -269 -141 0
-36 -24 -18 0
27 -63 -134 0
210 -143 103 0
112 -200 203 0
-144 -65 -221 0
-84 -257 -266 0
119 221 81 0
16 38 196 0
-38 100 152 0
-205 -28 182 0
233 -81 217 0
269 42 265 0
206 -94 -257 0
172 -166 135 0
-93 -112 -71 0
-100 -241 -218 0
115 -135 89 0
124 212 -46 0
157 195 110 0
256 -82 225 0
-22 87 83 0
-113 -5 195 0
116 -193 270 0
-179 89 -72 0
167 166 -109 0
-145 -233 165 0
-66 214 193 0
-253 197 -211 0
-148 -16 186 0
-45 52 -232 0
192 153 125 0
53 253 52 0
123 43 -14 0
-226 170 67 0
53 74 24 0
-171 54 -131 0
43 -253 223 0
251 170 255 0
-107 -241 136 0
204 -22 151 0
-256 267 -271 0
-193 -260 148 0
-221 -6 235 0
89 148 -145 0
185 207 -4 0
-182 -275 -200 0
-6 200 -102 0
-47 -258 -170 0
-175 -125 -110 0
138 -248 211 0
-153 -77 220 0
-61 208 101 0
-212 -116 -115 0
8 54 138 0
267 92 44 0
-255 136 16 0
179 -191 -18 0
-196 -36 -234 0
-95 38 209 0
190 -7 -46 0
-172 176 -227 0
152 183 275 0
31 -227 -225 0
-105 -111 163 0
165 119 188 0
-5 53 145 0
175 -164 108 0
-202 -90 -118 0
238 -44 242 0
-172 161 221 0
-212 170 -57 0
150 149 227 0
-137 -28 -244 0
-220 -59 42 0
-168 108 247 0
114 231 -271 0
194 -78 50 0
92 186 15 0
149 -203 184 0
231 -185 -123 0
-84 -140 -74 0
68 -246 -263 0
-79 33 152 0
15 -180 131 0
-30 -266 -233 0
-23 140 175 0
121 -126 -88 0
-83 53 -72 0
118 -215 -11 0
39 -86 -151 0
164 109 217 0
-195 -228 -200 0
-1 -227 -148 0
-248 -206 91 0
-142 60 -204 0
-160 47 238 0
-71 -61 12 0
21 -24 16 0
19 -42 -212 0
78 -106 -259 0
5 -253 -181 0
10 41 123 0
-68 -24 -205 0
-260 232 3 0
209 -35 -42 0
-11 108 -125 0
152 180 -256 0
-11 -136 -29 0
177 -113 170 0
-168 -130 -223 0
-170 77 191 0
-93 75 32 0
204 77 -159 0
191 -180 166 0
-131 -172 -272 0
39 4 271 0
104 -110 -105 0
196 -272 -215 0
-131 -129 -115 0
72 -157 -48 0
-1 10 -177 0
154 179 264 0
-32 -46 163 0
20 40 201 0
-74 -267 62 0
189 27 -15 0
59 -172 -102 0
-32 -16 22 0
249 -153 237 0
-108 192 129 0
161 -160 -245 0
177 151 42 0
11 163 239 0
47 -203 -274 0
-59 -62 155 0
73 258 231 0
124 -69 -140 0
-241 -89 62 0
196 270 1 0
149 187 -202 0
113 207 68 0
-158 -155 164 0
-41 -138 202 0
45 127 78 0
-210 -195 -228 0
77 -218 -124 0
-216 118 -74 0
-53 -272 -197 0
68 -125 -121 0
226 -30 233 0
199 -226 -81 0
-269 160 -232 0
-273 -141 -132 0
-3 -217 -81 0
-60 -156 -112 0
-92 259 -158 0
44 -186 -188 0
-160 -73 27 0
98 2 -176 0
153 -74 -32 0
268 -122 -32 0
-85 -72 117 0
-115 -255 -156 0
90 150 88 0
106 267 -114 0
9 -127 -173 0
219 -218 122 0
-258 82 -261 0
92 -77 46 0
-112 -157 -97 0
-210 142 261 0
11 -127 -94 0
187 -137 86 0
-129 248 -163 0
162 -218 -250 0
209 99 51 0
-26 -151 -92 0
-187 233 -225 0
149 134 110 0
91 -267 19 0
-249 -188 232 0
27 -45 -19 0
27 252 101 0
-256 -150 -209 0
-54 191 -29 0
-99 248 223 0
86 -72 214 0
-3 -104 88 0
5 -221 252 0
241 166 217 0
28 -137 168 0
117 129 -246 0
-103 -131 -32 0
151 -190 -152 0
-234 108 -191 0
114 96 235 0
-146 209 -94 0
-119 37 153 0
194 -158 79 0
181 57 -93 0
-210 -11 -25 0
-38 -247 65 0
210 239 -127 0
-55 -241 -218 0
-262 -220 -85 0
-116 -175 110 0
-273 -81 184 0
53 -120 -32 0
-153 82 143 0
-88 -79 -2 0
-115 -125 -217 0
-174 274 -88 0
-171 -153 173 0
-50 -174 145 0
168 215 -50 0
230 -46 -188 0
59 -187 221 0
-162 -133 189 0
-158 -12 235 0
-183 11 -123 0
-89 -229 83 0
-196 167 105 0
-173 175 124 0
-104 145 61 0
79 -182 11 0
-104 120 -6 0
-60 -29 269 0
-149 33 170 0
136 118 91 0
-89 265 214 0
237 264 26 0
129 201 -75 0
250 244 -228 0
-237 177 242 0
-48 -137 199 0
133 239 -174 0
-104 -211 27 0
-46 -126 4 0
-56 -18 -124 0
-207 162 -180 0
-64 99 218 0
-22 221 -227 0
31 -223 -186 0
13 206 -92 0
-156 259 160 0
86 -15 -178 0
113 63 214 0
60 233 243 0
-253 170 -162 0
-140 -199 8 0
33 -195 49 0
-83 -256 -134 0
-98 -47 221 0
250 147 164 0
-30 271 267 0
231 -20 -176 0
-78 187 -229 0
26 -233 66 0
-108 148 -221 0
-244 -44 222 0
35 -25 -204 0
-57 -43 64 0
213 -210 -6 0
-117 66 -249 0
-122 78 180 0
166 -248 -201 0
210 -61 258 0
-54 235 -152 0
173 -244 -194 0
-202 -96 -117 0
-237 32 71 0
6 -270 1 0
-25 -209 104 0
272 20 -222 0
216 -207 -29 0
96 53 257 0
48 76 -225 0
39 -90 -3 0
47 65 -219 0
-17 39 -14 0
21 -104 -240 0
-184 242 -32 0
-89 -49 -159 0
-100 238 245 0
-224 -80 -167 0
150 -177 172 0
177 79 216 0
-98 -169 271 0
-136 225 -177 0
-126 -144 231 0
38 -98 -119 0
-275 -193 259 0
-269 -57 8 0
99 195 -138 0
-138 80 -184 0
161 29 -250 0
238 143 -63 0
-99 -238 73 0
5 149 -140 0
115 149 -29 0
-161 165 -221 0
-19 167 -126 0
8 118 158 0
22 -243 -44 0
125 -160 -24 0
93 187 -196 0
196 -22 -107 0
-17 -157 242 0
-109 79 -69 0
-152 -148 126 0
125 201 273 0
110 -41 32 0
263 -269 7 0
-167 78 27 0
243 -212 198 0
-56 -239 223 0
-165 171 208 0
251 -148 21 0
-145 164 -147 0
-121 -24 94 0
215 -37 9 0
1 -148 269 0
-47 73 221 0
117 -62 -18 0
-224 -232 -80 0
-226 -125 -13 0
16 -162 -29 0
-235 -3 61 0
-140 34 -266 0
140 -245 -250 0
193 238 -113 0
61 -117 64 0
-109 5 267 0
140 80 219 0
101 124 -216 0
159 -221 -255 0
-48 241 8 0
226 -142 251 0
11 -55 -139 0
-77 -208 56 0
58 126 181 0
-263 -268 -80 0
-179 62 247 0
-237 -250 169 0
-87 89 -17 0
-60 153 -25 0
263 -195 -33 0
207 -169 -142 0
195 -77 33 0
-153 221 -107 0
-107 -108 29 0
-245 -121 -183 0
-177 21 -55 0
-258 180 -21 0
-41 113 -68 0
-246 32 36 0
89 38 -257 0
-21 164 -11 0
-162 38 262 0
-177 161 69 0
-42 155 -31 0
-157 -67 60 0
204 226 -130 0
-192 -252 -129 0
-80 22 147 0
149 75 -262 0
-56 -241 -94 0
178 -199 -57 0
-72 -74 173 0
148 33 261 0
97 -129 -170 0
-128 233 -211 0
199 -238 95 0
-84 93 144 0
-275 -196 -156 0
116 -36 192 0
143 189 98 0
-64 -131 114 0
-239 273 199 0
138 267 171 0
-79 -34 -257 0
252 146 -256 0
67 -147 81 0
-59 65 104 0
114 -172 179 0
-160 223 76 0
29 -187 -268 0
194 109 -113 0
7 -206 5 0
84 118 223 0
120 1 67 0
-165 -71 189 0
129 61 72 0
-93 167 105 0
-267 -111 -195 0
221 61 -14 0
-91 173 52 0
-116 160 -146 0
235 210 164 0
-187 206 53 0
-168 81 205 0
-181 124 -188 0
220 41 -102 0
-104 -10 105 0
229 17 -264 0
-187 25 -247 0
-15 72 -215 0
117 149 192 0
182 -44 -217 0
102 -45 258 0
182 -165 -179 0
110 -247 161 0
-4 174 -263 0
-95 -54 89 0
-5 -71 -242 0
-49 -23 51 0
-255 -228 -62 0
266 187 152 0
-146 -56 218 0
-59 -216 -163 0
205 111 192 0
1 -172 -52 0
161 -17 -52 0
-80 197 -16 0
120 2 252 0
216 128 26 0
-198 -242 7 0
-148 134 251 0
119 -221 37 0
-274 93 81 0
83 -238 178 0
213 -31 -237 0
110 136 -44 0
99 -105 247 0
143 174 -62 0
85 -148 -262 0
166 -143 -275 0
51 55 -56 0
-47 12 -111 0
226 -255 195 0
186 266 138 0
-88 6 -145 0
-70 144 275 0
-270 246 -41 0
-174 235 -273 0
-4 -80 -131 0
-158 137 -171 0
12 265 -216 0
62 -262 112 0
-20 106 -144 0
260 215 -218 0
129 208 211 0
252 272 -172 0
-204 265 -257 0
-133 20 15 0
73 103 -266 0
225 -67 -262 0
1 91 182 0
103 179 35 0
202 260 -120 0
11 239 261 0
235 -117 132 0
77 -110 -101 0
-262 -97 -153 0
-223 11 133 0
-159 4 208 0
-220 164 75 0
47 -56 -161 0
160 -182 -71 0
78 187 80 0
132 -143 -108 0
96 26 -115 0
-132 -253 -216 0
31 61 266 0
126 -41 110 0
-130 101 -138 0
108 -241 230 0
238 175 -69 0
60 -56 -245 0
-210 186 139 0
26 162 -71 0
-134 -36 222 0
85 -239 233 0
-12 -129 -209 0
183 131 185 0
251 68 -47 0
275 -68 -226 0
-17 -143 -182 0
38 33 -148 0
77 19 220 0
6 -98 183 0
218 264 187 0
-263 -195 139 0
-195 -220 -264 0
-210 134 -267 0
-12 115 -15 0
-194 -141 -9 0
213 -60 -39 0
148 232 -25 0
98 30 -270 0
176 70 126 0
-262 213 273 0
109 112 -228 0
-131 159 273 0
-99 -234 -183 0
33 -215 -42 0
256 -224 -258 0
200 -161 -211 0
241 55 -82 0
201 197 242 0
111 201 141 0
151 62 -130 0
266 -267 -60 0
-210 242 -107 0
111 -3 149 0
9 128 -108 0
-135 -195 -273 0
-150 -14 195 0
-53 201 82 0
-27 -166 275 0
-13 -250 -136 0
-17 31 -32 0
1 -41 -128 0
273 -130 37 0
162 -238 -40 0
67 60 133 0
-81 -15 149 0
88 135 257 0
-252 8 247 0
-16 -255 234 0
12 -55 -259 0
3 -82 124 0
6 158 114 0
232 145 61 0
-167 -198 119 0
269 -25 62 0
-78 -39 -238 0
-72 -37 -137 0
-197 216 1 0
246 -85 169 0
-131 -52 -216 0
40 -178 -186 0
149 -103 -14 0
-161 -46 179 0
-16 -119 -32 0
-76 126 -52 0
-150 194 -35 0
-9 -183 -192 0
174 -179 -96 0
80 250 254 0
-50 -222 185 0
49 34 209 0
-225 180 -173 0
-37 86 -96 0
72 236 221 0
-103 39 -88 0
47 166 -201 0
-126 43 94 0
-26 183 -201 0
-190 102 -113 0
121 -263 -153 0
-214 -45 4 0
-111 -168 -113 0
-195 -5 1 0
-59 193 91 0
-71 -80 167 0
148 -69 -182 0
159 -235 -219 0
-247 -132 -111 0
228 -99 -106 0
189 -270 71 0
-138 205 197 0
89 -5 -155 0
158 239 185 0
101 198 -187 0
257 115 -4 0
-44 -123 -182 0
-65 133 -86 0
75 -90 72 0
15 243 -136 0
190 260 245 0
188 165 243 0
176 8 54 0
124 -65 -95 0
232 139 -46 0
137 271 6 0
74 -254 -35 0
-269 -18 251 0
55 -165 -90 0
202 240 -57 0
157 -108 44 0
251 141 48 0
-25 116 44 0
160 154 105 0
-162 40 182 0
57 17 136 0
-66 -122 -247 0
239 111 32 0
1 -101 67 0
150 37 195 0
17 -147 -21 0
-38 -202 205 0
-232 -213 -174 0
36 48 45 0
33 109 -134 0
-274 -125 109 0
-43 -272 59 0
-178 138 92 0
191 -21 -253 0
-42 -222 -60 0
160 116 140 0
48 250 -222 0
30 92 -205 0
-36 -183 -132 0
-106 139 248 0
233 213 39 0
-99 196 223 0
-26 -19 -200 0
125 60 256 0
257 -243 -262 0
-221 -145 -274 0
-1 144 -67 0
-186 -253 11 0
117 -141 -85 0
-172 -235 141 0
-234 -104 -37 0
-74 241 7 0
-256 -5 -263 0
-52 77 -4 0
-151 141 130 0
-142 -240 -96 0
63 266 -122 0
-22 257 52 0
-93 12 134 0
-130 103 162 0
269 212 128 0
-168 -86 223 0
257 56 -101 0
-65 -254 -160 0
56 221 45 0
227 -117 240 0
-99 -46 71 0
186 247 -271 0
-146 -79 33 0
83 206 217 0
265 149 -69 0
98 -153 -81 0
188 108 -160 0
21 -253 62 0
140 -36 -80 0
77 195 115 0
250 234 258 0
139 -141 -158 0
-111 -129 -236 0
-112 -101 -59 0
-245 -182 162 0
-142 230 188 0
92 -265 227 0
-164 -83 139 0
-11 -79 60 0
194 -272 145 0
39 21 -16 0
-233 173 106 0
-22 130 -98 0
59 180 133 0
-39 222 -16 0
-34 118 -45 0
-148 -9 175 0
-257 -62 -251 0
193 265 -1 0
60 -180 6 0
-229 137 -169 0
-46 -54 -51 0
-48 -35 -6 0
-15 64 24 0
-53 -206 241 0
-136 -259 -48 0
18 -31 -150 0
-257 -88 -67 0
195 -90 -259 0
198 274 102 0
-256 -191 11 0
43 -74 -189 0
53 -32 28 0
146 43 -44 0
-201 -183 -158 0
-42 92 -109 0
-252 -143 27 0
-31 -239 -212 0
-204 -266 -104 0
156 -269 -110 0
-127 152 245 0
-68 104 232 0
248 -191 -157 0
-230 -255 231 0
-219 -116 52 0
-55 -1 115 0
-189 -59 -144 0
-250 -139 223 0
-202 -105 259 0
-132 -24 201 0
-23 -132 50 0
-166 174 232 0
8 -95 -260 0
191 -54 116 0
-74 -19 198 0
-13 -160 145 0
236 -1 -108 0
-150 62 36 0
105 -220 206 0
-64 268 -199 0
-102 89 76 0
-45 -91 -1 0
-148 -92 229 0
-89 -142 97 0
-79 -140 214 0
-68 130 19 0
13 271 -72 0
121 -260 132 0
-151 -237 78 0
75 -24 -250 0
264 -29 182 0
-233 114 -228 0
-110 -18 199 0
-246 38 134 0
-225 -63 -8 0
62 -174 251 0
46 -148 70 0
129 -56 -47 0
-71 -81 175 0
-69 14 -96 0
186 233 101 0
-58 -161 -200 0
-141 -205 46 0
-243 226 -112 0
66 -96 118 0
-60 35 28 0
224 -17 10 0
53 58 37 0
181 -186 35 0
-211 14 131 0
220 185 107 0
220 -88 -189 0
162 -270 99 0
117 -180 -245 0
138 129 -187 0
-232 -212 242 0
-141 254 86 0
-271 -53 211 0
222 5 261 0
242 252 67 0
65 -68 -74 0
-59 -193 46 0
242 -263 -55 0
191 208 193 0
255 -110 54 0
-88 55 269 0
-93 -145 222 0
-29 -105 -228 0
140 -72 185 0
42 157 63 0
166 -36 -215 0
218 149 4 0
-167 -92 230 0
38 -94 163 0
184 -163 158 0
49 -55 -36 0
-243 257 83 0
-269 -41 -74 0
-119 -114 186 0
-242 22 -196 0
162 234 -45 0
-91 139 -89 0
-136 147 -60 0
-21 -137 243 0
-132 -80 -190 0
-194 -195 -97 0
223 129 -73 0
-148 168 5 0
-209 41 17 0
61 -76 153 0
255 26 233 0
-210 -63 -109 0
40 249 -252 0
-60 -224 -78 0
-186 -172 -207 0
33 -100 248 0
-82 232 -127 0
186 44 -274 0
-10 169 -105 0
-17 157 -250 0
-232 -46 -252 0
108 -198 -150 0
-78 37 -235 0
-203 183 -175 0
-128 209 268 0
36 -29 114 0
91 -9 12 0
182 -230 3 0
195 -52 220 0
59 221 191 0
-209 -151 8 0
-119 84 -80 0
-4 -23 -143 0
-147 -216 113 0
175 -173 -226 0
-94 -184 243 0
140 44 -25 0
-52 75 -2 0
-257 242 161 0
64 176 183 0
-36 -188 -73 0
36 153 249 0
263 185 230 0
135 143 -138 0
54 92 -260 0
-181 -107 270 0
8 179 -126 0
100 -208 -36 0
230 -234 164 0
195 57 -257 0
-58 -128 -24 0
202 -13 31 0
48 -108 -226 0
59 -9 -226 0
124 262 141 0
-229 -140 -135 0
-275 -25 -252 0
90 -93 15 0
-5 -94 -27 0
-21 -173 -22 0
226 241 140 0
152 199 -10 0
-88 -248 115 0
-113 -225 -122 0
-244 -31 103 0
128 -230 181 0
118 128 -178 0
228 -129 71 0
-225 179 78 0
-67 -65 13 0
-40 72 -180 0
67 -68 -233 0
-8 -95 58 0
-12 176 172 0
84 231 -125 0
213 -81 -3 0
-75 -134 -39 0
4 -137 156 0
236 -174 151 0
190 54 221 0
121 190 -87 0
-158 -86 56 0
83 -179 -162 0
101 61 57 0
-161 -212 -151 0
-125 -262 138 0
127 21 233 0
-238 202 -211 0
-171 63 -25 0
-117 30 -68 0
-80 -262 249 0
-130 201 -147 0
-20 65 122 0
-209 130 146 0
247 189 -169 0
121 -211 133 0
-39 -220 -99 0
-41 257 -122 0
68 71 -16 0
247 41 35 0
-97 247 -257 0
-206 -269 -54 0
223 110 -151 0
191 -270 -258 0
7 -127 3 0
38 -159 242 0
73 198 60 0
-197 204 160 0
145 169 126 0
179 -170 98 0
-23 173 233 0
78 -194 242 0
-85 90 209 0
-226 -134 202 0
90 -195 -242 0
-152 209 -144 0
11 -158 -208 0
92 151 -205 0
-15 78 208 0
-58 -259 107 0
-155 -128 -230 0
204 -200 -167 0
262 90 256 0
-191 88 263 0
-201 -6 40 0
116 -42 -249 0
78 -12 217 0
-103 244 -156 0
63 -205 193 0
-149 180 98 0
-103 29 -143 0
163 53 -70 0
-4 161 -212 0
-47 263 196 0
-21 -197 -259 0
103 140 142 0
-135 258 -190 0
274 92 142 0
74 -45 264 0
121 209 -116 0
117 48 242 0
-263 -193 42 0
-100 14 -1 0
-95 247 -91 0
17 174 206 0
-67 273 -60 0
68 -134 -256 0
204 -1 -173 0
-76 253 168 0
-237 -30 71 0
-250 186 133 0
-134 75 19 0
-271 133 -152 0
82 -214 -252 0
-145 -227 136 0
189 207 -28 0
100 -133 -164 0
-273 -155 18 0
-20 -46 -158 0
-137 -168 -126 0
255 -261 52 0
-125 237 -70 0
-33 266 -150 0
-168 234 77 0
259 51 162 0
117 208 -10 0
-48 -180 -207 0
-158 -65 -61 0
230 224 -155 0
178 -247 -212 0
-184 70 258 0
178 -213 -199 0
137 -76 -180 0
-191 -210 212 0
59 -37 -71 0
20 164 -155 0
-8 250 -174 0
5 27 -4 0
-27 119 65 0
243 139 -234 0
-80 -20 -236 0
-203 -129 -164 0
-43 130 5 0
-72 2 -80 0
-21 -224 -8 0
-214 170 64 0
27 -89 -225 0
-83 -203 -1 0
126 -156 -86 0
-41 -142 -225 0
-263 180 230 0
15 23 -144 0
-79 -14 70 0
-42 -17 233 0
169 -36 -34 0
-92 199 24 0
195 -249 41 0
258 -240 249 0
-48 260 106 0
38 262 119 0
76 -130 -234 0
144 -54 136 0
165 -11 -66 0
-8 -43 49 0
190 79 213 0
-115 -80 -247 0
24 -176 182 0
52 -259 243 0
-73 -106 -177 0
-48 186 164 0
81 234 -137 0
109 51 -243 0
-28 124 -208 0
-172 -103 -51 0
-64 110 -96 0
-196 146 -170 0
-273 -15 109 0
-146 -7 -33 0
-96 -16 136 0
199 130 33 0
209 -64 -148 0
-130 -261 -73 0
168 -109 80 0
237 81 -7 0
-123 227 -182 0
-170 114 81 0
-180 195 -139 0
102 137 -219 0
-14 -164 -9 0
196 -135 -256 0
181 272 163 0
-81 163 202 0
31 190 94 0
122 -170 83 0
165 29 91 0
109 -199 37 0
184 210 26 0
136 -124 156 0
-24 -8 228 0
254 252 -255 0
63 -263 -52 0
205 -75 110 0
-152 -143 16 0
52 167 -117 0
-182 122 126 0
106 168 -265 0
-72 -275 139 0
-29 54 22 0
-39 -42 -96 0
-73 -165 36 0
-23 32 180 0
-230 104 -227 0
160 189 257 0
260 -166 -159 0
-130 158 210 0
170 82 -203 0
