p cnf 275 1171
-68 134 51 0
-32 173 -248 0
114 -147 84 0
-154 59 235 0
101 123 -199 0
-193 85 -177 0
7 -185 -228 0
-151 -37 156 0
225 218 -3 0
206 -134 45 0
-195 217 -70 0
40 92 32 0
50 -14 -10 0
-264 144 -216 0
230 114 88 0
59 237 -121 0
137 68 62 0
177 235 -118 0
-67 -265 -10 0
30 -97 47 0
-183 -168 -47 0
-202 256 -264 0
220 -91 -74 0
-222 -260 -16 0
-251 -45 166 0
-115 -30 -116 0
11 132 270 0
53 167 -138 0
186 5 -256 0
209 -34 -257 0
-64 -127 264 0
-154 -34 83 0
166 235 37 0
237 -58 -56 0
-230 -273 64 0
138 68 -50 0
25 -55 -125 0
-27 -243 -80 0
182 64 -185 0
-152 -136 -225 0
9 226 -117 0
145 102 -197 0
-203 70 117 0
-35 -19 76 0
226 -76 148 0
119 61 -236 0
190 12 -248 0
-236 -38 108 0
58 230 15 0
-186 97 265 0
190 210 102 0
-188 -266 -233 0
231 175 -230 0
89 -175 93 0
35 245 268 0
221 -56 110 0
175 -231 -131 0
-153 197 243 0
-94 -239 -150 0
111 233 -198 0
-130 -180 -227 0
-222 -219 42 0
-57 194 182 0
-253 -64 14 0
-133 248 52 0
-91 112 14 0
-250 -107 68 0
-241 117 -142 0
-71 223 119 0
-151 -136 -72 0
85 -42 -118 0
215 -237 144 0
-61 -240 -52 0
73 -204 -131 0
26 -253 236 0
-273 246 72 0
-75 -26 25 0
-36 229 117 0
-31 122 80 0
-186 -36 269 0
163 266 24 0
171 173 -64 0
143 15 64 0
162 -109 146 0
56 35 -206 0
178 -55 -196 0
270 196 -275 0
-211 1 124 0
-40 66 225 0
-219 -149 179 0
-131 56 -95 0
39 -195 55 0
-54 85 197 0
172 -113 232 0
-149 -189 37 0
-28 -221 264 0
90 37 170 0
-44 -144 -161 0
259 54 -182 0
76 -103 6 0
253 -44 -75 0
246 1 -22 0
225 145 -37 0
2 160 35 0
263 -69 -170 0
-127 47 -221 0
250 -20 -249 0
116 -254 -108 0
105 136 -3 0
-111 213 -253 0
-113 216 -100 0
156 -89 -108 0
236 -151 -193 0
-189 -40 -131 0
166 -8 196 0
-59 86 -187 0
-138 -148 -117 0
-81 -180 159 0
-148 192 173 0
-20 196 -189 0
-64 -74 -77 0
99 -235 126 0
-54 -230 -82 0
-178 -5 146 0
238 89 -52 0
-164 250 266 0
-110 177 48 0
19 174 258 0
202 63 224 0
-183 -208 -148 0
-212 -215 59 0
-248 -206 -142 0
39 157 257 0
-199 -72 -236 0
117 153 48 0
190 227 99 0
247 -7 218 0
192 -132 -36 0
-10 -168 -141 0
100 -66 -184 0
-233 51 -202 0
76 -261 -270 0
-218 248 254 0
-99 -186 226 0
201 99 -45 0
17 188 -94 0
170 -62 132 0
253 117 -12 0
-104 207 -109 0
103 -160 161 0
244 -6 -271 0
69 251 181 0
-13 -136 59 0
-186 50 176 0
-259 -67 -216 0
-239 122 -20 0
-269 -273 52 0
122 31 -256 0
-81 -57 -178 0
165 -122 -24 0
182 106 190 0
-29 62 -69 0
-251 -30 -63 0
211 -237 -50 0
119 -71 -77 0
-210 -187 -262 0
-67 194 -28 0
90 264 7 0
136 57 -264 0
16 203 34 0
-156 61 -201 0
-169 -56 221 0
58 73 8 0
157 133 262 0
-37 113 -105 0
144 -220 22 0
266 50 -53 0
76 -50 268 0
211 183 -161 0
240 -206 97 0
-203 270 197 0
103 50 -75 0
-93 61 -161 0
31 216 132 0
-17 145 -263 0
-235 -193 178 0
-70 -137 -206 0
269 -119 221 0
-126 -46 189 0
47 187 107 0
141 165 93 0
-266 142 14 0
-201 -191 -189 0
197 -227 -23 0
76 259 -165 0
-11 -247 -193 0
-223 161 165 0
-69 271 270 0
-14 74 -224 0
-155 -266 -114 0
53 174 -126 0
-150 151 -193 0
28 -239 -262 0
-136 -11 172 0
-130 -266 -228 0
210 7 62 0
-129 146 182 0
29 254 -255 0
-266 138 -13 0
-172 16 -245 0
-239 226 -169 0
-50 193 -9 0
-9 63 -52 0
-152 -31 -38 0
-136 83 -47 0
21 152 -208 0
210 -46 -179 0
-160 -74 -42 0
-98 -267 -72 0
-111 -251 -70 0
-269 -128 -50 0
200 -264 117 0
209 -104 170 0
48 6 -269 0
-149 244 -60 0
-15 -218 137 0
-202 183 -243 0
-82 221 22 0
124 -29 -84 0
-169 -104 -61 0
-255 -147 -191 0
61 118 157 0
-38 -59 -245 0
-29 207 -205 0
-242 -137 -257 0
-189 252 134 0
-180 -177 -120 0
224 -272 193 0
-236 133 108 0
147 56 66 0
-120 132 -246 0
-100 -76 140 0
116 224 -147 0
-235 254 146 0
247 -176 -188 0
235 79 -210 0
-238 -38 97 0
93 -212 -203 0
-159 -189 46 0
-112 212 275 0
87 162 58 0
-123 78 -31 0
-76 -226 275 0
102 -62 -258 0
273 41 50 0
-84 -170 151 0
52 231 230 0
172 47 -197 0
127 -7 -193 0
78 270 62 0
183 193 273 0
186 -145 -136 0
-10 85 -138 0
29 -188 257 0
-63 120 -52 0
44 -69 184 0
-26 -167 -6 0
93 143 61 0
255 -179 -46 0
-88 229 -122 0
-22 162 -116 0
115 232 152 0
-18 -92 270 0
-60 -143 -125 0
-146 -64 -239 0
-153 -181 180 0
26 -64 235 0
-127 35 22 0
-73 262 271 0
-231 216 117 0
-117 -194 -185 0
-272 71 -55 0
92 136 -244 0
-107 243 -155 0
-10 -19 -61 0
76 176 202 0
-120 -212 -215 0
-10 47 18 0
-51 -228 -174 0
7 232 -200 0
-234 49 -21 0
-110 -35 -191 0
-42 -178 -201 0
-134 -87 -112 0
-145 24 82 0
200 -40 -116 0
-200 -185 140 0
-26 184 -46 0
-119 -36 75 0
205 -174 -253 0
31 239 -139 0
-53 185 -54 0
173 200 -253 0
-146 -191 -30 0
138 -264 89 0
-246 -255 161 0
122 66 94 0
-198 10 -52 0
-241 243 -100 0
-30 198 -169 0
-208 204 -203 0
221 181 -187 0
-75 -51 -135 0
189 -268 1 0
77 -104 121 0
-115 65 4 0
164 -20 201 0
-226 -79 -33 0
-134 -74 222 0
-109 85 273 0
-10 164 -218 0
-86 -118 167 0
-210 251 -43 0
123 131 -109 0
212 -167 83 0
-27 -224 157 0
-55 22 56 0
-152 271 -155 0
8 -31 15 0
-208 71 -204 0
191 34 230 0
105 224 -210 0
-236 -130 -62 0
-140 -260 -139 0
246 -218 138 0
-207 -26 7 0
-91 -6 25 0
-218 26 130 0
-257 -241 42 0
159 207 -91 0
11 -269 147 0
-143 -236 -126 0
-175 30 -132 0
61 -129 202 0
-3 155 138 0
-22 102 -223 0
-7 -123 108 0
50 -118 261 0
-92 254 -260 0
-5 -133 -38 0
69 -104 47 0
-124 -56 -223 0
238 -218 -10 0
235 -256 190 0
-248 68 -229 0
181 52 188 0
-216 157 201 0
-155 -179 -93 0
-257 -136 22 0
-15 -187 -3 0
-197 -259 158 0
-244 171 -67 0
-79 -271 5 0
-34 244 -3 0
-27 159 -198 0
257 259 233 0
-82 211 -262 0
-184 -108 186 0
-118 -122 -117 0
127 163 222 0
13 252 -249 0
-1 -87 161 0
51 -237 -77 0
-22 -210 -223 0
-174 237 -19 0
48 123 -105 0
246 -15 71 0
-192 178 -82 0
-26 -65 147 0
257 62 173 0
28 -192 140 0
-212 -99 -71 0
-32 12 -133 0
-11 181 -17 0
-206 -52 170 0
170 -61 -76 0
-57 86 134 0
61 -76 105 0
58 -189 244 0
117 -136 -15 0
-37 225 -77 0
187 94 8 0
67 145 269 0
59 -12 -73 0
-31 228 -86 0
-171 -135 -93 0
-255 -62 263 0
182 -94 136 0
37 -138 122 0
224 -86 42 0
218 -170 39 0
-182 123 212 0
-107 200 105 0
-162 -39 214 0
-239 67 -198 0
-113 258 78 0
-243 235 154 0
-130 91 -221 0
-161 -234 183 0
-243 -20 25 0
-91 178 70 0
-87 185 -27 0
-255 -59 182 0
-103 16 -203 0
244 16 258 0
-15 251 147 0
219 101 248 0
269 141 60 0
111 -233 -51 0
183 128 26 0
116 180 50 0
-252 14 -161 0
176 -34 -174 0
186 173 243 0
-104 149 141 0
50 273 103 0
158 -218 205 0
-225 -133 -20 0
103 -240 -206 0
-62 -60 100 0
-110 -275 266 0
71 159 -210 0
-139 -84 -157 0
3 161 -222 0
197 -16 -21 0
-214 -80 196 0
13 65 -41 0
69 -196 -197 0
-268 160 79 0
-104 245 253 0
-38 182 257 0
103 -41 -24 0
-14 256 182 0
202 79 -257 0
213 47 275 0
-230 162 -74 0
-60 -42 -85 0
-39 75 159 0
171 -257 -124 0
-36 213 82 0
190 123 -161 0
116 231 55 0
-19 52 88 0
-76 42 -69 0
127 113 183 0
66 19 -227 0
130 -266 -101 0
262 -255 -174 0
39 172 -193 0
-68 -122 236 0
265 249 219 0
-231 -70 -88 0
-256 30 56 0
-2 -60 31 0
-69 81 -83 0
183 274 156 0
52 10 252 0
-51 104 -186 0
-133 240 236 0
-5 193 -189 0
-84 17 65 0
223 -165 173 0
216 -252 -54 0
80 52 -14 0
23 10 203 0
121 119 208 0
84 -195 96 0
218 190 132 0
-89 -91 -11 0
236 -224 -142 0
5 -252 16 0
6 36 95 0
-250 195 186 0
-229 38 -249 0
110 -247 -225 0
-168 260 58 0
17 185 -47 0
204 25 111 0
53 168 -102 0
155 -265 188 0
-66 168 242 0
-69 226 159 0
183 250 273 0
-94 87 54 0
-206 -46 -275 0
-130 -225 -75 0
149 257 -184 0
166 -197 243 0
-165 -198 -228 0
103 257 135 0
10 -203 202 0
174 -137 -88 0
228 -184 26 0
274 -114 27 0
-6 72 -202 0
247 -181 46 0
186 -251 17 0
-151 101 -99 0
-86 260 -215 0
171 169 -198 0
226 15 159 0
213 260 -21 0
-141 -17 132 0
-81 -183 102 0
-133 99 -221 0
-147 262 -72 0
-148 159 179 0
-235 -128 -251 0
-143 66 -153 0
185 -143 -181 0
77 89 -233 0
35 118 -82 0
-211 -244 274 0
87 229 235 0
120 -228 -140 0
-123 174 -195 0
-97 167 129 0
187 -222 -191 0
251 46 195 0
-113 -273 138 0
-250 261 -164 0
-175 252 -81 0
-38 221 181 0
-115 194 222 0
36 27 -275 0
130 160 79 0
-91 -200 -107 0
233 -174 -223 0
271 -45 121 0
-177 101 172 0
-176 202 101 0
-103 170 -167 0
-223 -100 -44 0
147 -125 -112 0
219 -12 -40 0
201 199 188 0
236 -257 213 0
-254 156 269 0
83 -95 71 0
-189 158 -247 0
185 -222 152 0
-161 233 -54 0
224 -21 -190 0
235 -154 131 0
81 -223 203 0
-137 -104 -115 0
124 149 -140 0
-67 119 -132 0
140 -161 267 0
105 -46 111 0
7 -47 -71 0
272 -231 63 0
33 207 251 0
-234 -24 221 0
-53 191 192 0
261 245 122 0
-250 18 -273 0
-209 -152 -100 0
91 -18 30 0
178 3 148 0
154 -226 157 0
-199 -135 -107 0
56 82 -252 0
-90 173 251 0
36 11 -228 0
109 62 65 0
-69 -203 200 0
30 -144 150 0
-103 -121 -207 0
-189 -275 193 0
-274 57 140 0
-96 -234 91 0
-151 -158 -59 0
249 -191 -61 0
232 -141 -147 0
-226 -149 -257 0
-168 -199 119 0
-111 105 75 0
209 114 23 0
138 80 172 0
-249 -214 -244 0
32 -112 193 0
-271 41 -117 0
-272 -109 -59 0
-135 156 38 0
79 275 33 0
-1 115 -31 0
29 -36 98 0
124 220 270 0
-64 -233 -120 0
193 35 128 0
-44 136 -218 0
175 -221 147 0
-90 226 238 0
-64 116 170 0
-119 -181 189 0
100 -90 -86 0
82 252 -88 0
-181 -197 -19 0
9 -147 177 0
72 -142 198 0
119 -42 80 0
151 -70 20 0
-201 -107 -119 0
-68 -191 146 0
-66 245 53 0
172 33 -203 0
-7 -70 79 0
61 -164 -232 0
137 -87 61 0
-266 -150 -106 0
-155 -254 244 0
136 266 223 0
143 -202 15 0
-160 -132 186 0
-250 141 184 0
-136 -213 113 0
-247 -18 22 0
50 152 -197 0
-129 96 273 0
16 -216 142 0
-125 50 157 0
109 -144 -40 0
43 232 -5 0
29 85 -51 0
170 -194 -128 0
-175 208 -199 0
263 59 -38 0
-64 131 -268 0
-113 188 -132 0
-207 -245 218 0
-161 200 -192 0
-225 -5 -60 0
223 232 -115 0
-33 -207 254 0
251 113 24 0
164 -59 170 0
59 -253 129 0
175 251 -91 0
259 -69 94 0
-131 -72 88 0
273 -126 -146 0
251 -62 101 0
-166 261 57 0
122 -139 151 0
133 256 -70 0
-204 166 -153 0
-63 59 -84 0
-111 95 -40 0
232 265 -182 0
6 141 -27 0
-235 142 83 0
-174 -149 -203 0
114 51 -144 0
227 113 243 0
-124 -111 2 0
266 124 40 0
99 165 -88 0
106 -208 -84 0
221 -12 -129 0
-202 -258 -275 0
-93 179 73 0
-174 213 -227 0
-40 204 190 0
10 -251 20 0
-183 30 -44 0
173 198 -42 0
-212 164 43 0
-231 230 -95 0
-211 -198 -200 0
131 -203 -91 0
228 -218 -150 0
265 -42 -127 0
-4 27 241 0
244 -52 128 0
-177 245 -255 0
-10 -186 177 0
-169 146 160 0
-116 -209 183 0
-221 171 70 0
23 41 52 0
32 -130 -258 0
126 -114 -206 0
252 240 89 0
-5 86 107 0
258 -30 23 0
267 -172 69 0
159 64 13 0
-237 219 79 0
133 156 -171 0
-264 56 -145 0
135 99 -116 0
17 -40 -111 0
-230 -141 66 0
5 -191 84 0
-223 -27 17 0
266 122 -8 0
-92 83 -40 0
-181 151 112 0
185 -169 -263 0
78 194 -250 0
258 -211 272 0
-139 155 -260 0
-170 79 44 0
44 -93 -95 0
204 10 157 0
-140 -251 19 0
171 -12 74 0
-218 -234 -20 0
106 -253 48 0
108 -19 -60 0
241 -86 83 0
-22 -13 -147 0
26 93 36 0
79 212 -171 0
-12 -119 269 0
-111 7 -166 0
73 156 -230 0
234 170 236 0
-210 -90 -45 0
101 -64 168 0
63 -39 -161 0
-188 102 -157 0
207 54 -122 0
57 -270 -119 0
119 197 -26 0
-9 -264 58 0
32 -197 164 0
-37 -189 163 0
-125 -178 224 0
47 22 208 0
-176 210 111 0
10 -151 -187 0
-113 130 86 0
217 31 -100 0
192 -208 9 0
-2 -32 -275 0
273 -44 125 0
-7 -35 -205 0
5 81 -52 0
-144 249 62 0
-99 168 269 0
-196 28 227 0
119 -245 161 0
-7 130 173 0
74 143 155 0
130 220 -166 0
-130 -91 -10 0
-134 4 -186 0
-248 -173 115 0
-250 241 -274 0
-208 -117 221 0
192 -174 -175 0
237 -9 241 0
230 165 -233 0
-274 114 -54 0
-140 167 -26 0
-238 132 246 0
212 153 133 0
-74 159 174 0
-21 258 -254 0
88 -190 -14 0
-3 -110 -172 0
9 -2 -72 0
-241 -119 -79 0
5 -188 -243 0
45 42 -16 0
-236 -89 -55 0
57 -161 -262 0
-173 -117 -59 0
71 144 -157 0
-204 -10 238 0
30 -243 -179 0
-23 94 61 0
-107 119 -10 0
36 -29 200 0
25 125 84 0
41 8 50 0
-36 78 -66 0
140 -33 156 0
121 -187 201 0
-136 -257 184 0
-133 129 97 0
-192 109 50 0
-172 -240 -129 0
-71 -196 -109 0
107 119 3 0
-97 -127 -162 0
-247 -1 18 0
213 220 113 0
25 212 -140 0
5 -3 -71 0
-268 134 -159 0
-39 76 -45 0
60 186 -145 0
-59 197 95 0
6 -204 205 0
-167 261 -144 0
-45 4 154 0
-154 -211 -209 0
152 126 198 0
128 32 38 0
-161 107 24 0
-43 -259 -125 0
-46 103 23 0
161 -244 241 0
81 -99 88 0
-127 -64 -214 0
179 157 274 0
-223 -131 -154 0
231 -190 -45 0
269 -193 249 0
-261 254 -38 0
-254 -111 -103 0
119 -2 -256 0
205 -261 142 0
28 -80 116 0
33 113 -14 0
138 256 -113 0
196 -136 262 0
-265 255 212 0
207 74 72 0
-7 -42 2 0
-33 -7 150 0
34 192 -31 0
188 -203 16 0
247 -6 258 0
-67 -224 123 0
274 272 25 0
-116 -96 58 0
-177 -30 130 0
126 -163 171 0
-10 69 -56 0
128 201 93 0
70 -68 -76 0
-22 -254 83 0
-112 33 180 0
-244 215 164 0
-82 -83 206 0
-217 13 -25 0
34 -92 -6 0
-87 -1 92 0
160 -197 250 0
-44 -209 166 0
217 159 7 0
-165 -103 22 0
-126 -268 -169 0
-178 -232 -145 0
144 149 2 0
-244 237 -27 0
226 21 272 0
-209 -157 -188 0
-236 -108 -189 0
-7 186 127 0
-26 -92 -78 0
-37 163 215 0
196 -149 -109 0
252 -173 -232 0
-119 -25 -207 0
2 -57 -255 0
238 -15 -140 0
-81 142 -166 0
180 265 179 0
200 78 173 0
-36 50 163 0
-59 189 266 0
9 -235 -183 0
181 109 165 0
25 227 -76 0
210 -214 218 0
241 -256 -153 0
118 186 7 0
52 -272 169 0
239 -78 89 0
-73 -94 53 0
26 52 -194 0
-46 -97 76 0
102 -87 -170 0
273 -226 119 0
165 213 23 0
-262 241 -118 0
-125 194 -50 0
-241 56 -202 0
-123 -150 -22 0
-214 43 268 0
265 41 21 0
-195 206 -68 0
4 -63 -244 0
-234 129 -243 0
-274 265 4 0
-229 -267 -130 0
96 -120 237 0
-202 136 199 0
-77 167 -244 0
91 272 -190 0
-183 249 -86 0
-250 253 8 0
-84 13 146 0
-27 248 -180 0
-57 -11 177 0
-140 -81 -194 0
121 -12 189 0
5 232 130 0
-188 165 148 0
148 -93 -101 0
24 -147 -23 0
174 83 -206 0
-184 -153 32 0
-200 -233 -191 0
-89 -141 -71 0
112 269 -39 0
245 -201 -174 0
-131 210 -85 0
-246 256 154 0
225 185 -48 0
137 -58 -131 0
-176 262 74 0
65 -118 105 0
-21 -240 -168 0
-195 44 100 0
-212 266 -97 0
114 -72 100 0
-96 -57 -269 0
-120 -34 -258 0
-258 204 -133 0
-85 76 17 0
-169 -78 253 0
-175 -3 21 0
-190 -261 227 0
217 48 63 0
-102 6 -266 0
-235 -126 -198 0
-58 40 -43 0
263 -100 -148 0
-264 148 -198 0
172 -31 -99 0
194 -172 -238 0
251 8 41 0
132 81 -143 0
143 -201 233 0
-32 -108 -9 0
114 56 -149 0
-274 -51 -150 0
-82 72 60 0
-242 183 -188 0
-117 -136 17 0
-46 -263 244 0
104 -268 116 0
-24 97 -58 0
-190 228 -198 0
1 229 273 0
-28 -192 -183 0
-175 61 -52 0
20 58 187 0
71 -75 -73 0
-187 158 -47 0
-12 -137 -187 0
129 33 -41 0
141 248 -16 0
20 -240 275 0
-139 -275 141 0
24 -212 -144 0
31 -34 61 0
-245 -23 -21 0
-269 -128 -216 0
-16 -209 -59 0
-26 114 227 0
47 49 -128 0
-245 -35 123 0
-98 60 7 0
230 248 -112 0
228 -90 107 0
-274 203 56 0
44 221 -10 0
-195 174 272 0
-86 -31 209 0
-141 -67 173 0
-200 -198 -96 0
-46 -254 185 0
-74 192 -68 0
41 262 119 0
200 -214 185 0
-217 31 63 0
201 -186 -112 0
218 -206 -223 0
-258 -98 43 0
182 16 265 0
-132 37 -251 0
-173 -253 -242 0
39 -198 101 0
147 -260 108 0
250 -94 -171 0
-251 253 -208 0
7 258 -30 0
136 102 16 0
183 -261 -59 0
194 -41 149 0
-180 64 -269 0
-232 6 61 0
195 135 88 0
-194 -259 -211 0
74 -48 28 0
103 -105 -221 0
70 135 -220 0
-230 246 -173 0
-144 254 127 0
-14 -115 -23 0
183 -130 208 0
-200 246 -250 0
-270 216 166 0
182 -198 5 0
212 -228 6 0
-11 -254 -188 0
208 -151 263 0
-66 127 -199 0
88 72 15 0
-19 218 -179 0
-31 -213 -91 0
-69 -27 -242 0
245 -75 165 0
-134 -175 -226 0
-178 156 -78 0
-86 -138 -70 0
-258 269 -72 0
75 222 -236 0
-157 -134 133 0
222 -235 76 0
-126 85 -8 0
192 -153 -250 0
224 5 173 0
-109 259 186 0
75 -77 -248 0
238 -126 262 0
183 59 80 0
105 143 245 0
-127 -46 -212 0
230 151 191 0
-162 160 -245 0
-20 -250 -160 0
163 -271 -207 0
-45 35 176 0
7 -212 -25 0
-20 -25 -39 0
-275 -35 -172 0
203 114 -37 0
-248 56 153 0
11 -204 -260 0
-240 -180 77 0
227 140 -118 0
203 -23 -22 0
-153 -138 -22 0
-275 -214 -188 0
-180 -62 30 0
186 -63 -56 0
-218 104 -47 0
-79 -231 161 0
143 -28 -59 0
-53 -97 200 0
166 178 56 0
-273 -161 -118 0
-181 9 -235 0
-143 -26 68 0
140 -233 -238 0
-232 -147 -132 0
-145 -64 86 0
224 67 -120 0
55 225 174 0
-26 59 -207 0
-262 81 -223 0
-274 -123 -115 0
24 214 59 0
83 103 137 0
182 -64 -183 0
-112 252 176 0
240 -211 -87 0
-202 67 57 0
50 -55 189 0
200 27 49 0
207 -229 -23 0
5 -106 136 0
213 174 265 0
199 -24 243 0
21 235 -125 0
119 -154 72 0
-177 -11 -164 0
-34 77 86 0
-156 271 209 0
95 -7 54 0
-260 11 -12 0
-185 -5 -252 0
-133 -221 119 0
91 -104 -99 0
90 136 -6 0
49 266 -198 0
257 38 -93 0
-195 -103 44 0
100 151 -204 0
150 173 -113 0
-85 -111 -192 0
207 240 -66 0
-219 -33 124 0
-79 30 -182 0
54 -223 -17 0
35 27 -57 0
-25 17 75 0
-161 178 187 0
-68 -205 -189 0
-154 -237 52 0
-4 53 20 0
-208 90 233 0
198 7 122 0
-197 148 79 0
-149 251 -213 0
-146 -214 -26 0
193 -198 76 0
-227 183 -35 0
-253 -133 -93 0
-164 -43 116 0
-14 88 59 0
-50 16 -37 0
-214 269 -65 0
-70 -15 41 0
257 -95 146 0
236 -49 139 0
196 84 44 0
244 -272 -60 0
-84 -133 -39 0
-116 105 204 0
11 -60 118 0
-128 -34 -146 0
209 44 110 0
-91 -153 -127 0
160 -241 173 0
97 212 -108 0
-264 -185 -168 0
-220 240 158 0
115 168 86 0
-77 167 -88 0
-176 228 73 0
-39 -9 183 0
-244 177 -10 0
130 -9 80 0
-206 256 64 0
224 -250 70 0
-256 204 59 0
264 -184 -77 0
-172 -159 -81 0
230 -79 246 0
6 -186 -106 0
-163 -159 70 0
-37 -227 182 0
-33 270 -107 0
-186 274 90 0
-17 -218 166 0
-169 139 -32 0
135 72 -229 0
-185 -135 -193 0
134 -253 -264 0
-18 179 161 0
-145 110 58 0
-232 -76 138 0
