p cnf 275 1171
123 120 254 0
238 -73 -227 0
121 -14 42 0
165 -147 -24 0
256 -166 -151 0
-40 240 263 0
168 -183 229 0
-26 72 14 0
-273 -2 -129 0
-167 -239 57 0
-83 256 59 0
-219 63 -86 0
263 70 -39 0
-3 -140 -138 0
25 -34 -158 0
11 150 -199 0
-240 23 220 0
220 -89 132 0
-207 187 62 0
130 110 -168 0
64 73 -271 0
-237 166 -31 0
129 -51 -1 0
-143 -264 198 0
229 238 -50 0
264 -18 -110 0
55 21 -16 0
230 265 -17 0
-152 166 51 0
8 -60 136 0
-140 73 57 0
-185 13 114 0
19 143 -159 0
-237 -76 165 0
193 238 -37 0
186 78 262 0
-223 -260 54 0
201 -115 -266 0
208 -38 72 0
31 107 -87 0
78 118 -75 0
-76 -12 -126 0
104 -19 -71 0
-258 79 -156 0
-206 38 47 0
-212 111 213 0
99 -265 -43 0
-231 -250 -195 0
-228 -114 -167 0
-54 247 -150 0
-175 165 140 0
227 -101 90 0
-134 203 -44 0
-38 -182 262 0
-271 -243 -225 0
-271 157 122 0
213 37 134 0
92 210 59 0
230 -220 212 0
262 270 -243 0
-66 90 199 0
130 -203 -191 0
-181 12 -199 0
203 -10 -204 0
-135 -189 -148 0
-104 246 231 0
273 -120 270 0
116 251 -216 0
-69 -72 110 0
121 -7 -252 0
-243 172 -264 0
52 -47 149 0
-203 -18 -221 0
-208 -107 -222 0
191 -145 115 0
134 -245 -226 0
-95 128 75 0
76 -45 29 0
74 147 57 0
-57 92 61 0
72 -181 -218 0
-92 260 5 0
-259 -198 116 0
-41 -229 45 0
217 86 -57 0
-187 -116 -77 0
46 231 -8 0
-169 -174 -194 0
14 -250 -203 0
-75 130 -123 0
41 -23 31 0
238 216 124 0
215 -64 -31 0
-69 -193 -143 0
-223 -142 71 0
-5 -153 -114 0
-146 252 260 0
10 15 181 0
218 89 130 0
17 -141 198 0
236 -151 -55 0
-38 141 270 0
122 52 -207 0
65 179 -269 0
-145 -172 -121 0
114 -10 -174 0
-51 181 -27 0
-213 -178 205 0
-108 -100 -79 0
123 -202 -111 0
14 220 -147 0
-218 -101 -125 0
113 -100 170 0
-192 4 147 0
8 -188 -49 0
42 149 -10 0
-231 168 -178 0
-95 80 -45 0
54 224 -164 0
148 -136 -109 0
199 -109 -203 0
-58 213 32 0
162 97 102 0
-246 113 204 0
94 151 -116 0
-140 -98 169 0
-119 -142 -8 0
140 -73 192 0
-163 63 -7 0
122 -241 -173 0
-155 -59 -96 0
-205 -128 -213 0
183 171 -188 0
-50 124 -122 0
-24 -269 -11 0
231 -140 -129 0
49 77 187 0
-49 -267 266 0
198 158 -235 0
-31 111 144 0
190 -222 243 0
-27 2 231 0
10 175 199 0
47 -171 -196 0
56 27 104 0
-247 173 93 0
-92 -100 66 0
86 -117 -212 0
174 -215 -234 0
-223 220 255 0
-170 160 240 0
-230 -151 -261 0
102 -222 -49 0
29 147 -39 0
-104 -263 260 0
-137 -153 -111 0
-58 -52 -144 0
149 -270 -163 0
-146 212 -24 0
-17 -48 239 0
3 -228 -156 0
240 198 178 0
210 -203 137 0
22 -58 -82 0
-71 -55 150 0
222 26 -129 0
-54 243 -235 0
175 -101 -212 0
-54 -11 44 0
5 1 -100 0
70 123 -128 0
-62 149 -32 0
-248 -1 -112 0
31 -256 51 0
251 -60 -40 0
204 106 -5 0
180 -261 161 0
-104 -112 222 0
129 -256 108 0
157 -149 269 0
-121 -63 214 0
-206 -158 -76 0
-223 -117 255 0
-68 57 60 0
-215 6 227 0
-145 -139 -225 0
-266 94 -38 0
-19 -231 -254 0
-143 268 -132 0
50 -73 -264 0
-234 152 5 0
44 -131 -118 0
-87 -56 -158 0
23 -137 -208 0
196 -269 90 0
52 189 101 0
125 -188 -26 0
-135 248 -88 0
44 61 -240 0
33 271 255 0
148 52 -240 0
-108 -83 136 0
-97 10 -55 0
-172 29 96 0
-219 -216 273 0
38 51 -145 0
226 -206 20 0
-247 -196 -75 0
200 -202 -252 0
-223 87 219 0
-73 -150 232 0
-214 78 254 0
-236 85 -57 0
-228 61 -178 0
-143 122 61 0
228 -3 119 0
261 -31 99 0
-223 -31 237 0
89 -238 -233 0
-218 -250 64 0
226 86 153 0
-88 -115 -252 0
-244 130 74 0
-180 237 -38 0
-19 -188 85 0
-154 187 55 0
62 -174 26 0
269 208 -104 0
231 197 68 0
271 -110 19 0
126 -117 -19 0
188 17 -98 0
-169 -196 -108 0
-77 88 -209 0
-131 21 -262 0
-269 23 -215 0
-199 207 201 0
92 -249 -17 0
-89 -80 204 0
61 -109 27 0
-55 -95 251 0
-7 18 133 0
157 127 3 0
-152 15 72 0
-49 22 190 0
256 -140 -70 0
-201 -182 244 0
83 223 7 0
-265 223 202 0
-60 -8 -158 0
238 -268 137 0
-175 -123 -32 0
-60 55 -17 0
166 158 238 0
46 86 -164 0
270 38 -154 0
196 66 -22 0
210 121 18 0
273 46 -53 0
-52 -228 170 0
18 49 -230 0
197 134 -17 0
166 -200 45 0
162 -188 165 0
-200 -271 213 0
-180 263 209 0
256 109 228 0
-63 -48 -217 0
208 -209 1 0
207 152 105 0
-110 -13 -20 0
154 -177 -73 0
38 -10 210 0
-25 124 -95 0
126 -133 -14 0
104 236 -186 0
-175 109 141 0
235 -56 -14 0
175 216 61 0
-94 188 221 0
-133 183 -90 0
3 -44 -52 0
210 144 3 0
25 -164 81 0
110 94 46 0
-259 204 -263 0
-65 -29 -119 0
16 -27 -246 0
31 -195 -7 0
92 -148 118 0
-206 -114 175 0
-210 -131 151 0
-141 167 207 0
253 -112 -163 0
169 233 144 0
232 -103 -4 0
-196 -13 126 0
-176 -178 235 0
-262 115 -254 0
-3 -155 -15 0
-213 158 197 0
-211 -233 191 0
-207 -162 136 0
-205 31 -216 0
-228 -251 237 0
-156 -29 249 0
-119 -184 142 0
-166 265 17 0
-40 128 247 0
33 -182 40 0
246 36 -19 0
-26 -236 162 0
-203 99 107 0
1 -220 238 0
-21 240 160 0
225 -115 -94 0
78 199 142 0
-22 -53 4 0
-258 245 148 0
95 182 -188 0
-82 -225 58 0
146 19 -91 0
155 132 75 0
-41 -40 -220 0
262 -122 254 0
-142 -175 214 0
195 248 135 0
20 249 230 0
102 131 214 0
-269 -119 205 0
108 -209 66 0
43 -218 -242 0
79 -48 -45 0
-266 -169 -86 0
195 127 -216 0
245 -101 -47 0
-117 -204 -29 0
29 221 115 0
258 112 -229 0
213 -117 -131 0
-216 -228 -183 0
187 28 -12 0
176 -85 177 0
28 206 -14 0
101 96 61 0
45 -267 -75 0
120 -143 -126 0
92 203 22 0
64 -10 90 0
-144 152 -134 0
-176 106 267 0
-199 154 -82 0
-15 2 127 0
66 172 239 0
226 -130 -171 0
-142 117 -164 0
46 -89 11 0
-110 97 -236 0
211 147 117 0
29 -107 181 0
-101 98 -244 0
139 -2 -174 0
116 -105 274 0
12 212 23 0
29 -24 -137 0
-98 109 146 0
257 236 -27 0
82 219 -180 0
-77 155 -33 0
75 39 182 0
197 -87 -17 0
192 -186 18 0
-80 -13 -10 0
-209 133 -87 0
76 -3 176 0
-269 62 -190 0
-171 42 -15 0
-3 139 -224 0
-97 -254 -46 0
-274 -229 -269 0
163 -232 250 0
146 271 -84 0
-45 123 113 0
177 -264 266 0
-258 179 47 0
-5 45 -265 0
65 34 269 0
-214 114 -127 0
216 -144 -77 0
174 -52 -43 0
176 261 52 0
101 157 164 0
195 -148 -60 0
204 196 -134 0
37 -111 -163 0
-176 52 -162 0
-184 151 194 0
31 -73 169 0
92 -55 54 0
-32 -45 -259 0
-149 -164 -134 0
173 143 211 0
168 142 20 0
-191 -110 100 0
-272 255 -196 0
-254 157 220 0
-199 171 -196 0
168 197 -141 0
-264 -97 -201 0
115 212 240 0
-136 -180 -71 0
-221 -50 38 0
12 19 -130 0
-81 239 70 0
-4 24 96 0
243 92 -173 0
74 -109 -63 0
-2 -225 77 0
-206 -106 260 0
112 -8 166 0
-36 16 -221 0
73 -206 194 0
264 -204 -121 0
-97 35 238 0
38 -32 195 0
3 -272 148 0
-239 232 252 0
82 12 -158 0
266 115 -105 0
76 16 84 0
149 185 215 0
234 -10 51 0
-36 71 -133 0
168 152 -140 0
38 221 264 0
-30 268 -198 0
-260 251 -265 0
149 134 -233 0
117 -35 242 0
106 -108 4 0
171 166 173 0
-246 24 84 0
266 -134 -53 0
-62 253 205 0
54 146 -249 0
-124 245 -121 0
-72 266 18 0
-60 -58 -142 0
-244 -113 148 0
-241 -98 -130 0
-47 -166 234 0
-168 62 -215 0
-206 194 -62 0
18 143 257 0
177 218 88 0
97 237 -128 0
253 -256 -68 0
-136 20 -243 0
214 250 -253 0
-249 -151 -23 0
-274 190 155 0
180 43 116 0
-144 218 67 0
-210 -234 -8 0
-167 -43 255 0
-168 -176 65 0
-94 37 50 0
174 115 159 0
73 189 62 0
-48 -195 -144 0
18 270 271 0
86 275 45 0
-245 201 78 0
106 95 -21 0
182 -255 -226 0
238 116 201 0
206 -107 245 0
-102 59 20 0
-64 38 -83 0
147 -193 231 0
80 105 -86 0
83 31 263 0
-273 -151 189 0
111 -108 -97 0
-190 115 -183 0
-56 82 -179 0
-253 -221 35 0
2 -152 158 0
-36 191 -61 0
41 -44 26 0
-124 116 266 0
-80 -78 -257 0
-220 27 87 0
-234 29 57 0
-241 -127 -273 0
-127 -132 -28 0
130 -94 180 0
-211 82 -4 0
166 -49 -156 0
76 -95 -40 0
138 237 101 0
-27 34 168 0
181 52 -66 0
-96 130 261 0
58 -165 242 0
238 249 266 0
-65 -109 -52 0
-174 -204 -101 0
106 -115 196 0
64 153 226 0
233 -77 202 0
-274 183 -209 0
253 228 143 0
167 237 166 0
140 -264 -21 0
-226 -65 61 0
210 -76 166 0
260 112 -99 0
189 -69 74 0
-257 -17 227 0
23 -123 105 0
123 -39 -70 0
123 250 217 0
194 -44 -36 0
-230 -252 -146 0
-150 49 -234 0
7 -128 49 0
-69 20 -274 0
14 75 230 0
-91 6 12 0
46 -186 -113 0
29 206 255 0
-107 182 -241 0
80 -164 260 0
-257 -184 100 0
274 -161 -75 0
116 9 210 0
176 -261 -106 0
189 22 -57 0
67 -81 -180 0
-46 183 -28 0
-74 180 86 0
103 4 219 0
-111 -263 72 0
-67 217 132 0
-54 -122 224 0
-230 -72 272 0
-117 157 42 0
202 114 51 0
270 242 117 0
169 -223 34 0
-2 -257 78 0
-83 -200 47 0
-86 -50 28 0
45 -29 213 0
92 50 117 0
218 173 -74 0
-146 -161 -1 0
-116 -155 4 0
132 263 36 0
-92 16 153 0
-116 -96 266 0
24 32 6 0
-206 240 216 0
-231 223 126 0
136 -87 200 0
-40 -190 -20 0
-274 102 -83 0
-204 -152 -10 0
-82 37 206 0
-45 177 -22 0
10 -44 260 0
128 -257 156 0
-208 180 -275 0
-132 -187 174 0
-213 173 -23 0
16 -170 175 0
-232 225 -44 0
-21 -88 -97 0
-63 -10 109 0
-118 182 -89 0
273 -158 103 0
-130 -8 28 0
-115 -165 -178 0
-28 -118 38 0
-3 245 248 0
-202 80 25 0
-202 201 139 0
256 -117 207 0
65 153 44 0
34 150 31 0
-207 -63 -215 0
-64 141 78 0
47 -56 -215 0
-108 -211 240 0
28 246 -260 0
267 -121 228 0
-271 155 -31 0
-171 -263 150 0
-70 -239 -112 0
165 -151 -5 0
128 -54 -106 0
185 -232 274 0
-149 -245 155 0
-35 107 237 0
215 182 -108 0
123 -271 48 0
274 -96 -95 0
95 270 217 0
-198 209 56 0
183 136 245 0
-98 145 -24 0
273 262 53 0
224 186 140 0
-91 -99 -18 0
-4 269 -188 0
77 -118 89 0
-144 -74 251 0
-182 -124 -60 0
110 -67 -63 0
17 -217 -68 0
-271 -74 120 0
116 193 -200 0
106 112 13 0
206 71 55 0
20 12 -243 0
-123 -236 -214 0
-254 -49 143 0
84 -149 102 0
-162 -151 247 0
-78 -239 -224 0
63 -32 198 0
54 -12 103 0
59 -135 204 0
-236 -167 216 0
-99 -247 112 0
201 275 -13 0
182 -61 49 0
-262 228 -222 0
79 -224 -33 0
-22 36 -210 0
230 -182 -49 0
-123 26 -7 0
61 64 -116 0
12 212 -116 0
189 -33 -264 0
-169 -226 -147 0
115 -253 42 0
130 -153 30 0
79 133 142 0
-135 136 -222 0
214 -33 -42 0
-142 189 -34 0
-262 -228 -195 0
-255 163 -184 0
237 121 17 0
260 22 98 0
-86 -95 -14 0
119 110 -122 0
-32 -115 -27 0
139 -231 -127 0
235 219 134 0
-157 229 -40 0
139 -237 -119 0
-84 58 120 0
-216 -227 -131 0
34 37 148 0
-274 -108 183 0
-63 -207 -212 0
62 -177 219 0
19 -232 96 0
214 -249 132 0
272 -250 -78 0
-142 -109 117 0
230 231 -261 0
-162 194 -252 0
-129 101 54 0
-161 159 -126 0
153 -103 219 0
-206 -187 125 0
-85 140 127 0
-165 52 176 0
35 265 73 0
-131 92 -158 0
-209 77 232 0
166 262 142 0
15 125 -151 0
235 -77 164 0
253 191 -87 0
-15 230 -146 0
-244 -148 241 0
216 196 3 0
-90 76 -101 0
-1 -194 -237 0
124 187 38 0
-5 -53 264 0
-122 100 -112 0
-84 141 -135 0
-33 -275 18 0
267 -82 206 0
53 108 -241 0
57 -131 156 0
32 98 73 0
-165 166 62 0
-153 -86 -50 0
-231 -49 2 0
17 59 162 0
243 -242 197 0
-131 105 248 0
-122 -232 109 0
-130 -275 -203 0
-190 103 166 0
143 -188 -118 0
248 26 -105 0
-204 -128 -91 0
129 251 -191 0
81 -244 75 0
112 -119 60 0
-264 56 165 0
-179 8 -213 0
147 101 -27 0
-39 37 -89 0
-180 64 -82 0
-11 -101 264 0
-177 128 -22 0
243 138 -234 0
95 245 -133 0
216 46 -190 0
70 -102 101 0
-33 272 -226 0
-206 168 -161 0
-5 -65 163 0
141 -5 216 0
-231 100 193 0
134 247 -74 0
-74 119 -20 0
-224 -158 -226 0
85 -83 124 0
123 203 -188 0
-234 255 19 0
-114 -8 69 0
-45 -225 141 0
-8 -203 -156 0
2 198 -77 0
-168 -27 -191 0
-39 230 18 0
84 74 244 0
-224 153 -221 0
-62 -155 246 0
-272 68 275 0
-35 -153 -169 0
-154 15 212 0
-205 158 -237 0
-144 -254 -244 0
85 7 100 0
-223 6 -126 0
105 -195 227 0
19 175 -42 0
275 -163 134 0
75 -123 217 0
-148 -100 -229 0
70 -273 22 0
-72 -32 -123 0
-12 -226 -149 0
-166 -120 86 0
-193 -71 183 0
-101 178 -200 0
17 5 -63 0
-224 178 166 0
-41 -159 -236 0
29 -42 -229 0
-29 179 184 0
-274 147 202 0
196 -68 54 0
171 -55 56 0
204 30 -275 0
-139 -28 262 0
-185 140 256 0
187 -221 57 0
209 199 -204 0
115 -80 213 0
-135 119 -177 0
-193 -25 66 0
177 138 -201 0
-53 -267 -74 0
149 -24 136 0
28 251 165 0
252 -163 198 0
9 82 -91 0
-145 -110 82 0
-254 79 215 0
-121 -163 267 0
48 -156 264 0
229 -148 -252 0
-68 -81 -90 0
-180 199 -186 0
176 -15 -128 0
149 145 -47 0
-176 -43 63 0
-170 -33 14 0
158 -120 6 0
-263 92 267 0
197 -196 -199 0
-136 -158 -184 0
-40 -200 164 0
68 36 238 0
-177 93 -270 0
148 -223 179 0
275 -181 -251 0
102 -183 91 0
6 -138 -116 0
197 36 -46 0
148 -188 64 0
176 -80 74 0
-131 46 140 0
-224 -139 156 0
142 -99 88 0
184 -145 -42 0
57 -224 99 0
36 115 155 0
-59 -136 229 0
-65 -208 -118 0
57 -216 -74 0
-7 115 -69 0
226 -72 70 0
-183 -146 -260 0
-189 274 170 0
-118 209 5 0
21 -44 26 0
135 137 -78 0
134 165 -130 0
132 111 -196 0
86 -16 36 0
226 -230 -12 0
262 -244 83 0
58 -210 -266 0
38 198 261 0
24 -66 -210 0
-169 176 -1 0
-207 -43 -79 0
-182 29 -14 0
-202 94 -55 0
38 -108 -156 0
74 105 -275 0
-124 -88 -177 0
49 108 -200 0
-210 187 -256 0
-266 29 260 0
-200 67 72 0
152 225 -128 0
265 -218 136 0
250 -110 -109 0
12 -124 196 0
27 -159 -254 0
-134 53 -99 0
142 250 181 0
-24 -54 274 0
-152 32 19 0
116 260 11 0
-20 57 -190 0
-196 147 -258 0
-173 -119 98 0
-139 31 221 0
-248 107 -263 0
-83 -53 256 0
-86 -46 -243 0
32 274 -27 0
220 -246 -160 0
-93 -185 156 0
77 -68 251 0
206 -203 168 0
-33 -126 96 0
125 224 193 0
-2 -57 -167 0
53 160 -188 0
148 -14 -36 0
-112 211 -254 0
33 188 238 0
233 -172 264 0
184 -66 56 0
-220 -137 -231 0
-229 249 -250 0
-114 -224 -66 0
-210 -234 9 0
178 -78 -238 0
196 63 171 0
77 -204 168 0
-30 191 -57 0
-228 91 -95 0
-217 79 -186 0
140 -181 -45 0
237 204 159 0
-92 252 214 0
-16 18 -236 0
-101 152 242 0
-151 -69 120 0
-193 67 -69 0
162 -145 -226 0
231 -64 244 0
82 -159 143 0
-53 -251 150 0
17 -99 25 0
135 -138 -112 0
274 112 -77 0
89 133 -239 0
-261 -210 -48 0
-265 256 126 0
-122 -135 -246 0
-149 -193 18 0
180 216 160 0
-131 259 -110 0
88 92 30 0
-147 187 -21 0
64 -199 -16 0
-12 181 237 0
54 -111 -82 0
37 159 -118 0
237 243 -161 0
-213 -199 182 0
79 133 243 0
182 175 -141 0
190 -163 -258 0
-214 209 -40 0
-169 -83 129 0
198 109 71 0
247 -49 -178 0
26 125 10 0
130 32 -237 0
-241 -185 -55 0
22 252 163 0
-190 -61 -260 0
-42 -146 220 0
-84 -92 27 0
-199 -37 -26 0
256 -104 19 0
89 51 -160 0
25 -164 87 0
125 246 87 0
152 -207 -199 0
121 223 -145 0
102 186 -53 0
215 95 100 0
167 118 24 0
18 85 -54 0
-46 -107 -80 0
236 -162 31 0
-61 45 139 0
82 -5 -127 0
-160 -135 191 0
-5 -46 -207 0
-42 245 150 0
220 -230 -275 0
157 -42 -253 0
-111 227 44 0
67 -268 -177 0
-35 159 -105 0
-102 -197 54 0
86 -93 158 0
115 20 185 0
-189 -118 209 0
-237 91 -74 0
-55 210 69 0
239 68 55 0
221 -127 191 0
171 -253 -139 0
46 144 90 0
103 3 -272 0
165 -6 -223 0
251 84 -76 0
226 253 -112 0
-115 -170 -100 0
63 253 -112 0
-83 -33 -19 0
-156 -58 -260 0
119 -9 -124 0
-121 -19 -66 0
-120 -217 228 0
175 144 -114 0
-65 -19 -176 0
-210 -31 92 0
217 -187 130 0
-133 94 -39 0
-191 -231 36 0
175 -44 -12 0
-209 -19 -6 0
-113 238 22 0
-126 -204 -54 0
-256 -125 -119 0
-173 -122 -20 0
23 -79 250 0
-147 -136 102 0
262 62 157 0
-172 -210 -154 0
-13 -137 -105 0
100 9 -249 0
-193 262 -252 0
56 -123 176 0
-169 -217 -117 0
-150 143 101 0
-212 201 63 0
-28 -197 -20 0
230 -5 -271 0
262 -247 -181 0
102 -42 144 0
-60 -170 -12 0
-163 -45 -194 0
97 -45 -114 0
54 -47 180 0
196 232 52 0
164 -40 -110 0
206 -78 125 0
-20 -125 -21 0
248 87 -176 0
146 -241 23 0
-151 -106 237 0
234 -19 -193 0
-50 -156 85 0
66 -120 48 0
-252 154 249 0
157 139 -238 0
140 -61 -24 0
163 74 -158 0
124 -251 -14 0
-6 41 83 0
121 -145 -249 0
-154 -222 -246 0
150 -44 -85 0
42 -240 -29 0
67 -275 244 0
4 -17 208 0
46 157 12 0
122 -258 -106 0
24 -197 -105 0
28 151 57 0
-72 -230 269 0
203 -249 21 0
47 108 -157 0
271 5 -212 0
-24 -4 102 0
-77 175 27 0
53 -241 -14 0
-156 -3 -77 0
-247 246 -185 0
271 -188 88 0
-186 59 -267 0
-120 51 97 0
-81 218 65 0
8 192 199 0
-128 -219 -97 0
105 -56 191 0
-130 -84 -65 0
239 157 -167 0
-188 -99 -108 0
160 -118 169 0
200 -170 169 0
161 154 -9 0
-138 144 229 0
7 32 222 0
93 -110 -225 0
240 -182 -162 0
-27 274 -180 0
-217 159 -167 0
-129 -196 126 0
-188 88 -144 0
-196 120 165 0
168 -195 235 0
185 -262 169 0
-235 120 -122 0
179 243 -17 0
-191 -210 -130 0
129 156 207 0
216 -142 222 0
-251 6 -257 0
-229 242 179 0
-114 123 -109 0
-15 -149 26 0
190 -136 81 0
-235 -160 146 0
-137 -110 -166 0
251 -226 -14 0
-110 99 114 0
-269 -95 -185 0
201 120 -9 0
-71 273 -58 0
-55 -257 91 0
29 -150 36 0
201 -267 86 0
189 -83 -27 0
-255 247 158 0
-107 -168 -268 0
-216 199 -89 0
-98 -186 -236 0
160 -189 65 0
110 254 -1 0
156 191 246 0
-162 -236 62 0
10 118 -42 0
275 178 -247 0
-72 -152 274 0
119 -199 -65 0
-33 -106 58 0
-50 158 -45 0
185 -94 -82 0
103 -143 -91 0
-105 -190 18 0
-12 -104 24 0
-78 -49 204 0
159 -73 207 0
-124 -183 218 0
197 -86 -66 0
75 -115 -90 0
-110 -225 177 0
130 88 243 0
-242 -130 132 0
-68 177 121 0
177 -67 -150 0
210 -132 -54 0
-71 -175 204 0
117 26 85 0
-272 -124 165 0
164 207 -141 0
151 -41 100 0
-240 208 -227 0
-109 -247 -70 0
106 -9 7 0
-227 -274 266 0
-145 40 79 0
228 125 -130 0
259 255 60 0
-187 -64 -162 0
130 -271 161 0
216 -210 52 0
63 100 -175 0
254 -25 149 0
258 -190 36 0
-213 -39 -179 0
48 -246 -46 0
25 65 222 0
273 -44 52 0
66 16 -210 0
-136 -187 235 0
-173 91 -207 0
110 74 -64 0
-70 -43 -94 0
-245 -17 -162 0
-6 171 74 0
238 -67 137 0
-176 163 -46 0
-262 -19 255 0
159 -221 -260 0
-189 -33 23 0
134 -65 -214 0
259 -114 -206 0
68 -146 -22 0
-217 148 274 0
252 41 -65 0
-149 219 -23 0
61 57 224 0
-184 -201 231 0
-121 104 95 0
219 189 8 0
-243 -10 -205 0
-242 231 232 0
266 -49 264 0
184 -214 188 0
156 20 -88 0
-106 140 -91 0
-88 -76 9 0
19 274 83 0
-246 184 -129 0
102 154 -128 0
