p cnf 275 1171
57 -213 -35 0
225 275 205 0
60 188 -234 0
114 109 121 0
211 -204 -26 0
-22 100 167 0
167 -255 28 0
-111 -151 170 0
130 -22 -83 0
21 215 117 0
88 -140 -133 0
-217 -77 -162 0
64 146 165 0
-44 28 -84 0
153 160 -33 0
91 244 93 0
263 173 253 0
251 260 -48 0
-187 178 47 0
-72 133 -198 0
-261 26 2 0
48 135 165 0
-86 121 268 0
-58 -24 -116 0
-230 -48 87 0
129 -58 -131 0
260 66 -120 0
164 -206 55 0
-243 -19 -33 0
-209 52 89 0
20 157 -238 0
256 170 -89 0
-64 190 -211 0
-91 -96 157 0
-29 91 120 0
7 124 -75 0
41 40 -139 0
-223 62 64 0
83 121 -13 0
-65 233 229 0
44 244 -146 0
-30 -120 182 0
217 204 -190 0
-222 175 -266 0
95 184 242 0
92 31 -254 0
51 -26 65 0
262 186 -63 0
-217 -124 29 0
-259 -92 -126 0
-61 -153 79 0
-126 -129 -43 0
272 -196 146 0
263 -63 202 0
51 -157 -98 0
-26 27 4 0
-6 -232 -235 0
-116 146 16 0
79 59 -131 0
-242 -73 139 0
-28 234 -29 0
-90 -11 -105 0
-201 1 170 0
-4 272 -156 0
254 -63 258 0
3 -267 -23 0
239 62 -133 0
135 -11 -80 0
-248 152 33 0
-199 117 -203 0
-233 195 -250 0
-49 29 177 0
-193 -60 -22 0
-119 44 -225 0
-67 180 24 0
73 -51 -112 0
112 -13 275 0
59 211 218 0
-78 197 -119 0
-45 158 -191 0
-67 -131 272 0
-96 125 152 0
-84 -274 247 0
-126 232 181 0
-56 -51 15 0
129 -66 270 0
104 -168 178 0
-8 -20 78 0
212 162 242 0
-252 -138 -105 0
-127 -253 110 0
-111 50 65 0
118 172 4 0
-7 -230 -268 0
-268 164 -32 0
-163 -190 186 0
222 -119 57 0
259 -262 251 0
-30 142 -78 0
79 176 218 0
-180 261 264 0
-151 250 144 0
66 -144 28 0
-257 87 56 0
-88 249 205 0
272 27 -164 0
-157 50 122 0
-48 170 131 0
101 205 -61 0
156 -145 180 0
-57 -194 -48 0
22 108 -146 0
-224 267 -99 0
-87 260 125 0
-199 -117 -256 0
-158 2 -230 0
-35 -240 239 0
60 42 -195 0
-87 -161 -154 0
-196 66 179 0
261 102 -20 0
-40 239 25 0
-44 -199 -132 0
-177 -72 259 0
191 -82 -122 0
-216 -196 -18 0
-193 -3 -118 0
-260 107 135 0
-266 -268 186 0
-178 254 -154 0
-108 43 -273 0
-23 83 271 0
-57 90 -182 0
270 -199 146 0
-31 -158 143 0
-160 -78 213 0
47 -66 -209 0
-181 -224 254 0
28 -76 -219 0
263 202 -219 0
66 -236 -194 0
194 -40 -60 0
180 -153 191 0
189 216 -108 0
39 233 -41 0
-165 114 53 0
-130 87 153 0
45 -39 179 0
-64 96 -3 0
-189 -172 -256 0
-23 47 -75 0
259 -195 79 0
-244 198 -59 0
-157 -2 -19 0
184 46 235 0
37 44 -213 0
-13 28 113 0
-187 254 127 0
-246 77 -211 0
170 -231 188 0
3 190 116 0
220 13 -71 0
38 269 129 0
-90 256 -231 0
-204 -229 -75 0
-199 101 20 0
-231 -236 -60 0
-28 136 239 0
87 212 94 0
-235 -265 194 0
98 118 177 0
176 69 -97 0
114 173 66 0
-115 -67 11 0
217 -19 196 0
245 211 143 0
17 210 -33 0
-108 63 -196 0
-201 203 138 0
229 59 -33 0
40 74 90 0
123 121 -39 0
-132 54 85 0
-200 242 -65 0
-39 -235 -2 0
180 -201 -131 0
-202 16 111 0
81 172 245 0
-65 266 -253 0
-33 -190 4 0
178 -150 48 0
274 -258 -131 0
125 -240 241 0
258 -109 -90 0
162 -261 -153 0
250 -248 270 0
3 190 -133 0
-84 -125 -105 0
-211 170 235 0
47 -80 198 0
220 -242 112 0
-201 99 175 0
-269 -57 -200 0
-270 -186 57 0
6 10 19 0
-176 77 137 0
191 -94 69 0
9 92 -27 0
192 -272 -124 0
102 -88 16 0
-55 -247 234 0
-93 125 -224 0
-6 188 -132 0
52 -230 -16 0
-102 148 -246 0
116 -2 -198 0
71 -140 -270 0
-110 -88 -112 0
-243 266 -29 0
-132 123 -124 0
172 -73 -88 0
-230 21 -26 0
45 -132 92 0
222 -184 -132 0
-49 199 191 0
194 123 -89 0
-112 -262 -76 0
-32 -208 33 0
48 -141 -143 0
191 34 94 0
-40 204 256 0
143 82 -137 0
-51 173 237 0
-139 -195 -106 0
120 -137 15 0
-268 -198 70 0
275 157 160 0
-122 -230 15 0
196 3 186 0
95 -35 -139 0
-2 179 -36 0
46 220 -148 0
-75 -269 198 0
-235 13 -29 0
-177 -196 130 0
26 226 -186 0
86 -94 214 0
109 -19 -193 0
136 -51 173 0
-265 120 151 0
91 190 -133 0
-191 -184 -33 0
-80 -215 73 0
131 4 88 0
236 -244 -176 0
86 176 -265 0
185 135 257 0
83 -129 5 0
-156 -24 -207 0
-3 244 -17 0
-32 241 -164 0
-128 275 235 0
-176 75 63 0
17 266 -170 0
196 107 216 0
-28 -96 -111 0
-99 -194 -235 0
-3 -149 -143 0
61 274 237 0
79 -233 149 0
-204 94 203 0
-112 153 90 0
-237 -53 35 0
7 -79 240 0
130 140 67 0
226 -90 -136 0
152 203 -132 0
-97 -42 260 0
-57 -207 85 0
-157 179 -174 0
97 -114 160 0
-196 -239 -179 0
136 257 -117 0
-238 -274 161 0
61 -97 -152 0
-24 230 270 0
-31 3 152 0
-142 78 158 0
238 -219 187 0
8 -221 112 0
-148 -48 223 0
-27 -274 -220 0
107 24 153 0
227 -124 -122 0
-66 1 126 0
-88 14 -274 0
-106 -273 -264 0
33 -146 -94 0
-183 207 66 0
195 -183 50 0
-269 -194 232 0
262 112 -219 0
-272 -177 37 0
-163 203 146 0
125 -220 107 0
195 -14 66 0
80 -48 -87 0
87 137 -13 0
25 107 118 0
-51 183 -112 0
-67 -59 -252 0
-222 -19 -127 0
140 27 -112 0
-214 210 108 0
-210 274 -29 0
144 85 47 0
-193 -126 8 0
17 227 -174 0
-128 242 -107 0
-60 3 267 0
1 -59 181 0
225 14 -251 0
-93 -214 111 0
58 75 246 0
-143 61 81 0
113 -180 -129 0
-13 -81 -261 0
180 -211 269 0
-59 -97 -167 0
97 89 169 0
-123 -139 -66 0
-155 -119 51 0
-50 -9 200 0
161 -6 167 0
-28 85 82 0
-47 -63 213 0
-106 -129 -224 0
-178 111 -115 0
-148 224 -158 0
155 132 6 0
-64 219 -222 0
5 268 -184 0
159 128 251 0
220 185 269 0
-66 145 37 0
24 82 153 0
-274 256 104 0
135 -193 -44 0
-262 141 -115 0
-199 68 -222 0
204 -89 -101 0
126 -223 106 0
-214 208 -107 0
-199 33 131 0
-73 115 -261 0
-51 1 -78 0
-41 -7 -127 0
190 91 178 0
-53 75 232 0
-137 -172 6 0
56 -185 156 0
177 102 218 0
-104 250 -241 0
92 3 87 0
-89 -157 -239 0
251 -10 218 0
131 10 -23 0
-243 225 106 0
275 84 113 0
-14 -207 272 0
191 -104 -270 0
-220 -259 8 0
105 157 146 0
125 226 183 0
17 217 259 0
82 -135 237 0
243 -137 -109 0
216 -234 46 0
-76 -207 263 0
59 -96 -181 0
73 -134 190 0
-75 158 175 0
22 62 120 0
259 -3 -100 0
196 -55 -12 0
241 -87 -30 0
84 210 192 0
-124 155 253 0
55 48 -265 0
-42 103 241 0
136 -236 -162 0
8 -50 -4 0
-78 -111 44 0
227 -58 -229 0
-258 22 -144 0
-185 167 -259 0
130 -207 -203 0
-25 228 268 0
139 148 117 0
-65 26 83 0
-206 262 -230 0
135 11 56 0
239 -218 111 0
34 -259 187 0
-41 125 97 0
120 -248 -260 0
-113 51 98 0
-80 -105 50 0
-263 255 -215 0
-38 -248 172 0
-50 -76 53 0
255 -43 31 0
99 -96 84 0
211 95 -166 0
42 236 63 0
62 -226 -93 0
45 -14 274 0
-241 -14 -165 0
-247 -56 253 0
185 132 -128 0
260 -31 -267 0
236 -137 161 0
240 -133 -229 0
-265 257 -141 0
-262 -9 -83 0
-177 -140 -209 0
-131 -188 -20 0
40 206 267 0
184 -133 142 0
212 90 128 0
16 248 226 0
-60 56 -176 0
97 -207 26 0
-86 -241 -222 0
97 140 -195 0
189 -130 -219 0
128 170 217 0
92 -40 -130 0
-255 124 -197 0
21 -183 245 0
-87 -268 -165 0
8 -181 -159 0
-130 7 -139 0
-113 247 -179 0
-224 19 -251 0
29 140 177 0
266 -196 -211 0
127 46 -226 0
-106 134 -69 0
5 -142 204 0
169 194 41 0
-12 -266 211 0
268 215 68 0
267 187 -25 0
-249 -42 -112 0
101 147 108 0
89 188 -160 0
-19 70 111 0
-274 45 239 0
-124 177 -178 0
170 -274 -273 0
-72 -23 95 0
4 -257 176 0
273 186 231 0
-131 215 -165 0
-37 -132 20 0
-50 -42 -214 0
-13 -104 -206 0
-264 220 -260 0
-41 42 226 0
-142 -91 229 0
69 137 99 0
1 -3 -256 0
194 -89 202 0
-19 77 -105 0
101 -105 -52 0
-250 -66 65 0
34 -176 36 0
162 214 206 0
-194 184 -146 0
-5 249 238 0
141 146 -269 0
-270 59 -55 0
111 1 92 0
179 -257 22 0
185 -226 75 0
-28 153 187 0
-83 -238 205 0
-235 203 45 0
-115 -90 -137 0
140 -95 242 0
156 -42 141 0
166 233 212 0
17 -41 188 0
77 -31 -98 0
251 248 231 0
87 18 -115 0
46 2 150 0
109 248 -136 0
-191 -266 -220 0
86 -19 -217 0
-218 -80 -187 0
270 -23 -127 0
273 -86 78 0
71 222 43 0
258 -179 80 0
88 -227 243 0
-8 85 -81 0
-158 169 -58 0
-203 -269 38 0
-1 -43 29 0
128 -271 165 0
-152 -114 226 0
229 -36 -148 0
-191 -146 133 0
210 135 166 0
177 272 -197 0
-100 -187 25 0
-77 142 148 0
-184 111 118 0
231 -163 -126 0
24 -172 -237 0
245 -250 102 0
208 104 237 0
-58 100 -217 0
170 44 249 0
266 153 -114 0
97 -19 101 0
264 -178 31 0
152 237 70 0
82 -210 -187 0
120 -137 -62 0
183 193 167 0
-56 -30 -146 0
-24 -236 -51 0
156 73 -183 0
-13 7 -76 0
163 101 -186 0
-167 13 80 0
-237 235 200 0
-92 -79 -217 0
-199 197 -264 0
-42 205 -39 0
167 150 -24 0
-175 -78 -136 0
-252 -26 47 0
74 179 195 0
-219 224 -50 0
-269 61 -75 0
188 237 -131 0
-127 -48 -51 0
-152 265 171 0
72 165 -182 0
54 76 -149 0
86 72 -255 0
-8 43 -101 0
-49 -50 -266 0
-221 10 -38 0
-16 -88 -179 0
-73 57 -230 0
250 -223 -44 0
12 -128 -149 0
-28 94 130 0
256 -15 -274 0
-268 91 -213 0
4 -104 -13 0
41 -199 -177 0
-15 -1 -62 0
-264 -204 -102 0
-195 45 -265 0
174 52 198 0
260 -76 -245 0
-47 -233 -272 0
25 -130 208 0
122 130 173 0
-153 75 259 0
-54 -153 68 0
67 -73 -105 0
77 -16 152 0
181 177 -86 0
-214 36 -226 0
-117 -54 -203 0
-207 -214 202 0
-32 246 21 0
-9 65 -148 0
-53 -217 181 0
-204 -208 -39 0
-221 9 150 0
209 -159 -204 0
48 -239 211 0
-223 -48 44 0
248 -30 242 0
213 44 -262 0
52 -275 39 0
-181 -80 197 0
-39 90 188 0
-162 -43 271 0
-13 260 55 0
-149 -163 66 0
-269 -110 254 0
-146 -226 -83 0
204 134 -75 0
-25 -263 238 0
102 110 -187 0
-218 -224 -50 0
-234 258 182 0
203 85 -64 0
-179 218 -95 0
27 -92 -203 0
267 -86 -213 0
-215 14 44 0
134 -154 -32 0
-178 136 66 0
176 126 79 0
-48 77 -256 0
13 181 14 0
-45 135 32 0
-20 -177 -233 0
-111 -263 19 0
2 222 -218 0
-94 -223 184 0
-37 89 254 0
-124 52 -4 0
215 -194 -90 0
84 251 -12 0
-73 -110 157 0
-241 186 101 0
52 55 -103 0
148 218 56 0
-36 137 -132 0
-18 -268 275 0
-186 270 156 0
-186 163 21 0
225 10 253 0
95 158 64 0
178 115 53 0
-17 162 156 0
266 -211 -40 0
-103 -140 259 0
53 253 171 0
-78 191 161 0
-84 237 89 0
41 -188 210 0
-263 -230 190 0
98 238 13 0
108 -73 -86 0
-138 49 98 0
-270 -269 173 0
275 233 210 0
-263 171 -248 0
-268 -178 60 0
117 269 64 0
-252 49 258 0
77 -210 -226 0
261 91 271 0
-176 -237 144 0
176 271 74 0
-183 -126 -130 0
-130 -256 -123 0
112 -131 -52 0
-192 -12 -187 0
124 -100 -235 0
220 101 -214 0
228 225 -215 0
140 -25 263 0
-172 213 203 0
249 -250 -107 0
-101 -246 -175 0
-45 -44 -165 0
-88 7 -139 0
95 -214 -42 0
-74 -24 -21 0
174 -271 -56 0
126 -230 -265 0
162 -12 -45 0
-180 155 104 0
-24 210 -170 0
58 -16 89 0
-10 -150 -28 0
-43 203 190 0
233 207 -248 0
232 -65 -26 0
34 -255 101 0
-110 -248 -73 0
58 125 -25 0
-107 18 217 0
207 120 88 0
-127 -112 -153 0
180 67 25 0
-88 168 -131 0
-102 -51 -145 0
46 226 231 0
96 -66 247 0
225 -249 -130 0
-42 -194 -235 0
28 6 -254 0
-62 -39 -15 0
273 139 -204 0
93 141 -33 0
-89 -239 -51 0
-111 -9 184 0
-26 195 165 0
67 -57 -112 0
-269 -142 2 0
-46 -273 163 0
-187 -48 275 0
56 19 -118 0
163 180 -271 0
216 274 -103 0
123 -258 -140 0
-251 140 85 0
63 -175 17 0
154 -64 211 0
-122 152 84 0
-190 232 201 0
54 150 146 0
2 29 42 0
-180 -94 47 0
7 -155 -171 0
-205 87 154 0
-183 214 251 0
199 63 25 0
-209 31 149 0
-264 -82 44 0
-201 242 94 0
58 265 38 0
171 -197 52 0
-88 205 -210 0
136 128 -137 0
-259 31 223 0
186 61 -215 0
-97 263 -40 0
226 -94 -6 0
-75 -271 -133 0
150 242 -41 0
153 23 -191 0
144 35 -118 0
-117 273 245 0
-248 -19 65 0
108 162 77 0
274 -171 206 0
70 -266 -149 0
208 193 -158 0
-193 -219 -171 0
-232 44 -273 0
-272 129 -201 0
194 126 -214 0
229 273 -125 0
-68 140 -134 0
3 -13 265 0
106 -193 208 0
-138 -185 34 0
107 86 215 0
156 -134 -121 0
91 168 -84 0
114 -72 61 0
64 -258 77 0
-110 -247 -234 0
-32 -254 269 0
-169 5 -67 0
37 -216 -161 0
-199 -256 22 0
-264 135 91 0
31 86 8 0
-66 248 262 0
-78 110 79 0
131 264 60 0
-116 -16 247 0
-71 111 -88 0
-238 -220 268 0
113 75 11 0
-60 238 148 0
-234 7 75 0
-255 -254 -164 0
197 -96 109 0
-88 106 97 0
-74 -96 43 0
215 139 141 0
-130 -163 -39 0
-114 -78 124 0
256 -202 -231 0
-129 155 -138 0
105 13 83 0
-260 -139 -132 0
174 161 -240 0
-139 167 256 0
-246 -59 -124 0
10 -229 -186 0
105 222 171 0
210 111 150 0
-125 164 -2 0
154 146 -76 0
-128 55 143 0
-227 210 -168 0
-193 -81 -80 0
230 186 -214 0
214 81 17 0
247 174 133 0
262 -228 82 0
-163 247 -214 0
45 -81 270 0
-156 91 -158 0
232 -211 45 0
-146 37 199 0
-87 -26 -53 0
-59 -193 76 0
-208 218 -54 0
187 -58 -199 0
-172 235 113 0
39 50 220 0
33 -18 -92 0
-109 -64 261 0
274 -224 -219 0
61 103 -267 0
-10 11 134 0
-198 -197 165 0
3 -139 109 0
-202 -168 -26 0
123 260 215 0
225 -36 233 0
-50 1 -3 0
66 -268 -215 0
-209 -145 52 0
259 170 117 0
-58 200 -185 0
-33 132 94 0
-68 65 99 0
107 30 176 0
245 -150 -138 0
151 -116 -181 0
166 4 74 0
-81 16 -46 0
-56 -217 164 0
241 -55 204 0
136 160 -20 0
65 -275 -182 0
-138 128 68 0
-156 20 19 0
-143 -205 -262 0
6 39 104 0
-253 -29 -190 0
-80 -68 88 0
-68 178 236 0
218 -119 -22 0
-185 3 -150 0
-189 -103 -165 0
188 185 -251 0
114 -238 -115 0
-100 -69 27 0
-182 171 -107 0
223 100 -51 0
182 -94 25 0
-264 253 50 0
-183 -93 -26 0
-191 153 -75 0
23 -257 255 0
237 143 -264 0
-27 -15 239 0
-200 -216 -31 0
219 270 -167 0
-233 -173 72 0
-156 -1 106 0
-88 -207 224 0
-242 -12 -131 0
-43 -122 -140 0
193 160 20 0
69 -209 56 0
-176 -152 -126 0
-20 238 158 0
-113 32 -274 0
20 -250 158 0
17 -142 246 0
250 125 209 0
69 -172 -154 0
-160 126 172 0
-259 -207 -125 0
-246 -17 -42 0
205 153 3 0
268 269 82 0
-153 -234 263 0
-119 -145 185 0
241 97 21 0
47 -69 -49 0
-140 47 73 0
45 -180 271 0
137 214 170 0
-203 -174 266 0
-128 81 -101 0
82 -69 12 0
-240 36 186 0
147 -207 -215 0
100 -16 -246 0
109 80 120 0
-173 274 216 0
119 -240 8 0
-193 -255 -44 0
196 -87 215 0
153 -23 103 0
-239 197 -86 0
181 180 -43 0
-171 38 57 0
29 51 117 0
-205 33 244 0
-161 112 92 0
73 9 74 0
-258 46 -239 0
-241 -267 -132 0
-10 -185 -2 0
-211 -157 -40 0
166 -66 -51 0
-109 140 -62 0
-274 -51 206 0
-69 255 216 0
110 67 84 0
188 232 -227 0
-7 61 -191 0
-153 -240 -38 0
-86 218 -233 0
210 92 95 0
-51 -33 137 0
78 77 -114 0
242 48 127 0
53 214 -161 0
-3 -167 -225 0
-150 204 70 0
201 84 -172 0
267 147 -115 0
222 241 187 0
-275 -34 -260 0
-117 -13 -67 0
186 106 3 0
-88 246 -232 0
258 2 26 0
-57 -128 -182 0
-140 -123 -146 0
48 116 -75 0
-259 146 210 0
226 269 -91 0
-51 134 -46 0
-146 -96 -111 0
222 214 -26 0
-274 -272 -200 0
226 -153 9 0
122 -256 -145 0
-51 -79 -112 0
170 -222 -113 0
-172 13 95 0
-15 261 126 0
-208 -206 -111 0
-181 266 186 0
129 248 -114 0
142 -165 -262 0
-270 -24 197 0
-79 -84 179 0
57 -196 33 0
-107 -265 186 0
-137 219 -154 0
-35 -165 -20 0
76 172 -251 0
221 96 -124 0
-26 -24 -181 0
-85 -88 47 0
229 -233 25 0
-1 -216 -163 0
-12 -70 -139 0
76 190 -106 0
-218 -163 158 0
-22 226 253 0
172 149 174 0
27 -94 2 0
182 -165 195 0
-248 84 -56 0
-168 219 19 0
232 77 -139 0
195 98 -103 0
-32 -69 -34 0
49 -237 184 0
-137 -191 -171 0
232 -157 -70 0
-192 -120 -209 0
66 87 265 0
-256 170 69 0
-269 -270 -246 0
96 14 -152 0
-204 -107 -118 0
126 253 223 0
-205 102 -3 0
92 83 228 0
103 -233 -101 0
195 -72 -59 0
-160 -57 -118 0
3 -75 -184 0
-164 -261 132 0
-84 -38 -166 0
-266 42 -116 0
61 259 78 0
224 179 -93 0
18 -207 -275 0
-67 240 143 0
221 -74 -112 0
-120 -192 -92 0
210 47 34 0
134 86 269 0
-64 -222 -253 0
-27 -167 -181 0
-176 239 -204 0
-120 198 3 0
-14 105 -38 0
96 117 95 0
-37 -39 204 0
-135 36 157 0
274 -189 -58 0
156 -273 -217 0
242 108 119 0
-226 9 -52 0
-66 114 22 0
262 263 -223 0
173 -80 -48 0
19 -244 102 0
-132 -87 165 0
97 241 184 0
160 -23 162 0
99 -255 -193 0
12 -5 -160 0
-266 51 130 0
-167 -121 -180 0
32 -116 168 0
261 15 -20 0
59 -264 -193 0
-256 72 8 0
38 -107 122 0
222 231 -174 0
33 120 29 0
269 -54 -200 0
-175 -273 202 0
-192 -165 -199 0
31 -3 -134 0
151 152 -209 0
116 138 30 0
226 52 94 0
118 -197 -5 0
-215 -259 98 0
-254 -101 262 0
252 196 -107 0
30 42 216 0
-127 -26 -103 0
-43 -112 -215 0
215 275 -149 0
-131 -232 -106 0
-13 -246 205 0
260 -49 134 0
-267 -139 60 0
187 -149 191 0
-97 182 -45 0
-136 -215 87 0
140 -253 12 0
80 60 212 0
22 -238 195 0
-158 164 -272 0
-266 -76 240 0
192 42 215 0
211 -244 -194 0
113 4 59 0
-271 -182 191 0
102 123 169 0
269 219 189 0
-203 137 -157 0
119 41 151 0
100 191 168 0
-183 -12 15 0
-183 165 245 0
-28 -215 103 0
251 -257 220 0
42 63 110 0
-40 -189 -100 0
-53 187 6 0
-236 139 -119 0
9 -48 -218 0
-13 260 273 0
-254 -171 67 0
-131 82 29 0
-20 -2 265 0
79 -101 -1 0
233 -114 69 0
136 -162 161 0
-34 3 -213 0
171 244 146 0
-263 12 -53 0
-215 -81 -206 0
-191 -158 -201 0
101 -181 -196 0
204 -185 175 0
-252 230 -100 0
-208 -183 46 0
93 241 108 0
-250 42 -243 0
241 219 -187 0
-226 -174 47 0
160 4 97 0
-18 240 -31 0
146 195 273 0
157 130 123 0
102 199 28 0
172 -178 209 0
256 257 42 0
-163 109 242 0
-194 -274 22 0
57 -205 263 0
168 -187 -120 0
59 119 -5 0
-91 -41 67 0
260 43 -247 0
69 15 52 0
-89 21 14 0
30 -127 -158 0
-201 192 181 0
127 129 99 0
-221 -178 -143 0
270 -144 99 0
261 -157 99 0
-51 -120 -14 0
-116 256 -262 0
-153 -104 -43 0
155 -275 167 0
114 -68 129 0
173 2 61 0
-47 -48 158 0
79 -208 -11 0
-202 193 -272 0
-13 -69 -147 0
242 -97 158 0
-221 -107 38 0
-19 -181 -52 0
4 -22 122 0
26 -16 199 0
164 255 90 0
143 149 -232 0
40 -59 -275 0
-35 -69 168 0
233 238 29 0
-94 213 -55 0
-61 8 232 0
66 -78 8 0
-230 -9 215 0
-156 -122 45 0
208 -105 -270 0
189 -4 252 0
34 174 -82 0
135 108 -130 0
-133 206 9 0
3 120 -275 0
-189 -259 145 0
227 253 127 0
218 -24 11 0
126 137 143 0
-82 141 -79 0
-257 106 233 0
-61 -48 44 0
36 -92 110 0
-77 122 170 0
33 -122 168 0
-251 259 137 0
-96 266 154 0
10 -244 -22 0
161 49 104 0
18 83 -62 0
-143 -16 66 0
-70 -235 -208 0
242 -228 98 0
244 157 -188 0
-172 87 -27 0
