p cnf 275 1171
90 -110 168 0
-222 -60 210 0
173 -220 237 0
25 244 38 0
204 245 -260 0
96 -183 94 0
-179 263 -196 0
-88 -102 -158 0
273 -12 -110 0
222 -237 -75 0
205 -213 -73 0
-166 2 12 0
146 121 11 0
218 94 -229 0
104 169 220 0
-122 -154 -5 0
21 -243 233 0
179 261 249 0
202 -251 77 0
-4 -120 46 0
-162 -194 -191 0
269 205 19 0
-257 115 210 0
59 -42 -124 0
160 231 -198 0
135 -11 250 0
129 155 -92 0
250 -79 39 0
262 -134 -118 0
54 -242 -262 0
-3 191 45 0
11 218 254 0
233 -17 -92 0
-165 -182 127 0
73 214 274 0
125 -44 80 0
-172 155 80 0
-21 81 -100 0
242 -49 -261 0
104 -215 76 0
-234 65 -183 0
227 -265 125 0
-260 -78 -107 0
213 190 -239 0
-159 -144 -249 0
-26 -261 6 0
213 157 -125 0
265 48 274 0
231 -215 140 0
13 11 202 0
-149 20 252 0
-51 -206 -188 0
196 -140 99 0
95 -264 21 0
122 -90 -196 0
266 17 -161 0
-152 -58 -13 0
256 -247 -7 0
-155 215 -34 0
-162 93 -103 0
-36 35 -193 0
145 76 248 0
-55 235 141 0
-142 -242 54 0
113 -152 -91 0
198 -235 -118 0
-267 164 -51 0
-138 -112 -222 0
-138 208 147 0
-221 -69 -143 0
9 -205 141 0
-22 -93 -252 0
-62 -85 74 0
223 -66 -230 0
-274 -216 114 0
-168 114 -249 0
200 81 -215 0
239 67 -214 0
265 154 56 0
-71 28 79 0
236 75 -97 0
-220 271 17 0
72 -8 17 0
32 228 -97 0
68 103 22 0
-65 -66 -71 0
-235 240 202 0
32 -194 -160 0
231 172 119 0
64 193 -247 0
274 250 -200 0
111 -4 44 0
199 -89 275 0
231 128 26 0
-38 -119 120 0
-156 235 248 0
-177 -267 -229 0
-82 74 258 0
251 94 111 0
226 -79 107 0
-165 -155 90 0
-129 268 135 0
269 -266 -63 0
-57 -261 164 0
242 -255 -237 0
187 -86 -40 0
240 181 175 0
-15 -206 76 0
-21 253 199 0
262 43 -127 0
-258 -29 252 0
8 156 27 0
-18 172 -30 0
194 90 189 0
-224 107 -25 0
-119 -145 243 0
-244 -166 160 0
-119 -65 111 0
-123 95 197 0
262 -185 -231 0
-116 48 -180 0
-152 -63 20 0
-160 36 -5 0
206 -32 225 0
-151 -74 -243 0
-239 196 -41 0
269 -210 -275 0
157 -75 -182 0
249 152 83 0
-189 -230 -193 0
-179 -188 -161 0
-241 269 -121 0
162 -156 176 0
-236 -215 248 0
118 150 -117 0
21 94 103 0
-156 -139 195 0
265 -216 79 0
-121 -116 -103 0
-118 111 -162 0
-193 -31 -238 0
174 270 -207 0
-145 -264 -138 0
273 237 -258 0
272 201 184 0
-178 10 211 0
-53 -61 -125 0
-160 -149 -133 0
79 152 -47 0
-98 268 68 0
65 -155 70 0
62 -105 80 0
202 156 -248 0
147 -102 -71 0
136 250 -227 0
-24 156 -272 0
22 -260 -73 0
178 -140 97 0
273 -272 75 0
-41 -151 -193 0
-86 -110 -192 0
245 -72 -1 0
142 -59 -227 0
166 -235 -85 0
-182 -171 168 0
87 -247 252 0
70 -200 -269 0
-63 -96 104 0
-269 -126 71 0
-125 4 115 0
27 -45 159 0
2 -121 216 0
-83 -125 6 0
-32 136 -40 0
92 199 -98 0
-177 218 251 0
-18 -123 23 0
-68 -268 24 0
159 -72 196 0
196 -8 -81 0
-184 153 -213 0
185 223 83 0
-256 -52 85 0
-98 136 105 0
-249 -19 -53 0
265 -39 -272 0
60 66 88 0
-76 -60 -156 0
-173 -218 253 0
257 104 219 0
-230 154 -61 0
73 86 -52 0
216 140 -166 0
171 250 -131 0
80 229 205 0
-259 133 -76 0
-138 118 -88 0
-205 -160 -155 0
46 90 265 0
119 -154 -174 0
74 238 -66 0
175 -188 27 0
-25 -233 123 0
68 -253 -239 0
-73 -88 -258 0
-40 -69 -145 0
-195 -37 -33 0
-178 -188 -63 0
213 93 130 0
263 92 -46 0
186 -182 -194 0
-212 -53 50 0
-192 127 93 0
127 -26 -58 0
-65 196 -137 0
-20 74 -207 0
141 34 -150 0
159 -112 69 0
80 200 27 0
-252 131 -1 0
-160 194 33 0
178 107 48 0
150 -199 253 0
142 -227 -51 0
-259 -189 234 0
-158 32 77 0
-219 -60 181 0
-41 204 -71 0
-182 -176 -153 0
-124 192 -62 0
-101 -110 -263 0
-51 185 233 0
156 233 64 0
183 -12 -243 0
243 -274 -1 0
-42 224 -74 0
17 -44 -151 0
-117 26 -84 0
181 16 150 0
-95 -216 248 0
264 -84 144 0
230 -189 -22 0
136 213 -236 0
-36 -193 35 0
-273 -34 114 0
129 121 109 0
70 10 168 0
-234 55 219 0
-179 190 -185 0
-24 -102 90 0
-75 -202 161 0
268 227 -218 0
-83 -261 -274 0
101 -105 -68 0
4 -26 -32 0
-105 204 160 0
-35 112 148 0
151 10 -264 0
48 262 -257 0
-173 250 -158 0
-172 -173 164 0
-101 -246 198 0
-161 -231 -204 0
185 -152 -273 0
-105 -271 -246 0
-273 127 -75 0
204 -171 -84 0
-234 -91 59 0
41 263 151 0
27 -218 -213 0
-179 273 -270 0
-21 -154 153 0
-222 85 44 0
57 231 258 0
56 -245 -16 0
274 -48 -172 0
34 -201 82 0
-32 254 -55 0
48 -153 196 0
-269 -45 -260 0
81 244 -42 0
242 -146 36 0
-205 206 -43 0
27 56 189 0
148 23 53 0
48 210 237 0
99 15 -257 0
-120 -267 -69 0
-231 -101 -213 0
67 132 12 0
-89 -194 -119 0
13 196 -191 0
57 208 -157 0
-58 167 -87 0
193 176 207 0
84 80 164 0
61 248 204 0
-243 55 -238 0
-115 167 -2 0
249 77 -12 0
-274 -91 186 0
-165 -140 120 0
-149 117 116 0
-16 242 272 0
-17 160 94 0
-219 -217 -89 0
35 -79 -71 0
86 -77 -92 0
-182 -126 -173 0
-21 -267 216 0
-155 -271 94 0
-208 125 -48 0
231 -173 195 0
-136 275 17 0
-191 -225 11 0
215 115 172 0
-154 160 -242 0
204 -4 -158 0
-261 -178 -53 0
100 -155 -75 0
-158 151 119 0
116 -205 -141 0
229 -177 -64 0
160 213 177 0
-81 -111 -77 0
-198 191 -38 0
-143 269 -189 0
-188 -46 -271 0
186 -37 -265 0
24 -138 52 0
-250 -73 199 0
136 -63 -140 0
-74 -147 -200 0
168 -249 244 0
15 157 -240 0
64 -203 259 0
160 156 273 0
-29 -94 -271 0
261 55 188 0
116 -39 88 0
212 62 167 0
-159 54 -90 0
158 264 227 0
38 72 40 0
57 153 232 0
43 -269 -218 0
-62 -51 -227 0
-102 153 -23 0
140 -13 176 0
106 -131 242 0
-30 53 36 0
47 100 -77 0
-231 -140 49 0
-234 -124 -60 0
54 107 -237 0
225 198 -158 0
38 -162 -133 0
-209 -30 -266 0
-194 -117 204 0
156 176 -251 0
265 140 -225 0
-203 189 10 0
269 246 52 0
89 93 59 0
-221 120 -34 0
-121 151 198 0
148 21 273 0
-61 175 44 0
65 209 -237 0
-91 -144 -265 0
5 -65 -155 0
125 220 -8 0
-187 -220 100 0
-74 -220 230 0
-101 -157 -20 0
-82 -2 -119 0
58 -233 135 0
-206 99 -220 0
-82 173 16 0
-259 -75 -262 0
-192 -65 -123 0
-57 152 12 0
-141 163 196 0
48 -102 169 0
-145 -159 -21 0
60 52 199 0
142 66 -192 0
20 13 215 0
-20 -265 -61 0
269 176 -275 0
-249 -90 -119 0
220 -197 -235 0
-48 -99 220 0
181 -209 193 0
-152 -222 -8 0
-146 23 -93 0
-254 112 -268 0
74 68 -112 0
39 266 -66 0
77 155 128 0
226 -23 137 0
-229 206 15 0
156 -144 150 0
-107 -76 -60 0
-56 -110 65 0
-159 -81 235 0
142 217 -170 0
6 154 -3 0
-34 -20 218 0
-263 209 -17 0
173 72 -161 0
213 188 211 0
221 -171 -218 0
-165 -62 103 0
183 213 -175 0
84 121 102 0
269 -3 -12 0
-45 160 -159 0
227 82 86 0
135 170 -187 0
-137 142 -57 0
-273 -186 99 0
199 -8 -99 0
-225 -120 252 0
-102 -35 -43 0
-178 -9 -107 0
-121 246 -238 0
240 232 186 0
266 -66 132 0
-140 -209 -49 0
-42 105 266 0
-202 132 -75 0
-174 179 -212 0
93 -271 -136 0
148 194 -134 0
242 -178 187 0
115 -165 151 0
-134 231 35 0
-263 -196 174 0
-128 20 -25 0
58 -238 -246 0
-66 166 -94 0
160 231 233 0
-177 194 108 0
-214 -3 -105 0
230 260 -87 0
160 228 153 0
-147 60 68 0
48 -176 191 0
-13 -188 -166 0
198 -72 164 0
-130 163 96 0
-153 166 156 0
-194 -82 -219 0
-81 -204 -80 0
-193 114 -256 0
-153 23 -185 0
171 143 229 0
220 188 -150 0
-28 64 -56 0
-62 101 201 0
-158 -241 -55 0
-251 68 -173 0
112 188 -207 0
186 223 162 0
-4 -21 -98 0
137 160 143 0
-200 -98 215 0
67 213 -223 0
240 93 -205 0
58 231 -72 0
189 41 -182 0
-268 157 261 0
29 -98 53 0
35 189 -143 0
66 -69 151 0
-176 -231 -45 0
214 -202 -216 0
182 -159 -128 0
-71 -102 218 0
144 -92 28 0
-65 5 -33 0
-83 -18 158 0
76 -159 -124 0
272 -227 -205 0
240 -115 145 0
-218 197 -190 0
-149 -260 131 0
-218 9 108 0
139 -121 88 0
43 -102 11 0
-78 128 -167 0
1 -74 -16 0
-77 -159 41 0
-244 122 -75 0
-175 -216 228 0
253 30 242 0
240 206 134 0
-188 49 176 0
90 -233 13 0
-220 141 -176 0
-169 -18 -136 0
-261 -107 -91 0
178 -175 -107 0
85 -154 198 0
186 -159 14 0
-84 71 197 0
85 127 37 0
229 54 -36 0
110 -118 -265 0
257 78 187 0
-254 225 162 0
-224 -124 93 0
-147 -70 -92 0
-114 -88 -213 0
-14 -119 106 0
40 92 -229 0
-19 186 -136 0
82 -74 265 0
197 -36 146 0
-162 -224 -217 0
128 -10 -113 0
107 71 195 0
-156 -121 -3 0
-214 -13 -108 0
184 -33 -103 0
252 -89 -197 0
-14 273 -140 0
-9 5 247 0
269 -191 -150 0
217 66 1 0
255 8 -187 0
-27 -21 121 0
102 -115 221 0
-124 141 255 0
5 -206 115 0
262 161 -63 0
56 -209 237 0
5 129 144 0
115 -91 242 0
214 86 135 0
85 144 -265 0
155 272 95 0
79 -264 6 0
248 104 -159 0
137 245 270 0
78 184 -27 0
65 66 121 0
-143 166 137 0
134 -103 -228 0
190 -14 79 0
179 174 185 0
159 -106 101 0
248 106 -211 0
239 -55 29 0
-205 127 74 0
-52 112 102 0
127 256 190 0
-48 246 194 0
-247 28 22 0
187 -96 244 0
-272 166 231 0
-274 -141 163 0
-38 -169 51 0
-130 134 -173 0
-106 201 85 0
-194 85 108 0
-26 217 -45 0
178 167 99 0
-212 -270 -106 0
222 116 9 0
190 -86 78 0
233 -211 37 0
-115 241 -188 0
252 40 28 0
-251 197 270 0
69 -61 2 0
-115 16 5 0
-265 147 -48 0
-44 -238 -87 0
90 -44 85 0
-86 125 231 0
-252 268 -128 0
-223 -38 154 0
183 -41 -131 0
-207 148 -257 0
-255 42 -27 0
242 -37 -258 0
-168 -124 -52 0
48 61 272 0
-191 -195 230 0
55 233 -207 0
124 -159 30 0
-49 -251 -187 0
-196 -34 202 0
196 273 -20 0
267 202 4 0
-6 -270 -101 0
103 160 137 0
163 26 193 0
121 -257 90 0
150 -73 215 0
-148 49 102 0
-183 189 146 0
-146 -4 -74 0
-23 -158 -111 0
-213 114 -109 0
-228 -114 196 0
37 -148 -240 0
-175 133 238 0
-203 -52 -71 0
20 -116 -140 0
-110 253 -90 0
-251 -133 -267 0
152 -181 -118 0
-179 -238 -84 0
-9 131 -127 0
90 141 238 0
-178 -253 182 0
-57 23 59 0
203 -214 140 0
-181 164 171 0
-96 95 162 0
271 -36 98 0
-174 -93 -149 0
-24 -236 -255 0
-137 219 82 0
-100 -126 -149 0
-234 -232 55 0
-122 75 252 0
-187 -47 104 0
1 -229 80 0
51 -195 -176 0
252 -100 210 0
-275 -134 -113 0
138 -240 -211 0
129 264 -212 0
-62 -55 71 0
-201 -150 -81 0
125 197 -192 0
-249 -272 -1 0
-239 -65 56 0
-78 -184 163 0
12 -247 230 0
150 239 262 0
-38 150 132 0
-157 -137 245 0
-240 -133 81 0
-248 -206 158 0
-144 72 -209 0
-107 -270 261 0
100 -135 98 0
-154 -145 -155 0
-9 -10 -174 0
123 28 -150 0
261 159 174 0
-21 273 268 0
-58 -215 240 0
270 -16 127 0
-209 -129 167 0
61 116 55 0
248 226 -231 0
56 147 -217 0
-84 135 -90 0
-46 264 182 0
-260 -212 -182 0
171 -272 241 0
237 -182 230 0
-69 190 223 0
91 10 123 0
38 187 -18 0
198 -270 88 0
93 177 6 0
-228 -245 73 0
127 23 -139 0
-125 -106 -33 0
-271 -220 173 0
-76 101 81 0
-197 203 -222 0
107 77 -119 0
-196 -197 -63 0
-99 211 4 0
-268 -46 -101 0
75 29 -110 0
268 -79 246 0
71 108 258 0
235 -230 95 0
12 148 206 0
-65 203 -213 0
206 -65 100 0
-264 -199 -33 0
-183 -258 -69 0
119 -103 -88 0
242 263 -44 0
11 -47 -245 0
-266 -56 2 0
-46 -122 -201 0
229 223 -74 0
265 36 39 0
-82 -40 52 0
200 76 -215 0
213 -70 -238 0
-11 -266 69 0
-119 23 54 0
2 -1 52 0
-219 -29 30 0
-240 271 87 0
-260 72 -39 0
-7 -98 -52 0
-262 -224 245 0
146 122 -10 0
200 -220 247 0
217 138 -96 0
54 177 232 0
-94 -204 64 0
92 90 203 0
103 -189 194 0
138 -184 32 0
141 144 246 0
240 255 -41 0
223 4 -192 0
96 -126 183 0
-246 -226 249 0
91 -200 93 0
194 83 60 0
196 -263 210 0
254 -93 -49 0
-23 -267 14 0
-148 -15 -6 0
118 -169 34 0
-89 -230 56 0
-180 58 -193 0
93 152 21 0
147 -199 39 0
-198 -166 63 0
-274 49 164 0
143 -173 -64 0
179 -177 166 0
52 130 -14 0
109 -246 12 0
262 206 72 0
174 6 -137 0
-178 -198 186 0
59 -212 -44 0
106 -133 -209 0
-250 -30 195 0
194 -236 -264 0
76 34 -16 0
70 -35 -17 0
-224 270 -146 0
197 -63 -190 0
-146 34 271 0
-153 -127 -22 0
124 78 151 0
-273 -66 260 0
131 16 -86 0
-27 -244 228 0
91 186 -257 0
197 85 135 0
212 -200 50 0
-4 169 -232 0
-22 257 118 0
153 -177 273 0
130 254 -46 0
-255 60 -37 0
201 -30 33 0
26 -122 -125 0
-133 156 -188 0
235 118 -117 0
94 -268 126 0
258 -256 -159 0
195 -94 145 0
-221 128 255 0
-275 100 -52 0
14 -73 272 0
2 24 202 0
-155 -195 256 0
-209 240 173 0
186 37 163 0
-38 -93 242 0
194 -104 144 0
-72 231 -142 0
-89 177 -156 0
-265 108 -143 0
-65 -122 -109 0
-275 -196 19 0
-66 2 -203 0
-164 2 -251 0
-165 -248 215 0
-16 102 188 0
-175 135 49 0
-121 -153 226 0
-170 -132 -273 0
-256 37 -269 0
49 9 -54 0
-116 -95 264 0
138 127 154 0
-80 -94 -119 0
46 136 6 0
-120 -7 -121 0
194 -84 -272 0
-243 -189 -159 0
-199 170 125 0
-93 -90 118 0
-105 157 -85 0
152 196 -36 0
115 -176 130 0
-253 258 -238 0
-240 -199 -66 0
272 245 -257 0
-30 130 183 0
9 -157 -74 0
-126 121 193 0
148 189 153 0
-71 -143 -187 0
-157 39 232 0
-79 232 -128 0
156 -183 -190 0
34 223 219 0
-36 -189 37 0
109 215 -29 0
-255 149 -102 0
208 59 81 0
203 -179 35 0
54 -144 124 0
-18 -192 217 0
-44 240 -132 0
-170 -38 12 0
-27 -71 -96 0
-133 16 -93 0
220 214 -200 0
100 -195 63 0
58 12 -154 0
-146 -135 -90 0
-252 -265 142 0
-214 -152 -76 0
-33 251 -59 0
-206 267 111 0
109 133 87 0
41 197 187 0
-94 17 -95 0
127 27 -31 0
144 -242 -81 0
20 145 -141 0
-140 133 247 0
40 -274 -94 0
4 170 -64 0
-118 61 23 0
-224 -69 -67 0
-16 62 -2 0
143 65 -250 0
-205 -95 -160 0
139 -74 111 0
-68 -66 -38 0
85 -249 54 0
-192 15 -224 0
40 -98 132 0
-149 253 -239 0
119 169 -189 0
32 -187 166 0
256 74 4 0
103 -166 10 0
51 -77 8 0
-27 269 -241 0
123 -230 -213 0
-108 55 52 0
-193 242 -148 0
-18 68 -232 0
76 41 207 0
-136 74 -134 0
103 -136 -14 0
32 236 -88 0
-271 -154 -202 0
-107 150 -18 0
-74 48 12 0
234 116 -273 0
-168 94 140 0
227 273 221 0
43 60 71 0
-197 -105 -120 0
46 -261 -69 0
135 47 46 0
-20 11 -159 0
264 189 -12 0
51 5 274 0
-246 231 -237 0
70 37 -213 0
-262 31 -157 0
57 34 -156 0
202 60 178 0
1 -20 235 0
-185 -109 -262 0
-255 66 -87 0
3 211 21 0
-86 251 -175 0
241 -85 199 0
14 112 55 0
-82 70 -28 0
174 19 9 0
-130 25 -240 0
-275 77 -187 0
-190 -155 241 0
-63 136 33 0
-108 -6 -181 0
-67 -59 208 0
232 189 207 0
-243 59 -267 0
186 -20 -213 0
-137 59 -226 0
-243 30 72 0
-48 265 274 0
-130 126 -165 0
-131 -220 -262 0
-207 209 -173 0
51 170 -15 0
3 -57 -46 0
-220 -87 96 0
55 -15 170 0
218 216 -62 0
126 132 -8 0
-239 -265 103 0
-241 -44 -239 0
-140 153 97 0
-205 250 195 0
-134 32 -5 0
188 168 51 0
-217 -112 -83 0
233 -6 -190 0
206 -58 54 0
172 -40 274 0
61 -3 -194 0
-268 -197 190 0
-43 -211 78 0
57 163 -228 0
255 -51 -95 0
-125 153 75 0
152 -23 -114 0
-130 -275 264 0
80 148 204 0
133 -72 147 0
-111 208 9 0
55 260 -6 0
78 228 -165 0
-275 251 96 0
112 89 93 0
88 234 -126 0
-17 -34 252 0
-228 43 64 0
29 196 -55 0
100 74 -43 0
129 43 -42 0
-26 49 -89 0
71 -252 60 0
-111 -69 187 0
189 176 242 0
-262 -178 122 0
76 213 -121 0
183 -29 176 0
-42 207 -129 0
-84 -46 -66 0
-208 -265 -129 0
-191 218 40 0
273 -31 149 0
232 -258 105 0
106 -235 23 0
-237 -102 157 0
159 25 51 0
111 -149 35 0
84 204 217 0
-186 -240 -65 0
-17 -66 -25 0
-119 253 -35 0
-152 -147 102 0
-186 197 253 0
114 -170 -4 0
-155 -131 -190 0
267 -171 260 0
-105 21 -33 0
-175 80 70 0
240 229 4 0
172 -91 -63 0
-76 56 164 0
-160 -182 -13 0
144 240 -191 0
113 190 -247 0
-112 65 84 0
124 19 105 0
40 185 203 0
91 244 197 0
216 -93 -14 0
-8 -98 -218 0
159 275 14 0
-163 30 84 0
-146 106 191 0
97 -107 -48 0
-264 -253 111 0
176 86 181 0
-60 194 39 0
65 -261 -33 0
-181 58 123 0
255 -96 -226 0
-148 -146 235 0
122 -178 -270 0
-275 -236 -20 0
243 168 -61 0
-150 -2 -211 0
-110 113 -127 0
244 -128 -93 0
100 -14 201 0
-97 -12 48 0
161 -159 154 0
-103 226 -45 0
-205 162 216 0
-4 -231 -243 0
-194 262 99 0
-64 46 243 0
10 137 -179 0
-32 -275 -83 0
-142 -144 42 0
-238 -133 -104 0
-275 -154 166 0
-235 -145 107 0
165 -158 -272 0
-274 -221 -34 0
-65 -113 -18 0
209 -173 255 0
-217 -228 -44 0
28 -260 65 0
-150 -99 -44 0
74 -63 -57 0
-233 46 215 0
-144 -94 13 0
-135 33 -259 0
-167 200 96 0
-131 -32 -9 0
-93 229 213 0
-46 -40 7 0
174 107 -236 0
-218 200 40 0
-229 -59 -197 0
-266 214 -226 0
180 -269 -118 0
105 68 -159 0
163 227 -126 0
-75 -72 -216 0
-147 156 114 0
-261 -155 -29 0
-268 74 -250 0
-145 29 -163 0
262 208 -127 0
-85 -51 -11 0
-132 10 -139 0
183 -9 264 0
-50 192 204 0
109 43 -54 0
-74 268 173 0
224 74 -176 0
193 -130 177 0
182 -179 192 0
-146 24 -85 0
78 -57 -210 0
-216 221 66 0
245 153 147 0
-203 162 -184 0
-10 -158 -175 0
199 144 124 0
177 -256 71 0
224 -221 -197 0
-114 184 -149 0
177 -202 218 0
-78 143 139 0
-180 -186 135 0
-138 108 217 0
-155 20 149 0
-22 -53 -250 0
-111 -98 -269 0
174 -154 229 0
159 -113 34 0
-195 -67 11 0
185 -184 -76 0
-62 -167 -219 0
14 -243 196 0
84 100 37 0
-70 102 -234 0
110 228 -39 0
222 -61 -140 0
205 -47 -162 0
-196 -266 130 0
-187 37 106 0
144 -226 -165 0
-267 95 83 0
70 -72 196 0
-136 103 -251 0
-164 -153 6 0
-185 243 250 0
120 223 89 0
158 -206 225 0
185 -126 -190 0
17 -173 -19 0
171 122 -114 0
127 -224 273 0
16 -56 2 0
-236 34 -106 0
144 -80 81 0
-175 28 204 0
-99 262 -50 0
195 40 238 0
-110 45 73 0
83 -2 163 0
265 189 102 0
-71 259 -3 0
-189 -63 -215 0
246 38 216 0
-219 -21 -169 0
-230 -214 13 0
-44 -217 19 0
259 260 -32 0
-43 -181 -180 0
-263 -61 -272 0
-151 -247 -157 0
-263 -246 -132 0
-168 119 -19 0
-249 -82 -119 0
39 158 201 0
-196 -13 -110 0
42 -177 50 0
274 241 -96 0
82 268 53 0
-221 -7 -199 0
216 93 18 0
38 68 240 0
274 -179 264 0
193 265 -190 0
-68 -53 -59 0
-142 161 -12 0
-238 86 105 0
-198 -20 70 0
60 171 38 0
-202 9 -187 0
128 134 -152 0
-72 -89 150 0
151 -179 -270 0
-27 214 161 0
187 -56 238 0
124 -269 -144 0
-75 17 -145 0
152 -55 -198 0
-125 2 -15 0
77 247 -102 0
-87 -41 -201 0
-260 -269 -114 0
-252 237 100 0
-169 -257 215 0
-255 274 136 0
213 263 60 0
-32 -241 -258 0
-93 150 133 0
-3 101 35 0
101 -197 -26 0
156 40 -155 0
-84 235 -124 0
-55 79 -107 0
-27 74 -7 0
95 2 -40 0
268 -269 99 0
-143 -108 67 0
198 -110 32 0
146 241 275 0
238 80 67 0
191 -25 -127 0
261 99 77 0
