p cnf 275 1171
209 160 66 0
-23 -53 -84 0
19 -174 -115 0
137 -172 87 0
6 -134 -215 0
69 -228 160 0
-215 103 226 0
112 3 -133 0
-1 -74 269 0
136 -52 -268 0
-245 249 -191 0
46 170 99 0
238 -26 -141 0
-193 136 127 0
129 141 -19 0
-13 20 46 0
26 -65 98 0
-266 133 73 0
218 36 -193 0
74 119 84 0
36 206 -247 0
-83 205 197 0
-9 266 10 0
13 70 -34 0
-126 -187 243 0
-47 -110 28 0
39 185 37 0
-65 -12 265 0
102 -127 219 0
-74 140 -65 0
-188 -102 43 0
238 -204 -129 0
59 258 203 0
124 262 -7 0
27 226 -200 0
69 -273 251 0
-8 154 101 0
273 219 214 0
-46 175 -144 0
216 -142 -58 0
-190 48 -158 0
-70 208 -262 0
106 194 9 0
44 252 -270 0
52 9 -145 0
-241 -254 -153 0
27 -35 58 0
-275 -250 218 0
50 -209 -86 0
243 -236 -67 0
210 53 241 0
204 156 -229 0
192 165 224 0
-40 7 -208 0
50 235 -263 0
-261 96 233 0
-84 3 220 0
89 -47 71 0
213 -189 -108 0
-271 -272 63 0
126 83 180 0
222 -141 267 0
-254 188 -244 0
251 -205 -237 0
-181 -3 99 0
-201 107 125 0
-81 -172 10 0
-183 -136 -237 0
179 57 -9 0
-262 49 153 0
-117 5 245 0
-68 69 -7 0
112 91 249 0
-172 -102 -87 0
25 82 -208 0
-38 -199 -183 0
-156 -104 -152 0
-56 120 213 0
-53 56 139 0
182 -158 -56 0
-269 272 155 0
138 70 -45 0
-149 -5 -270 0
35 -171 -249 0
20 40 -23 0
-158 -18 143 0
-126 105 -67 0
-225 82 -63 0
163 109 -195 0
-247 -104 195 0
-165 114 -215 0
-145 263 248 0
225 -4 -68 0
-134 163 -210 0
-269 259 -151 0
-211 35 -147 0
169 203 -12 0
-39 166 256 0
23 -34 198 0
-71 -93 -55 0
-165 199 70 0
31 145 -130 0
-83 -223 -54 0
-95 185 158 0
35 188 -122 0
-192 17 -20 0
-112 153 151 0
96 -102 -45 0
-169 -5 53 0
252 161 -231 0
181 187 118 0
-199 61 -64 0
70 -57 -75 0
207 -212 -146 0
-99 100 185 0
-36 -125 -212 0
193 -40 66 0
39 -194 -262 0
227 -205 -129 0
-253 221 103 0
-246 140 -156 0
-41 -271 109 0
-20 22 -58 0
144 152 85 0
101 -250 -12 0
-183 181 -237 0
184 16 -269 0
-26 -37 -56 0
-105 39 156 0
-36 101 207 0
30 251 -171 0
52 80 -200 0
155 164 -15 0
116 270 -235 0
-273 -221 117 0
232 -250 -25 0
-176 -58 -15 0
197 -140 -208 0
194 34 -18 0
-139 -193 -106 0
265 252 11 0
33 11 -97 0
-177 -78 -245 0
55 -160 218 0
-71 -69 59 0
273 -149 106 0
-183 -161 180 0
63 -182 -90 0
243 -103 -268 0
-117 108 -189 0
188 254 -221 0
256 -136 185 0
223 -183 157 0
-36 -100 207 0
102 -221 273 0
-184 134 -62 0
-215 -36 -123 0
-66 -79 -267 0
192 40 -198 0
33 253 -124 0
-19 159 18 0
-47 79 209 0
159 122 -60 0
-1 141 -75 0
139 -210 273 0
148 124 -215 0
-75 -201 235 0
243 27 22 0
-9 -80 -255 0
-225 63 -217 0
152 -37 -164 0
204 227 167 0
226 -122 -131 0
251 -195 181 0
-101 257 -108 0
161 115 250 0
-60 -116 -145 0
-54 162 141 0
-147 -178 218 0
184 54 -89 0
-256 -34 197 0
-7 -96 -170 0
-179 -78 -129 0
-261 -203 13 0
-134 -140 78 0
216 -224 24 0
218 24 241 0
-189 -139 48 0
192 -205 -100 0
101 107 39 0
-171 27 102 0
-96 22 -69 0
5 71 254 0
229 58 -45 0
248 -1 -234 0
30 -188 146 0
50 110 -251 0
57 37 -203 0
-264 -241 106 0
267 -110 -234 0
-240 241 181 0
-254 -164 -242 0
80 -201 213 0
30 -236 3 0
-35 -43 -75 0
-202 -115 -273 0
-24 206 225 0
22 -135 -186 0
139 -223 -90 0
49 204 -195 0
215 -268 -152 0
-64 -238 169 0
104 254 228 0
-35 -217 -92 0
-229 148 20 0
-187 -130 -260 0
226 142 268 0
83 -254 249 0
231 119 135 0
123 87 154 0
143 -161 236 0
33 -55 -122 0
190 -195 138 0
88 -155 58 0
219 191 -207 0
268 -240 -143 0
-112 -34 198 0
-4 240 129 0
-67 -56 -274 0
241 126 -199 0
-179 -210 91 0
230 132 -142 0
-196 49 -223 0
185 55 167 0
224 -79 -214 0
-85 174 -258 0
53 222 -1 0
-210 -217 -82 0
-266 -46 -203 0
187 -33 109 0
123 154 32 0
-60 265 241 0
-261 155 233 0
38 82 -259 0
-212 -59 252 0
142 58 -77 0
-67 17 -106 0
271 -72 -140 0
-188 -14 -258 0
-161 -195 -191 0
51 -182 152 0
209 -164 67 0
-143 14 262 0
-178 109 220 0
-45 -117 205 0
-62 -189 25 0
16 149 -79 0
265 -209 -48 0
74 32 53 0
-152 212 -223 0
-14 -242 58 0
22 225 -9 0
-99 19 -241 0
-31 -49 -136 0
206 128 217 0
38 -17 -160 0
88 -20 78 0
-249 138 91 0
-196 -95 -84 0
-197 -98 125 0
-262 143 269 0
41 95 150 0
23 -115 -271 0
40 230 12 0
41 -5 176 0
181 153 217 0
-108 126 91 0
-130 40 -236 0
71 49 -119 0
164 -195 -257 0
109 -215 165 0
-205 -20 -159 0
-241 -72 -78 0
-195 261 -257 0
224 -85 -196 0
241 104 -40 0
-11 9 31 0
234 -260 -22 0
236 268 -17 0
-130 -93 33 0
116 8 137 0
-35 -237 -112 0
-212 140 129 0
-230 4 -80 0
-183 -109 145 0
-232 50 -110 0
-88 -14 104 0
252 38 48 0
-220 175 210 0
-211 -139 -217 0
-178 -256 124 0
-84 43 115 0
7 61 181 0
103 81 74 0
76 43 259 0
25 -124 245 0
260 150 126 0
73 -67 -178 0
170 -74 148 0
125 12 -217 0
169 204 212 0
-221 -270 -162 0
39 201 -153 0
-228 -245 224 0
120 -100 -141 0
-185 -104 52 0
250 -38 -114 0
-221 44 275 0
-208 -46 -79 0
-192 -175 -141 0
-168 -230 7 0
152 -17 243 0
128 49 206 0
-254 51 27 0
-46 -194 -203 0
8 -112 -76 0
174 -52 -247 0
-116 34 239 0
104 179 -178 0
-137 76 247 0
-67 143 -115 0
167 -150 256 0
42 81 137 0
130 -128 -254 0
39 254 145 0
170 -148 217 0
-187 -235 212 0
35 143 257 0
-235 85 -168 0
187 32 -270 0
5 -99 -216 0
-41 -120 -28 0
24 -21 -154 0
100 177 -17 0
249 -172 237 0
-248 84 -107 0
61 24 -125 0
198 -143 -69 0
186 -236 126 0
-142 -185 -273 0
-242 206 -193 0
-259 48 -230 0
121 120 169 0
-144 -227 208 0
-15 181 -65 0
-55 -193 25 0
-233 -274 1 0
-259 -229 -173 0
148 26 251 0
-184 -19 -219 0
185 -64 161 0
43 -163 -91 0
-173 -88 -139 0
3 266 82 0
148 49 266 0
-93 273 193 0
-60 163 18 0
-263 -269 -92 0
-230 -206 82 0
244 144 217 0
-11 171 137 0
245 263 242 0
-57 -113 -195 0
-96 -78 -160 0
15 -177 268 0
187 9 22 0
20 60 -174 0
16 59 -271 0
200 63 29 0
-193 -72 -45 0
-38 -108 182 0
241 -81 -260 0
-120 81 -254 0
160 -125 -8 0
10 153 162 0
-26 25 -132 0
-140 -239 9 0
-71 72 181 0
-186 -258 -127 0
224 -197 -114 0
-219 177 -257 0
36 116 -265 0
-49 137 -249 0
33 -173 -252 0
158 242 -146 0
132 -61 119 0
-54 -117 -206 0
236 268 72 0
-30 240 158 0
-37 239 107 0
-96 261 233 0
-193 111 -125 0
216 -49 74 0
144 -244 -54 0
-224 120 -102 0
-162 244 -127 0
-246 -154 158 0
2 -180 241 0
4 172 -126 0
43 -205 -236 0
-262 144 -13 0
-153 -208 210 0
88 -64 -12 0
-137 -199 231 0
122 -76 152 0
85 -55 208 0
235 29 190 0
154 -243 -32 0
-85 57 -103 0
85 -242 -89 0
211 -247 105 0
171 131 261 0
-166 -152 -257 0
209 -226 -223 0
149 33 237 0
-45 -7 96 0
-5 140 230 0
-177 191 72 0
-42 243 145 0
-144 -193 275 0
-121 -275 7 0
-270 57 -20 0
-261 -140 179 0
164 102 -96 0
-25 -184 -20 0
-253 -140 62 0
-197 -246 -73 0
242 77 -83 0
22 -178 72 0
-188 -197 -268 0
-136 271 -30 0
-239 -127 -158 0
-274 -121 -205 0
-6 126 -153 0
-140 134 1 0
205 189 57 0
178 -193 -78 0
-72 -256 -243 0
144 -271 44 0
-177 42 -153 0
-137 1 113 0
208 64 123 0
-219 198 79 0
-80 -185 40 0
122 118 89 0
-83 190 3 0
-78 -218 -275 0
126 146 -183 0
-197 -259 -163 0
-73 188 -93 0
-241 -23 246 0
-144 101 -76 0
230 -244 -166 0
-46 139 137 0
-118 -223 1 0
16 193 -177 0
117 261 153 0
123 267 47 0
-132 5 -178 0
274 -254 115 0
-258 60 -113 0
246 -42 -214 0
-100 76 11 0
-223 181 -49 0
-132 41 146 0
-51 -4 -76 0
40 219 228 0
147 -170 -207 0
97 42 -95 0
-5 273 46 0
77 -80 -263 0
193 -141 126 0
-204 48 138 0
275 -170 72 0
-86 263 101 0
227 32 136 0
-10 -52 74 0
-64 -65 159 0
-271 -192 225 0
-100 180 3 0
-270 128 124 0
186 -4 212 0
-254 187 -69 0
-163 20 260 0
-36 -44 3 0
144 -19 -101 0
42 144 79 0
96 220 -68 0
119 264 199 0
-160 -88 16 0
110 191 195 0
-51 -157 -137 0
74 76 5 0
243 188 223 0
-116 70 223 0
121 -73 -110 0
-161 -124 -170 0
-102 -198 116 0
232 -142 -89 0
-56 -130 -123 0
212 -163 -229 0
69 -202 -128 0
109 213 -120 0
252 248 -58 0
-188 272 -28 0
-74 -88 -201 0
193 169 192 0
-41 49 252 0
138 -18 173 0
203 -197 -165 0
-37 -67 -249 0
-48 150 70 0
-107 246 133 0
267 -194 157 0
29 98 131 0
-144 216 -106 0
250 13 116 0
-114 76 253 0
97 91 154 0
114 116 3 0
-136 210 -62 0
151 -28 254 0
-269 -7 188 0
134 -23 133 0
62 237 239 0
242 196 -191 0
-224 -12 145 0
57 219 -45 0
225 -96 -151 0
-112 -121 -246 0
-194 -251 -119 0
244 -17 -5 0
-13 254 -150 0
-110 233 151 0
253 168 196 0
241 263 -225 0
195 248 12 0
208 70 203 0
-268 153 -187 0
-170 -156 41 0
-188 -208 166 0
27 -202 -193 0
44 22 -156 0
-105 -150 59 0
-164 -105 -219 0
205 -22 -5 0
264 -30 130 0
172 -98 169 0
-16 91 -75 0
137 -172 44 0
148 222 -143 0
-73 78 -204 0
-88 70 73 0
42 -90 -162 0
-19 169 49 0
-70 18 -271 0
-84 76 -195 0
-144 -273 140 0
122 159 227 0
-150 62 -9 0
-201 184 150 0
7 -126 -112 0
253 21 169 0
-133 -81 -88 0
109 -238 212 0
5 11 -23 0
-204 107 -194 0
78 258 -206 0
144 136 202 0
63 216 -45 0
-210 -228 138 0
75 235 -273 0
-52 151 176 0
-235 251 223 0
-168 162 5 0
174 203 81 0
6 151 -230 0
-68 27 170 0
-204 -164 53 0
-26 122 -112 0
178 249 -103 0
-49 -55 -112 0
239 -172 8 0
12 185 122 0
61 188 22 0
-221 143 -233 0
-130 -6 -71 0
80 -244 128 0
-220 -232 38 0
-100 -198 24 0
13 119 -217 0
-17 -122 33 0
47 -238 208 0
214 -97 55 0
97 -193 155 0
-73 275 -127 0
112 133 75 0
125 145 -66 0
269 -28 59 0
-68 216 -148 0
218 5 42 0
-235 251 8 0
-219 -74 48 0
253 -89 129 0
-4 -153 -261 0
102 -31 -159 0
-71 -12 87 0
256 -14 -199 0
-251 249 -134 0
-151 -274 -250 0
217 206 145 0
-53 -184 -29 0
-207 200 -20 0
-181 148 195 0
33 155 93 0
213 45 -160 0
246 154 203 0
190 135 -186 0
54 -138 16 0
264 -155 -129 0
232 117 -236 0
214 -273 45 0
-122 -63 107 0
-46 -201 164 0
206 -22 44 0
-192 -17 55 0
-121 -165 -58 0
-89 173 -144 0
-71 -7 127 0
206 -34 157 0
-139 208 69 0
-111 -9 -14 0
172 178 -38 0
-1 156 2 0
-221 -175 -83 0
132 187 251 0
-240 268 71 0
-111 174 -27 0
131 203 -211 0
161 -159 237 0
-73 -246 229 0
-273 91 -18 0
-150 243 -211 0
229 86 -163 0
90 182 -25 0
58 -70 79 0
-101 107 -59 0
-152 -56 -109 0
-94 -56 83 0
-203 -215 229 0
141 -14 -234 0
103 88 2 0
-3 273 115 0
100 -271 -127 0
-196 213 -30 0
1 166 212 0
37 214 -181 0
170 -186 -271 0
33 -163 -104 0
143 -127 -142 0
39 223 -122 0
95 22 -258 0
-191 -76 220 0
55 54 125 0
-241 -175 -75 0
-95 226 77 0
74 -59 -169 0
115 9 -23 0
-182 218 -157 0
-113 135 239 0
217 -216 221 0
-160 41 198 0
-52 -182 -260 0
46 87 133 0
151 -243 -129 0
112 -238 -140 0
-193 -273 -115 0
-225 152 -224 0
120 195 -114 0
-28 -46 -114 0
148 -75 246 0
-4 -27 -224 0
-218 -145 71 0
204 -141 203 0
150 84 -159 0
200 63 -110 0
-230 -94 -36 0
-52 33 -200 0
-135 268 -221 0
21 31 150 0
42 -10 -87 0
-163 214 -125 0
-74 97 38 0
109 -266 17 0
78 94 240 0
-148 251 199 0
43 -205 -190 0
-69 -237 -119 0
269 65 -118 0
-10 -154 164 0
-148 -199 -6 0
-185 -41 -252 0
-222 -34 182 0
-193 13 -151 0
264 -169 35 0
226 200 142 0
268 -267 21 0
-168 -179 13 0
-157 -204 -205 0
136 248 -139 0
164 218 -63 0
223 -17 180 0
-92 -193 142 0
-128 271 54 0
139 201 66 0
-169 220 15 0
-44 -139 -175 0
64 -91 150 0
-229 -225 221 0
-60 -154 -78 0
42 25 105 0
172 252 -128 0
-123 172 231 0
243 -133 134 0
-236 86 -227 0
156 -66 -198 0
26 -202 145 0
104 142 -175 0
-64 -248 -152 0
-84 -268 164 0
29 -9 232 0
143 -137 200 0
201 -95 212 0
-165 93 -86 0
133 -247 -108 0
154 262 146 0
-264 -114 155 0
-75 273 204 0
202 -167 -24 0
-250 84 -188 0
-166 218 175 0
108 200 -23 0
48 -157 177 0
83 107 218 0
-96 -157 -195 0
33 19 118 0
-174 -160 -60 0
-162 239 -194 0
-47 62 -268 0
152 -113 177 0
97 -131 -240 0
129 234 -255 0
-37 -118 -274 0
-258 101 197 0
-86 94 -107 0
-235 132 -139 0
120 -240 -26 0
-15 89 -44 0
193 -80 -199 0
128 80 204 0
-60 -76 -230 0
10 128 105 0
76 255 -105 0
-252 -172 189 0
116 -149 164 0
-189 58 -216 0
-193 -38 -207 0
-107 -211 -16 0
-198 271 127 0
100 108 200 0
-111 231 -247 0
-132 -187 -128 0
-16 -240 -71 0
11 255 63 0
247 218 -151 0
11 -185 144 0
135 -141 16 0
269 -40 -229 0
247 206 255 0
-18 -41 212 0
246 -137 -85 0
-152 37 195 0
200 146 -11 0
130 -10 -127 0
151 88 266 0
234 -71 -210 0
202 233 -221 0
268 168 -68 0
-38 -97 -53 0
-15 91 -59 0
-138 123 213 0
-23 181 -159 0
104 -46 231 0
23 96 239 0
41 25 -99 0
69 217 -35 0
-72 85 131 0
-196 -150 199 0
60 -163 -141 0
-63 -203 103 0
-189 44 -259 0
-241 185 29 0
214 17 259 0
-166 24 -165 0
141 102 -219 0
90 253 175 0
71 192 105 0
240 32 -144 0
-139 -169 -205 0
117 -223 -130 0
12 181 -63 0
105 -266 238 0
-161 -94 -235 0
-35 -9 -2 0
183 -11 150 0
-1 -4 212 0
-56 -39 -38 0
-224 41 -250 0
-127 -161 229 0
-204 -254 49 0
-150 99 -103 0
28 -159 -275 0
28 27 65 0
252 155 38 0
139 142 106 0
7 -120 -68 0
171 219 -131 0
-138 -129 -230 0
129 246 -83 0
159 197 -106 0
10 221 -29 0
-30 -212 144 0
157 9 -113 0
163 250 14 0
32 -30 -122 0
-144 73 -156 0
259 56 -41 0
-9 32 44 0
102 -75 63 0
-215 269 130 0
102 44 -120 0
-107 -273 255 0
-253 -149 -134 0
187 105 264 0
29 227 -106 0
103 206 -116 0
192 106 243 0
156 115 177 0
-195 9 88 0
-203 111 18 0
29 122 60 0
17 72 194 0
-260 -77 -176 0
-164 -169 63 0
-185 -49 -13 0
233 -65 -61 0
-206 23 -246 0
102 174 -130 0
-189 175 233 0
198 -84 221 0
-214 -273 -57 0
52 21 -226 0
-208 -52 196 0
237 211 -219 0
-63 -262 -211 0
139 -95 29 0
175 240 -252 0
66 27 181 0
75 155 -35 0
-218 -10 -139 0
-181 205 141 0
196 -185 243 0
188 158 -112 0
208 -122 -126 0
-187 242 162 0
-105 19 212 0
-90 -190 195 0
-39 -194 208 0
112 -172 99 0
117 -151 -44 0
275 -214 -257 0
57 154 215 0
-201 -7 -190 0
-108 150 -161 0
130 265 -54 0
-187 -243 -100 0
-166 -88 144 0
-138 -187 191 0
254 -58 -18 0
-258 160 92 0
137 271 99 0
57 -188 197 0
257 -124 165 0
-252 -254 -29 0
177 179 -13 0
46 234 68 0
35 -26 88 0
-238 151 88 0
93 -15 168 0
266 -59 14 0
-218 149 -132 0
177 263 239 0
233 -77 -115 0
267 159 84 0
-254 -230 75 0
38 137 42 0
-88 148 98 0
214 200 -62 0
-185 41 -43 0
222 28 -241 0
-252 146 232 0
250 -121 -45 0
-214 -114 -103 0
-161 269 62 0
-79 -265 68 0
-43 197 165 0
216 -182 -253 0
-262 -258 -17 0
41 134 86 0
-248 -23 85 0
94 148 -187 0
226 90 275 0
-133 -67 102 0
205 -105 -72 0
22 -159 264 0
6 14 -260 0
250 157 26 0
126 -35 -38 0
216 -61 -120 0
-214 250 -175 0
-239 211 -198 0
-251 143 60 0
12 -98 -92 0
-59 79 45 0
-135 -215 179 0
-4 -219 -180 0
224 -179 11 0
107 248 -245 0
197 -84 -106 0
-201 -95 -203 0
17 -94 -192 0
-154 -200 -138 0
197 -263 -121 0
-104 248 -49 0
173 -176 -163 0
3 138 9 0
46 -57 -165 0
58 8 -6 0
244 150 -30 0
73 -187 -266 0
-254 187 -30 0
272 216 72 0
-143 155 273 0
182 -5 149 0
109 153 -210 0
267 198 -127 0
112 185 30 0
32 -166 -172 0
-80 -41 230 0
-129 -91 241 0
-183 87 218 0
203 25 87 0
95 -96 83 0
70 197 239 0
275 195 -49 0
-203 236 -8 0
-239 -270 -111 0
-1 31 -177 0
-181 -56 -97 0
219 120 -94 0
-113 44 15 0
30 -238 34 0
28 -251 -36 0
86 -263 -166 0
164 -97 -265 0
130 -192 226 0
-109 -66 -9 0
95 99 158 0
-242 183 -90 0
218 -136 -91 0
-197 -122 -72 0
-233 253 -82 0
72 161 -243 0
172 176 -2 0
-29 254 115 0
31 -13 109 0
219 117 253 0
99 144 58 0
153 74 33 0
-265 -254 3 0
-69 102 107 0
227 174 214 0
244 205 99 0
-82 -24 119 0
101 82 208 0
-174 27 7 0
-111 -166 18 0
-114 -238 -263 0
-194 -231 220 0
238 144 148 0
-167 -101 194 0
77 58 13 0
-97 40 -21 0
-191 237 -130 0
40 191 -44 0
270 -67 155 0
169 266 -131 0
-18 -212 -200 0
-124 12 234 0
-195 265 -60 0
49 196 -176 0
-252 186 -45 0
205 -193 6 0
-232 261 -103 0
120 -244 24 0
260 -45 77 0
-79 -109 -21 0
159 -137 73 0
-137 -33 254 0
-25 -103 -79 0
-55 -239 212 0
112 -6 229 0
-178 249 -27 0
157 -133 252 0
40 -123 -87 0
90 -101 -95 0
214 -133 -187 0
-129 55 185 0
77 116 165 0
-78 127 -236 0
105 100 -96 0
-128 -267 -176 0
164 111 -41 0
-104 -39 -130 0
-214 198 46 0
-158 48 -216 0
15 146 -232 0
183 -28 4 0
100 -41 -144 0
96 112 34 0
244 -230 111 0
262 232 227 0
234 176 245 0
232 218 238 0
160 144 -142 0
274 -50 226 0
229 -194 81 0
-231 -74 222 0
-49 210 166 0
-128 -263 -165 0
-49 123 -79 0
38 -35 223 0
-96 80 128 0
104 -70 -87 0
65 134 250 0
-49 -94 274 0
223 -143 -55 0
-177 -119 67 0
-236 15 -197 0
179 -53 -40 0
-150 23 14 0
-119 -144 65 0
182 16 128 0
173 -260 164 0
-112 19 -230 0
-21 -35 193 0
-272 -149 -33 0
-45 -184 71 0
40 -269 -112 0
148 209 -131 0
-233 270 10 0
186 150 -146 0
132 -191 27 0
-126 18 -69 0
-120 75 58 0
199 40 66 0
265 123 165 0
48 144 -216 0
-178 8 188 0
246 -40 -70 0
-119 -177 -32 0
190 104 130 0
125 -232 209 0
176 96 -71 0
157 62 2 0
217 87 14 0
18 167 -203 0
-85 -123 -135 0
-18 -181 156 0
49 211 -80 0
-104 -192 61 0
219 227 15 0
-250 79 186 0
82 -106 -26 0
-12 161 -253 0
93 229 -138 0
72 -69 222 0
105 -63 246 0
84 -31 -30 0
3 113 -9 0
-254 273 224 0
-34 -183 -179 0
26 -213 -166 0
216 -250 -182 0
-47 166 165 0
-145 -193 125 0
189 -71 -211 0
259 -195 125 0
-115 275 253 0
130 -122 -26 0
-250 -7 9 0
78 -26 230 0
84 -221 137 0
-89 22 -88 0
25 218 -20 0
-88 56 148 0
-59 -273 -87 0
-242 98 -183 0
-253 -192 -104 0
-177 -86 -114 0
79 -258 -75 0
-98 211 -185 0
-183 -250 249 0
-157 -181 254 0
-59 127 140 0
-206 9 80 0
-124 -157 91 0
-257 154 -149 0
170 -158 263 0
-196 24 237 0
242 239 -33 0
-154 -67 -62 0
225 248 -38 0
36 -237 -191 0
-225 194 -86 0
32 138 271 0
-177 -107 -230 0
-269 226 163 0
14 -55 -251 0
212 -119 110 0
74 146 216 0
-221 124 -6 0
-137 229 236 0
-192 -11 -68 0
12 75 241 0
149 -114 41 0
212 204 253 0
-59 246 170 0
-39 -226 -49 0
20 -266 5 0
-160 -153 -242 0
31 -54 104 0
176 239 95 0
-85 42 6 0
153 92 100 0
-201 50 -67 0
76 -42 153 0
58 -203 259 0
189 100 265 0
178 200 -254 0
-139 -103 -110 0
