p cnf 275 1171
93 -186 249 0
-4 17 -183 0
-194 -150 201 0
-181 -64 -89 0
73 162 -155 0
-117 202 -213 0
182 135 223 0
29 -154 175 0
-109 17 129 0
233 -79 222 0
147 100 122 0
-21 262 -254 0
-201 -225 172 0
64 263 213 0
-123 -155 -214 0
-115 -208 -177 0
-152 205 -187 0
138 235 130 0
-28 -209 -55 0
-66 100 -153 0
85 -158 73 0
-219 167 208 0
-230 -175 -158 0
-213 131 -217 0
-275 -166 -15 0
-46 -140 170 0
-201 162 -271 0
-259 165 -28 0
-26 -203 17 0
-42 -99 200 0
-5 -33 -125 0
203 153 130 0
71 -64 66 0
-172 107 -10 0
-189 11 -171 0
73 -243 -165 0
-205 266 86 0
70 -92 -65 0
131 -19 -43 0
-169 -115 71 0
226 42 218 0
238 23 213 0
-218 159 258 0
-158 201 176 0
-224 -39 -201 0
240 -122 -121 0
-199 29 -119 0
190 -199 -167 0
-151 -230 252 0
95 -206 225 0
-258 -26 214 0
198 263 -28 0
-247 -140 89 0
-168 -42 -3 0
-130 122 48 0
257 -87 25 0
-237 171 156 0
-213 -65 -215 0
192 118 88 0
-72 228 -139 0
-27 242 130 0
-96 -10 73 0
102 275 165 0
16 123 194 0
77 218 -146 0
232 -140 -98 0
-272 233 -245 0
103 -212 125 0
63 234 -162 0
130 34 -227 0
-81 -221 173 0
-139 -80 -242 0
37 43 21 0
216 29 243 0
-83 -70 155 0
-200 235 178 0
149 41 -175 0
113 261 -219 0
-222 -183 90 0
165 144 -208 0
56 -226 -67 0
65 -31 274 0
226 -143 -141 0
145 -163 39 0
-156 6 -149 0
272 -16 110 0
150 -201 88 0
200 -26 87 0
-6 72 -67 0
-268 -92 -188 0
-125 1 238 0
24 203 210 0
-18 43 133 0
-85 -262 112 0
111 232 -258 0
-211 -116 -159 0
-89 -74 179 0
-67 61 -268 0
135 -158 -255 0
123 -69 231 0
52 -258 78 0
274 103 -196 0
-108 87 -160 0
-31 96 -272 0
-41 -47 176 0
13 138 88 0
-157 245 130 0
-188 244 130 0
-59 -247 -28 0
18 146 260 0
-17 -98 -273 0
-38 26 93 0
120 83 249 0
84 -263 -160 0
-166 193 -225 0
-118 -5 -164 0
-6 69 -113 0
157 -200 -235 0
-175 168 6 0
-108 69 185 0
-183 -107 -238 0
139 -188 227 0
170 -171 259 0
-9 -188 -89 0
153 262 178 0
215 60 -187 0
-56 -164 9 0
-168 -234 111 0
-61 -89 -105 0
210 -246 163 0
198 162 -116 0
119 239 -11 0
155 251 -139 0
136 -223 152 0
247 228 180 0
199 225 63 0
-194 39 59 0
-259 123 -1 0
109 23 -22 0
-101 39 -36 0
111 173 42 0
-2 -27 -57 0
-267 -6 -232 0
-220 -133 -180 0
204 59 -103 0
-92 128 -152 0
130 -161 -81 0
217 90 134 0
-54 -100 -214 0
59 147 164 0
272 35 65 0
211 245 193 0
112 68 -77 0
207 80 -55 0
-192 45 269 0
93 204 115 0
34 -71 72 0
211 -118 83 0
-92 127 146 0
21 -17 55 0
95 18 246 0
-24 87 -223 0
37 207 -52 0
-3 -89 186 0
-150 142 244 0
-76 -5 238 0
92 -194 -47 0
-95 -265 -28 0
115 206 18 0
-266 -75 -228 0
246 108 -109 0
-256 -225 273 0
86 -252 192 0
79 -7 104 0
223 194 254 0
5 -138 -267 0
-58 253 -105 0
-193 91 -121 0
-82 234 233 0
135 36 -20 0
155 120 -270 0
-45 252 220 0
113 100 -2 0
103 -116 -157 0
-46 -7 -220 0
-109 -63 -3 0
-91 -167 33 0
7 45 239 0
52 107 -242 0
206 -2 77 0
-181 -117 231 0
-209 -240 33 0
17 246 -23 0
-227 95 196 0
-150 -49 38 0
104 -251 -19 0
128 196 -109 0
17 -135 -21 0
-13 11 -114 0
2 129 -42 0
-158 -56 -52 0
-189 39 160 0
261 146 -209 0
-68 -162 73 0
172 -192 -50 0
-160 -244 62 0
-113 -233 -195 0
16 -99 250 0
23 17 -251 0
171 147 40 0
-38 -123 -177 0
-55 24 -263 0
28 -6 66 0
-104 255 -266 0
-262 -88 89 0
196 199 36 0
-167 230 -195 0
21 97 147 0
-269 263 -209 0
141 -30 39 0
210 -197 -40 0
-49 -139 -162 0
-110 -86 -209 0
262 -112 -81 0
154 -272 175 0
-165 33 -134 0
-273 -149 -89 0
145 59 192 0
-26 3 199 0
15 -17 -247 0
-148 162 196 0
57 28 67 0
64 -67 -149 0
-153 -43 109 0
189 158 37 0
154 -199 -48 0
106 -258 -66 0
-148 -53 -141 0
264 -247 128 0
113 163 168 0
9 215 -194 0
102 -176 -135 0
67 -187 266 0
-5 -260 -65 0
136 -74 182 0
-113 -243 46 0
260 264 -237 0
-265 -223 -15 0
111 24 189 0
-43 -70 -74 0
220 1 142 0
171 -226 -181 0
143 213 217 0
-207 99 271 0
48 -43 144 0
-156 -176 -79 0
-44 240 -34 0
239 -85 -102 0
-246 -39 -91 0
-99 225 18 0
-162 -193 -59 0
169 124 -21 0
-261 -125 101 0
-225 161 -165 0
-103 90 -206 0
-245 133 -100 0
259 -153 188 0
-197 -124 226 0
-226 121 91 0
68 -238 -222 0
-16 256 150 0
-196 247 150 0
-13 -90 140 0
65 168 -191 0
-20 126 150 0
29 -254 107 0
-52 -180 190 0
264 -53 30 0
265 -136 -249 0
64 -119 248 0
-265 11 161 0
-176 181 -1 0
-218 -110 17 0
202 267 230 0
-89 205 -154 0
-12 112 23 0
44 111 215 0
249 258 -200 0
229 261 228 0
95 151 173 0
-52 -263 -32 0
-114 182 220 0
20 -266 82 0
2 -111 -261 0
-233 156 -84 0
252 173 -69 0
-159 -136 -176 0
-74 -77 -242 0
-192 -243 252 0
89 -248 108 0
-252 139 42 0
-57 137 -180 0
-239 177 222 0
253 59 214 0
15 -106 -181 0
248 -48 49 0
15 -46 -192 0
-224 -214 219 0
173 -41 143 0
40 -190 -66 0
-8 244 202 0
29 -24 -88 0
-117 90 158 0
195 184 -43 0
-203 163 172 0
140 216 66 0
-254 175 12 0
157 -139 71 0
146 -27 133 0
106 -144 154 0
-164 -125 66 0
211 -138 -67 0
264 -112 256 0
-203 72 -90 0
149 80 -211 0
101 275 -71 0
-16 -164 -213 0
53 190 222 0
-68 -118 -53 0
-67 -148 -28 0
171 -83 -256 0
-243 238 -266 0
193 -101 -27 0
270 196 -89 0
100 -232 17 0
124 -204 179 0
-143 20 262 0
132 -164 150 0
203 -208 -269 0
210 72 62 0
-31 -190 -200 0
45 246 136 0
159 -73 -111 0
-212 236 164 0
-206 -250 159 0
-205 -79 7 0
226 81 -113 0
26 -119 -258 0
-86 -240 -193 0
-155 -222 17 0
104 107 -131 0
71 -76 174 0
-49 154 -138 0
-255 121 66 0
-87 271 -188 0
-183 -121 -61 0
261 -107 139 0
-115 -108 -132 0
-41 124 113 0
58 30 -114 0
136 -105 -190 0
-29 67 -77 0
-130 -118 116 0
41 135 -48 0
60 -213 140 0
118 -182 36 0
-181 142 137 0
47 260 234 0
-211 77 -131 0
-235 -119 -159 0
-233 -178 -272 0
96 -129 224 0
-268 -129 145 0
273 -176 140 0
-209 -96 231 0
-26 35 7 0
48 125 -162 0
238 165 -193 0
-12 -40 -196 0
-169 29 -234 0
-260 -126 -85 0
129 -69 -224 0
241 222 184 0
57 58 -225 0
243 161 -30 0
132 -233 193 0
133 232 -241 0
-168 -198 105 0
40 -158 -160 0
-6 -237 273 0
-167 -273 240 0
-225 227 -130 0
-203 165 -141 0
-129 -52 -169 0
-102 63 34 0
45 232 256 0
141 -249 125 0
-220 63 -28 0
-2 73 -187 0
172 -221 -165 0
-69 84 -200 0
61 120 -77 0
197 -68 -269 0
19 -111 -274 0
176 268 83 0
-161 241 23 0
-243 251 -85 0
153 -172 98 0
-62 -186 192 0
-189 244 150 0
-201 -132 17 0
87 118 249 0
-217 26 164 0
-234 -209 -16 0
12 28 -221 0
-204 166 139 0
-43 152 215 0
273 -2 -206 0
187 -186 117 0
46 111 -271 0
-180 83 -31 0
87 -158 52 0
-245 -157 -139 0
-142 -232 215 0
118 -146 -220 0
104 -57 131 0
-264 17 165 0
111 -274 244 0
-111 125 185 0
-256 12 -173 0
143 169 -45 0
-28 -210 186 0
-59 196 -227 0
-98 131 153 0
164 -74 165 0
-109 73 166 0
157 188 -183 0
249 -220 -250 0
188 187 133 0
-1 -275 255 0
-184 -157 -252 0
25 -44 112 0
-176 207 -145 0
193 -214 164 0
63 -4 108 0
22 26 -216 0
68 -157 96 0
-107 79 -155 0
-47 -236 226 0
155 164 176 0
274 -122 -119 0
241 270 243 0
89 140 -119 0
219 270 17 0
-115 119 -140 0
78 92 118 0
16 -69 83 0
257 97 193 0
-124 231 -200 0
-203 158 -145 0
-121 -143 -161 0
175 121 -96 0
-130 83 -146 0
-208 257 -248 0
-11 -259 20 0
-203 -77 161 0
146 -153 -254 0
-124 39 -262 0
191 -81 117 0
-187 10 -24 0
249 -98 57 0
-159 164 257 0
-96 139 3 0
128 272 91 0
230 185 32 0
156 -210 -60 0
-134 170 -226 0
111 239 260 0
169 114 40 0
-95 -135 -254 0
-217 8 115 0
-245 53 196 0
-64 -43 187 0
221 48 -52 0
197 -20 111 0
-15 -177 187 0
253 -92 -107 0
-218 81 205 0
-271 94 184 0
-250 -239 74 0
32 -232 -221 0
-113 -173 8 0
-35 -121 41 0
-170 229 245 0
232 -239 -110 0
110 -144 88 0
75 10 -91 0
-6 60 111 0
-37 203 67 0
-94 157 73 0
216 -85 -58 0
-144 228 -259 0
220 196 201 0
-169 253 -52 0
93 -117 178 0
22 -113 5 0
218 -85 -23 0
251 61 -69 0
81 -192 242 0
140 227 -136 0
223 149 -188 0
-219 96 -248 0
48 261 -74 0
-69 -59 -197 0
-149 205 63 0
-23 95 272 0
37 261 -69 0
-110 -115 -141 0
39 213 250 0
247 186 -36 0
140 -226 71 0
-149 -273 -78 0
164 67 -189 0
207 13 -167 0
214 73 -171 0
-138 248 173 0
-71 122 194 0
-152 -93 -78 0
35 52 99 0
-148 92 214 0
-42 90 203 0
145 -132 104 0
-26 58 -115 0
-85 60 221 0
259 238 89 0
-14 200 269 0
107 237 34 0
191 -183 -175 0
-159 -271 261 0
189 -2 154 0
-174 112 124 0
-156 -258 -239 0
-35 251 110 0
-139 -194 119 0
56 68 236 0
23 -42 99 0
-187 214 -157 0
-163 -132 -197 0
-155 -259 82 0
180 -78 -39 0
132 -234 -146 0
-18 -143 -38 0
219 -127 -270 0
-7 -119 209 0
189 59 273 0
198 -251 -270 0
-38 -112 266 0
148 147 -7 0
-165 268 211 0
214 -26 -79 0
-210 -44 -160 0
-66 169 -41 0
198 226 -196 0
68 -247 -83 0
157 -124 -98 0
92 -154 244 0
-250 20 193 0
17 186 82 0
202 -57 189 0
-142 -166 -4 0
190 -21 61 0
64 111 78 0
25 -9 -210 0
-79 117 155 0
78 2 -208 0
-224 -192 -143 0
173 222 254 0
-198 -166 -36 0
42 33 -43 0
116 -124 -146 0
52 -101 104 0
-262 -180 -84 0
-33 46 -30 0
-11 -115 -264 0
-197 105 134 0
-56 201 -137 0
-207 -14 212 0
171 257 -87 0
148 -53 -178 0
58 186 -125 0
91 50 -223 0
237 -129 -218 0
10 203 247 0
230 164 -159 0
-14 -222 -132 0
238 219 229 0
1 -114 -260 0
-126 -268 4 0
218 -208 -137 0
222 -225 236 0
175 101 178 0
-240 -222 74 0
187 268 -142 0
-187 -25 -34 0
-144 247 -248 0
181 272 -232 0
-181 47 256 0
213 66 127 0
-174 -112 175 0
-108 -263 242 0
-4 -180 167 0
101 -69 -111 0
107 133 -23 0
-57 -34 -158 0
61 85 -14 0
-11 264 -209 0
-131 -110 -152 0
-1 -142 -35 0
46 51 -212 0
112 51 -117 0
167 -132 116 0
-201 68 -141 0
17 -146 64 0
96 -122 268 0
77 -123 -225 0
-234 -159 100 0
-155 79 -221 0
-273 180 -212 0
267 -122 247 0
-240 -242 78 0
-94 -227 -126 0
-144 231 178 0
207 165 -109 0
-190 -135 -261 0
-42 -123 -250 0
-139 194 213 0
-182 99 266 0
222 -137 -206 0
-231 173 160 0
86 -79 261 0
-259 -18 124 0
206 -65 -35 0
191 -113 255 0
-142 -102 -67 0
89 28 -216 0
82 -104 -113 0
153 211 99 0
-75 238 -40 0
61 -86 9 0
-9 194 253 0
-106 -168 104 0
-263 -30 -156 0
225 -253 -256 0
95 -173 251 0
139 3 -29 0
-59 105 158 0
253 -107 -213 0
152 -25 19 0
183 -2 29 0
94 -268 -185 0
-182 -17 201 0
-104 -173 -139 0
65 -150 -20 0
125 270 -235 0
-240 -257 -116 0
-47 -105 -122 0
155 226 145 0
-248 218 -271 0
-34 -218 -37 0
-238 206 3 0
110 -17 253 0
-50 175 -19 0
74 -33 -220 0
-217 94 -125 0
249 192 131 0
-25 272 -114 0
50 14 -12 0
-251 -196 -38 0
53 -51 -203 0
264 -161 119 0
-147 135 38 0
231 -203 186 0
13 -108 -238 0
18 202 -163 0
-199 -60 144 0
208 43 -252 0
88 61 121 0
-44 -93 247 0
224 228 154 0
106 -182 219 0
214 -219 -189 0
-267 -35 -58 0
256 -135 133 0
106 207 -19 0
-239 114 109 0
147 8 125 0
156 126 -262 0
220 34 -158 0
-247 128 33 0
234 132 -271 0
45 -189 96 0
-176 40 195 0
157 -128 -58 0
1 213 -228 0
160 -209 -5 0
-31 -127 -274 0
-258 155 -82 0
242 -214 -69 0
-268 -55 -139 0
8 -75 -33 0
87 238 -121 0
-79 133 170 0
-135 231 269 0
-228 243 74 0
188 -50 159 0
-63 -232 -206 0
107 28 -35 0
270 -172 -20 0
273 196 38 0
-17 16 259 0
-208 -102 235 0
-92 -177 -169 0
228 257 8 0
-250 -123 -230 0
171 107 227 0
-160 -131 253 0
-74 -88 -119 0
-135 230 185 0
59 -36 205 0
29 -113 217 0
113 -90 58 0
82 275 158 0
20 -209 100 0
107 139 -143 0
172 -192 -113 0
156 -40 244 0
235 -264 -83 0
-109 -47 174 0
-132 20 -226 0
-265 -12 188 0
90 -21 -259 0
53 -224 -102 0
-212 206 228 0
-16 146 139 0
-22 116 -260 0
-168 -121 -275 0
-34 68 -252 0
-36 -236 229 0
163 104 124 0
172 263 -265 0
117 -237 -136 0
224 -73 -246 0
54 177 -134 0
83 188 -78 0
-135 -56 -16 0
-54 -196 198 0
-200 74 230 0
25 -75 139 0
201 13 241 0
-264 204 -51 0
-126 260 -53 0
-53 117 -47 0
212 -13 -105 0
-16 9 235 0
-195 238 123 0
-179 190 -178 0
-185 -136 -249 0
64 193 192 0
162 -32 78 0
102 -76 84 0
-40 -16 -57 0
-114 80 132 0
-261 144 -189 0
112 1 -22 0
-129 102 56 0
127 51 35 0
-253 -1 -183 0
-108 114 -78 0
-207 205 163 0
-164 -146 -143 0
-270 50 -43 0
218 -258 -274 0
145 -38 58 0
4 152 40 0
61 106 -146 0
11 -12 207 0
244 122 -99 0
-242 -244 175 0
85 -205 -206 0
-239 -176 185 0
-266 221 -179 0
-139 23 176 0
-35 181 -90 0
-220 -227 -129 0
80 5 -211 0
1 -230 -156 0
67 -168 -47 0
272 -42 225 0
-201 114 -259 0
72 226 -55 0
-106 -239 -255 0
-199 -170 -209 0
-11 247 198 0
76 -200 131 0
-161 -229 -269 0
-135 126 -23 0
-66 -106 247 0
222 -184 70 0
-38 -208 -29 0
-207 -72 -212 0
244 161 194 0
183 65 169 0
-193 68 -33 0
229 -62 -148 0
-163 -188 -159 0
-275 -9 -239 0
126 67 -254 0
-243 -135 -198 0
-3 259 236 0
-25 -55 -242 0
-62 -42 -132 0
-218 -142 -15 0
-99 -82 249 0
-249 275 -162 0
-221 -274 119 0
129 -112 54 0
-30 61 -22 0
-45 202 -76 0
-205 -190 -267 0
267 79 -124 0
87 123 169 0
116 175 -2 0
221 228 -51 0
38 -154 -45 0
196 -77 -172 0
69 -270 201 0
191 -263 81 0
-135 -206 -95 0
-68 -228 -27 0
-64 26 237 0
126 216 12 0
-214 -245 78 0
167 7 -51 0
-29 -157 -141 0
-228 4 194 0
-44 -175 21 0
93 -60 -182 0
79 -179 -41 0
-56 -155 -218 0
97 207 -72 0
-87 -126 239 0
160 95 238 0
128 116 78 0
243 64 -203 0
-263 -196 200 0
105 -81 -237 0
176 56 192 0
114 191 -187 0
219 -204 -258 0
76 260 253 0
-26 -84 -274 0
-87 -266 -27 0
253 -42 -34 0
146 93 -212 0
222 -182 231 0
-196 -221 239 0
228 215 -60 0
61 -5 -128 0
153 -29 -51 0
-114 40 269 0
-73 -267 159 0
-153 -45 -230 0
-110 -126 -240 0
-98 -140 -119 0
-137 130 -81 0
-69 -143 -174 0
-214 -70 118 0
120 -209 225 0
-46 86 112 0
-264 -173 -118 0
131 -222 -37 0
26 273 -266 0
-242 -67 -38 0
246 10 158 0
-129 -204 -181 0
91 265 -193 0
63 -13 6 0
246 159 119 0
43 239 -229 0
23 -71 99 0
47 13 -62 0
72 -18 144 0
-21 -258 -271 0
166 -258 60 0
-71 53 -50 0
-88 130 -189 0
147 -13 -54 0
-58 18 -37 0
-259 271 233 0
226 -152 -256 0
-175 5 -74 0
1 98 228 0
181 137 150 0
251 44 -97 0
-146 -155 -118 0
194 -177 185 0
-184 -28 89 0
-108 238 48 0
57 -204 -117 0
68 -30 -185 0
143 204 273 0
53 116 212 0
67 135 -63 0
78 46 -8 0
212 269 109 0
-106 -39 -121 0
-46 -240 -27 0
-226 245 13 0
172 -180 -193 0
136 124 38 0
224 195 103 0
45 212 47 0
69 -82 28 0
13 -140 114 0
-153 265 39 0
-108 -11 174 0
222 -21 -234 0
39 -108 23 0
259 -53 199 0
96 13 -164 0
-112 118 133 0
-53 -209 2 0
268 211 271 0
43 122 123 0
-141 -179 -247 0
-128 -79 -258 0
205 107 -19 0
-150 56 -272 0
-52 29 154 0
-5 -1 -262 0
74 218 -87 0
-189 -213 54 0
275 4 -258 0
67 124 111 0
117 -180 -201 0
-155 205 -32 0
-263 207 9 0
54 2 -40 0
-127 128 162 0
10 270 -84 0
158 -148 130 0
16 119 66 0
-14 -243 -271 0
8 206 -118 0
226 -250 -8 0
-257 192 176 0
-78 -178 61 0
79 267 199 0
42 240 -94 0
22 -123 -18 0
-199 121 -67 0
143 243 260 0
-105 92 142 0
76 13 44 0
162 108 177 0
-70 204 21 0
267 150 218 0
166 -206 249 0
43 273 108 0
-29 146 64 0
54 43 -167 0
-268 189 126 0
-91 -114 -171 0
-33 50 -195 0
107 -9 -93 0
-32 189 -83 0
-24 101 108 0
-145 -141 -133 0
-101 262 -268 0
-77 -129 -46 0
-6 49 269 0
196 51 -240 0
-246 18 -70 0
-64 90 108 0
-115 88 200 0
269 -61 -168 0
173 77 -97 0
-216 -198 55 0
141 159 51 0
-126 131 53 0
263 -270 -100 0
55 253 -123 0
-102 120 201 0
201 42 -153 0
-129 -15 121 0
-238 53 -257 0
-26 -209 -227 0
255 178 42 0
198 72 73 0
-230 264 -180 0
-173 -85 -101 0
-87 -266 -114 0
-45 167 -2 0
-83 113 40 0
208 -270 -154 0
-89 -30 -7 0
152 118 47 0
-129 -108 160 0
-221 -164 219 0
-33 -254 -19 0
16 -10 -64 0
-154 255 262 0
133 -189 104 0
47 -138 -275 0
-119 -243 135 0
241 -5 252 0
-186 9 -266 0
176 -149 -240 0
211 197 118 0
-233 270 177 0
120 25 -233 0
-23 -18 168 0
-112 -24 -7 0
72 110 -92 0
40 -155 -133 0
-211 -230 -28 0
79 236 122 0
132 208 44 0
-268 212 -95 0
-101 202 164 0
-126 -77 251 0
149 -221 -18 0
253 102 209 0
29 -235 6 0
108 -247 -151 0
-86 189 205 0
-14 116 -188 0
58 -87 -175 0
117 18 -15 0
45 21 -135 0
-232 -201 126 0
15 174 30 0
-163 230 272 0
38 82 -117 0
137 -15 224 0
64 -230 150 0
-215 155 231 0
-54 -141 -156 0
258 -21 129 0
-169 -79 -158 0
-270 151 202 0
-190 -121 -82 0
42 -261 -76 0
146 226 185 0
82 -147 67 0
-182 72 -123 0
-146 -185 200 0
-68 -39 -163 0
177 -69 -14 0
-257 -110 -61 0
-272 74 250 0
141 -197 -54 0
-69 -215 -201 0
105 -118 185 0
146 -151 26 0
127 -219 239 0
-46 -137 -7 0
-218 -235 -250 0
-149 55 -274 0
6 -22 101 0
-169 -263 -115 0
-270 67 70 0
-272 174 -75 0
-245 -235 -104 0
154 164 17 0
-135 119 74 0
-124 -155 -29 0
-223 -118 -17 0
-180 -117 -15 0
63 65 -30 0
243 -211 121 0
-64 -159 175 0
103 19 -154 0
191 -20 -177 0
-97 246 124 0
57 169 265 0
-190 -261 152 0
-96 80 162 0
58 -162 6 0
-120 66 11 0
-148 -243 253 0
-111 41 -217 0
-71 -68 196 0
170 110 243 0
-2 261 -32 0
-92 223 -205 0
-137 214 249 0
-45 5 -87 0
-77 -45 243 0
-251 241 193 0
7 155 -237 0
69 200 44 0
161 173 48 0
-12 256 -159 0
83 116 -253 0
-147 189 51 0
19 -93 -159 0
247 8 240 0
-147 -161 -171 0
250 82 268 0
-25 -5 217 0
171 -268 -140 0
-95 -67 -130 0
25 248 230 0
53 203 136 0
106 70 52 0
115 -262 65 0
-137 46 -23 0
-103 264 168 0
-217 2 165 0
-187 168 250 0
159 -249 144 0
-262 86 144 0
-258 -161 24 0
-188 -196 78 0
-52 121 184 0
146 -23 22 0
-19 -193 5 0
89 -241 149 0
-211 -140 -93 0
-161 -224 -260 0
269 52 19 0
-245 -146 -97 0
-257 -223 -200 0
-103 250 -110 0
-58 90 35 0
78 -62 186 0
-37 -249 102 0
-262 -155 128 0
186 50 164 0
-201 245 123 0
-10 52 -154 0
-35 -155 -275 0
-127 -202 -139 0
-36 251 228 0
-168 -272 60 0
216 -215 -104 0
-108 -198 -84 0
142 173 -218 0
-226 -173 148 0
-195 -163 105 0
-192 -222 243 0
-37 17 -168 0
-15 219 -135 0
230 144 32 0
-14 -243 12 0
-118 -179 111 0
256 250 58 0
61 -212 223 0
149 29 -71 0
120 -171 159 0
165 53 -187 0
-26 228 170 0
-34 88 143 0
141 -114 -72 0
169 -99 267 0
42 -217 -178 0
164 245 16 0
-15 -160 -190 0
250 -112 -53 0
-179 -108 119 0
