p cnf 275 1171
172 174 -165 0
138 44 -60 0
-236 -37 -107 0
114 58 52 0
20 -146 213 0
216 187 -9 0
-166 -183 85 0
-92 -83 -191 0
80 -110 -23 0
-119 145 74 0
-86 -32 -17 0
-104 8 -197 0
-124 -34 103 0
-172 91 267 0
-62 107 113 0
-77 39 -176 0
-23 -150 179 0
-251 -112 25 0
-71 156 194 0
-153 -255 -208 0
263 -91 14 0
-178 -224 -5 0
7 99 -257 0
74 3 82 0
58 -157 215 0
215 -93 -84 0
163 26 1 0
100 -28 214 0
-207 -141 -116 0
-267 84 165 0
206 161 126 0
-192 -69 22 0
-12 -203 1 0
-162 -56 -266 0
36 -157 171 0
251 -25 -194 0
-31 -94 236 0
-110 154 -74 0
89 1 109 0
-115 -91 144 0
236 239 -34 0
-44 63 67 0
-5 30 -216 0
-26 94 -19 0
-56 -194 -61 0
-151 137 -240 0
-64 -217 70 0
-178 127 -30 0
191 -236 234 0
-170 49 -12 0
149 -45 38 0
154 -94 109 0
-23 187 -40 0
-12 -129 -25 0
-41 224 217 0
-42 -154 64 0
-213 -18 272 0
-269 79 -1 0
17 66 -155 0
183 176 219 0
142 47 -88 0
185 10 140 0
263 265 185 0
244 150 -257 0
-272 36 -24 0
-33 -122 255 0
-1 -55 -135 0
91 178 -51 0
-214 -174 -107 0
71 273 252 0
272 87 54 0
-131 -204 -30 0
104 -171 71 0
38 221 214 0
-66 -8 73 0
35 242 204 0
-156 88 119 0
-114 210 -246 0
-227 -168 218 0
-224 -275 174 0
4 -152 257 0
-221 -241 -48 0
38 -266 12 0
223 38 141 0
-216 -36 -127 0
203 96 6 0
-178 6 232 0
57 135 -265 0
206 -270 -54 0
-142 108 9 0
20 140 226 0
27 -183 -23 0
-156 -22 -197 0
-136 206 200 0
190 -57 -207 0
-215 143 119 0
-121 -149 -109 0
260 -59 106 0
-239 236 14 0
168 36 -127 0
-224 128 58 0
-41 59 79 0
66 22 -225 0
29 -83 61 0
-192 186 233 0
-139 133 -204 0
66 11 -148 0
-87 -119 -69 0
168 -55 122 0
-222 231 236 0
-41 -114 -133 0
-29 166 -155 0
229 59 -70 0
-6 -115 -10 0
-18 142 -275 0
-110 -95 47 0
84 12 59 0
-125 -123 80 0
-63 17 273 0
227 180 -20 0
-46 -114 -142 0
170 91 -80 0
-138 -264 33 0
-133 100 -243 0
64 229 271 0
-96 187 201 0
-63 -143 257 0
-186 -96 -155 0
153 -80 30 0
153 47 -38 0
8 227 271 0
149 -141 113 0
-230 -242 -137 0
154 -122 216 0
131 -65 -119 0
138 200 161 0
-233 -157 -73 0
159 95 -117 0
142 204 200 0
230 155 114 0
-217 155 -114 0
-81 -239 1 0
-30 137 11 0
239 114 221 0
122 269 114 0
-193 91 153 0
29 -165 260 0
-207 246 -261 0
58 -252 49 0
139 238 -222 0
-257 161 253 0
-33 4 -25 0
214 -72 174 0
264 -255 28 0
252 182 184 0
-146 -14 186 0
57 -103 -5 0
-248 -129 -136 0
6 -96 -198 0
32 4 87 0
-15 64 -227 0
-39 -51 -100 0
-256 -154 -105 0
-193 -92 -169 0
-76 -100 4 0
-124 -128 49 0
259 149 62 0
157 9 233 0
-196 48 -141 0
-47 -223 214 0
-164 102 -269 0
165 -47 52 0
238 111 -162 0
-46 -32 157 0
39 107 68 0
261 175 -114 0
-252 -204 42 0
-265 208 -43 0
-101 152 119 0
57 124 176 0
-220 207 62 0
-203 179 -84 0
151 106 268 0
180 -226 11 0
53 -117 -57 0
169 94 179 0
-21 137 -7 0
-174 39 -126 0
80 -13 4 0
-85 -230 83 0
-99 -66 -156 0
-226 -248 -138 0
-225 -42 -79 0
-176 49 -151 0
-86 -191 185 0
183 5 -209 0
226 146 137 0
60 -85 164 0
-166 239 204 0
105 -57 75 0
-159 -263 -154 0
25 193 -151 0
-166 -144 -159 0
-231 43 -80 0
164 156 80 0
-20 191 40 0
128 -85 171 0
-158 -28 -195 0
-20 12 38 0
-158 247 74 0
54 167 -268 0
-46 -265 -139 0
259 -177 126 0
62 -188 104 0
-45 -185 225 0
-253 -228 -50 0
-159 -219 -152 0
-191 3 167 0
-225 -40 -166 0
214 -61 38 0
-164 246 67 0
66 -126 -31 0
-249 -260 151 0
-169 -64 -186 0
39 -8 129 0
157 -259 222 0
27 73 192 0
85 -260 -216 0
-143 208 106 0
245 57 260 0
-55 -272 183 0
160 -200 -245 0
-275 -95 -192 0
65 96 -73 0
-2 -33 -43 0
-84 70 -176 0
-135 71 131 0
13 -14 -73 0
-136 32 -137 0
262 -210 -246 0
-259 -209 -141 0
195 -4 37 0
-51 -129 -58 0
204 201 45 0
131 -268 7 0
-192 65 227 0
190 -240 -155 0
-142 -261 137 0
-25 100 -14 0
125 70 193 0
216 82 -86 0
-253 -145 114 0
-207 -39 49 0
-211 19 150 0
-172 155 -150 0
-167 -69 25 0
-78 225 28 0
-132 -207 231 0
-207 64 233 0
72 -247 119 0
-193 260 -55 0
44 248 72 0
-195 -211 16 0
-125 -115 251 0
174 -252 212 0
140 -179 -70 0
208 -241 -144 0
-240 139 54 0
92 -126 80 0
43 21 257 0
85 -153 -24 0
-10 37 116 0
-223 -135 -79 0
93 -108 192 0
113 -244 -34 0
226 23 -108 0
-136 272 254 0
-271 197 237 0
113 154 -148 0
-262 -188 -171 0
204 -128 272 0
-28 -86 -31 0
-75 -178 -264 0
-160 -23 -36 0
-53 -244 251 0
-145 105 -207 0
196 165 -239 0
240 64 128 0
81 25 -59 0
-6 53 100 0
111 245 -268 0
-189 -137 200 0
71 268 192 0
107 55 -221 0
224 -235 -159 0
186 85 -256 0
224 29 -216 0
79 -192 -115 0
109 173 -72 0
252 -215 -41 0
-158 165 50 0
113 -262 218 0
11 207 170 0
-247 -112 27 0
-275 258 54 0
30 32 222 0
-76 -188 189 0
122 -103 -32 0
55 -200 -77 0
-81 -245 -68 0
-240 136 118 0
70 -245 -91 0
118 -3 -7 0
-208 146 -170 0
249 150 79 0
-205 -143 252 0
-270 -68 23 0
86 -160 -32 0
-231 -144 -90 0
189 17 43 0
-4 23 241 0
-151 218 -208 0
-89 86 231 0
28 -81 143 0
189 -55 -157 0
22 8 -254 0
-91 -156 -9 0
-200 2 197 0
-148 -269 10 0
-189 112 -248 0
152 -117 167 0
-66 -32 -55 0
-56 -204 -32 0
9 -46 93 0
194 126 -118 0
110 -33 46 0
-194 272 193 0
150 -77 -221 0
111 143 -40 0
-16 -194 95 0
-218 -229 -197 0
49 -246 77 0
51 230 -12 0
-65 -115 98 0
102 5 -208 0
-41 275 -161 0
12 -140 -171 0
73 -38 168 0
-138 214 105 0
126 228 80 0
-81 20 -156 0
21 150 131 0
-25 37 -6 0
178 -58 176 0
203 271 209 0
-140 -274 258 0
217 49 -34 0
72 -229 -85 0
-125 -59 -265 0
244 126 -236 0
-29 203 86 0
-5 246 203 0
254 -125 -95 0
-138 -238 154 0
206 -126 -10 0
-24 -247 -109 0
215 265 32 0
197 132 10 0
-42 3 -109 0
-241 194 -117 0
-110 68 196 0
264 -183 211 0
107 -188 246 0
-178 -99 -275 0
-138 85 -5 0
-125 105 -238 0
224 -185 -168 0
-183 -98 197 0
-57 69 -76 0
6 255 -52 0
11 -45 -162 0
171 161 -5 0
-232 168 -34 0
-177 -39 74 0
256 158 -270 0
104 -175 207 0
49 85 137 0
-258 -191 224 0
189 167 -17 0
-152 186 27 0
-77 90 161 0
193 137 79 0
102 -67 75 0
-235 -178 57 0
92 183 198 0
-259 -72 240 0
217 -54 197 0
69 84 -36 0
49 -242 -194 0
-180 -262 64 0
7 29 168 0
-147 260 -261 0
247 -248 -231 0
99 -245 9 0
-33 224 107 0
82 118 227 0
-261 -223 -133 0
121 208 -23 0
5 -161 -122 0
65 144 -209 0
202 250 -12 0
-85 -109 110 0
184 -29 71 0
-182 -165 -272 0
245 -41 131 0
-194 236 169 0
-117 -50 -26 0
237 156 -210 0
215 220 65 0
265 -120 52 0
-71 212 4 0
-155 -98 -185 0
101 40 232 0
141 -248 257 0
113 54 198 0
119 -219 216 0
228 -124 -21 0
179 -29 -15 0
-61 -194 -264 0
126 -145 -37 0
249 115 200 0
150 106 -242 0
-19 233 -27 0
95 166 9 0
-17 109 132 0
245 -73 -210 0
9 -80 204 0
80 167 -192 0
77 -49 -35 0
59 -76 -187 0
-146 -265 -201 0
-185 159 191 0
-6 -114 -217 0
-134 -188 260 0
149 -191 239 0
-268 -47 140 0
15 228 -63 0
-136 -257 143 0
-168 -147 -150 0
-274 -169 19 0
43 -173 56 0
225 -247 -122 0
244 212 145 0
-254 29 74 0
-209 -269 72 0
111 195 3 0
-80 -272 -220 0
-151 221 -241 0
-28 116 80 0
268 217 -82 0
-113 93 29 0
152 -128 -174 0
218 55 -146 0
12 -146 103 0
-83 198 -264 0
23 37 -215 0
38 -252 154 0
188 120 50 0
-18 -72 -237 0
-187 -67 -30 0
252 -206 -188 0
-185 -152 -101 0
-126 235 -169 0
-151 -155 -190 0
-77 96 247 0
-12 83 -203 0
94 -97 200 0
55 243 26 0
-94 -170 -29 0
-63 11 86 0
187 -263 -157 0
259 -206 -121 0
-111 -83 -193 0
69 -227 54 0
-162 -13 137 0
-12 -214 133 0
-244 143 -179 0
38 182 237 0
-207 -260 66 0
181 219 88 0
-220 -158 -202 0
13 -162 253 0
206 -129 -125 0
87 -193 -36 0
169 -86 167 0
-263 48 257 0
-50 120 -236 0
270 -208 192 0
-34 81 149 0
235 69 -141 0
125 174 18 0
249 -63 170 0
27 21 24 0
38 73 167 0
-68 154 -170 0
201 -71 161 0
-43 136 -53 0
34 119 -85 0
-264 -168 148 0
-32 -102 -261 0
-53 186 142 0
219 -205 130 0
206 -176 112 0
-199 197 -35 0
190 -243 -101 0
-121 -186 163 0
-115 -244 -1 0
30 228 -116 0
165 -20 -13 0
224 -80 -40 0
-260 -5 -247 0
57 253 190 0
81 56 248 0
239 -146 -90 0
-82 228 -144 0
-216 -61 -138 0
70 -255 -96 0
-8 -206 107 0
-266 -88 -35 0
192 55 -249 0
17 -178 14 0
-157 94 134 0
-258 -50 -114 0
-75 -203 -125 0
211 255 10 0
3 166 170 0
65 84 -98 0
-254 -191 -207 0
16 -174 15 0
96 -244 36 0
-51 -4 -55 0
-8 -143 187 0
57 -117 156 0
141 -216 198 0
153 62 -164 0
-1 100 -51 0
69 251 170 0
-125 180 -162 0
-133 -134 -67 0
-129 -26 -136 0
50 -108 -105 0
107 -67 -16 0
103 34 95 0
151 223 -51 0
-170 254 -141 0
114 -223 13 0
16 88 -101 0
244 -105 -1 0
21 193 130 0
217 18 7 0
-241 -195 -98 0
14 -35 89 0
36 -256 -169 0
-14 -12 -132 0
-272 69 72 0
167 76 -98 0
41 22 -156 0
47 228 -134 0
7 -231 -224 0
133 -187 206 0
156 -224 -264 0
-148 266 65 0
195 -29 216 0
-102 -146 91 0
-234 98 -226 0
-265 -202 -123 0
195 -119 -61 0
-24 -149 155 0
-172 -148 -164 0
48 -245 130 0
271 107 262 0
-49 -164 39 0
-223 -204 -97 0
22 -108 245 0
9 238 211 0
275 -81 59 0
-111 239 243 0
269 -267 -206 0
61 -29 174 0
-116 -48 -29 0
-138 20 -43 0
49 85 -71 0
27 70 236 0
-9 210 -186 0
230 -125 121 0
-171 -116 213 0
-164 -184 193 0
-57 130 146 0
-237 -241 123 0
135 19 194 0
114 166 -49 0
173 -243 -262 0
-97 -125 263 0
37 -136 40 0
-193 41 -42 0
175 -54 64 0
-182 218 -100 0
-227 187 51 0
46 -253 -61 0
155 -223 -2 0
261 -153 -222 0
-229 -41 224 0
-246 -67 13 0
-213 119 260 0
161 -8 156 0
-211 -242 143 0
172 -178 237 0
-63 -196 -163 0
-142 149 177 0
238 181 261 0
233 56 -169 0
66 40 251 0
-76 -198 81 0
139 -213 138 0
113 -239 195 0
-186 87 88 0
194 204 -220 0
30 -175 88 0
133 161 231 0
50 -212 -124 0
-13 141 -38 0
86 -271 114 0
-129 -71 -28 0
6 -204 -232 0
-267 32 -177 0
217 -236 -20 0
142 -190 -108 0
7 173 245 0
-224 87 75 0
275 121 -194 0
241 -119 212 0
-46 -200 -12 0
-273 -236 -174 0
-242 138 -126 0
99 238 125 0
230 110 65 0
55 -35 -224 0
-48 -84 -104 0
197 -28 58 0
53 -219 -50 0
-272 -29 -101 0
90 192 140 0
-83 -85 -53 0
-261 262 225 0
-267 -258 174 0
243 -265 1 0
181 -56 -269 0
-256 232 -128 0
252 107 190 0
-36 192 -48 0
-95 143 -151 0
-212 186 -66 0
-33 90 -196 0
-257 -212 -174 0
-128 231 166 0
72 180 -109 0
-255 -2 -96 0
-209 -217 -176 0
-251 -272 233 0
85 175 -168 0
83 203 -248 0
-86 130 -76 0
116 179 2 0
-3 -117 -90 0
227 -182 127 0
-162 -99 107 0
104 118 -135 0
87 167 -182 0
174 -75 17 0
-114 125 -150 0
-73 157 132 0
92 -56 -124 0
-111 -230 -99 0
-48 -32 251 0
17 -202 108 0
-210 -58 271 0
-126 180 -178 0
92 -228 -151 0
-147 -162 -84 0
-126 -45 3 0
273 40 71 0
164 218 -225 0
-229 173 -69 0
-32 253 -44 0
-124 233 19 0
155 208 237 0
258 -103 250 0
-8 89 -38 0
-251 -261 161 0
-49 63 -10 0
76 272 106 0
72 138 161 0
-260 176 37 0
157 -53 156 0
-217 -244 -135 0
-167 -207 -32 0
120 246 24 0
-18 102 46 0
260 -59 55 0
-96 -33 -258 0
203 142 141 0
-268 -26 -239 0
257 -167 -246 0
47 38 165 0
204 -232 -242 0
-15 -266 175 0
51 13 -40 0
256 55 -205 0
227 -35 118 0
32 126 -60 0
237 -241 -113 0
-152 42 181 0
84 95 -234 0
-132 56 40 0
-36 -199 72 0
37 -144 -121 0
-89 -160 50 0
91 -203 -14 0
117 -14 -220 0
-55 90 47 0
-249 -149 262 0
-207 -272 195 0
-230 179 31 0
4 173 -189 0
-267 4 246 0
32 -145 246 0
-62 -6 -10 0
270 -47 34 0
-211 242 -262 0
-18 -102 147 0
-107 127 144 0
140 -132 195 0
-108 222 165 0
-83 -135 159 0
3 242 142 0
93 -200 -189 0
245 -222 -15 0
-202 -17 57 0
205 -225 198 0
-124 61 153 0
142 135 -90 0
-25 -232 177 0
11 -170 55 0
258 -35 149 0
234 -174 274 0
113 94 -258 0
187 -144 -112 0
175 -23 259 0
106 -235 116 0
234 237 -264 0
187 -251 263 0
29 95 -148 0
268 -252 -151 0
255 -53 137 0
265 -52 97 0
-24 -68 -260 0
241 242 -145 0
76 -57 172 0
-233 -46 -92 0
-42 -165 242 0
-91 152 11 0
243 -44 142 0
-134 100 205 0
33 -30 88 0
-193 -60 -51 0
-220 -66 82 0
-15 80 91 0
2 -170 -29 0
-250 85 112 0
210 -147 -163 0
-128 190 -212 0
206 116 63 0
-201 209 19 0
-270 75 -36 0
187 205 -274 0
252 -116 -108 0
-135 160 242 0
18 -200 263 0
-43 -120 107 0
58 -252 21 0
207 -79 -270 0
-96 -59 209 0
-169 -233 181 0
-21 65 -242 0
61 -222 -66 0
43 -167 -20 0
-121 128 96 0
-67 -143 -75 0
-154 101 -10 0
76 204 143 0
62 -27 -85 0
-105 -182 85 0
132 168 106 0
-269 -267 -14 0
-156 67 -193 0
-156 213 -151 0
10 5 -264 0
118 253 -166 0
234 53 13 0
-147 -118 -32 0
-251 107 87 0
71 -244 -169 0
194 -262 -239 0
6 211 21 0
261 10 -270 0
-212 90 274 0
81 -154 156 0
100 -140 99 0
30 -240 94 0
81 -70 20 0
174 216 -14 0
20 -42 -265 0
-273 -100 -6 0
-59 -145 -264 0
-161 -13 -77 0
236 114 110 0
237 -10 -192 0
7 16 -47 0
27 -191 24 0
-142 68 -51 0
-166 9 167 0
-253 63 -58 0
81 187 -160 0
-53 266 207 0
-165 -135 -252 0
265 102 -115 0
-131 -177 -155 0
1 163 -107 0
199 -63 -132 0
-15 59 38 0
214 102 -203 0
203 -222 148 0
-230 191 109 0
-1 -17 -210 0
-268 -214 53 0
-259 29 -100 0
190 -105 175 0
-114 -41 144 0
-130 -76 243 0
-197 -143 -232 0
86 160 236 0
114 -133 248 0
149 248 36 0
268 181 235 0
-72 -254 108 0
10 96 40 0
-113 -46 213 0
101 -28 -92 0
-58 -78 163 0
-220 205 -182 0
97 -260 -38 0
-78 -239 -235 0
-214 -198 -169 0
108 93 113 0
-116 -150 248 0
135 78 -51 0
-145 43 -40 0
214 229 265 0
183 -74 23 0
-130 -172 -197 0
94 -270 -180 0
-69 -275 -264 0
237 -180 118 0
238 -115 194 0
-240 -155 -249 0
-41 104 -51 0
-256 -113 210 0
165 -82 -152 0
202 -169 -84 0
-145 -167 247 0
107 -248 57 0
34 -18 3 0
254 20 -271 0
-225 -76 -146 0
-192 261 -275 0
76 115 -150 0
162 -223 176 0
118 -38 -266 0
-241 142 -146 0
233 131 -75 0
-80 6 87 0
133 1 -74 0
-270 160 65 0
209 41 89 0
-113 16 -231 0
36 83 -122 0
-146 -80 259 0
-84 -89 -145 0
125 43 -27 0
-78 -75 103 0
-257 88 -130 0
-79 116 244 0
-155 256 -150 0
-11 -110 -152 0
-67 -26 231 0
247 94 -33 0
-180 24 -116 0
32 -141 -54 0
111 174 6 0
9 1 67 0
4 -155 -38 0
259 -173 272 0
138 -182 178 0
58 -172 73 0
91 -29 -174 0
-268 -69 161 0
227 -78 -165 0
-106 -25 -203 0
155 21 -208 0
27 -83 -226 0
-58 -91 248 0
252 -104 -88 0
79 -136 -234 0
163 105 -258 0
-148 -109 -66 0
-206 168 131 0
-202 -141 -17 0
133 -7 48 0
248 233 162 0
243 -75 256 0
-76 122 -134 0
-20 211 106 0
149 -172 -47 0
161 -118 -272 0
20 -200 -14 0
231 40 -149 0
84 -37 200 0
200 -137 103 0
12 -190 -136 0
-94 -131 -255 0
165 -254 111 0
69 27 266 0
-256 66 222 0
-83 -197 -119 0
-242 -22 30 0
95 -90 -224 0
69 234 -274 0
89 -137 240 0
-63 218 -196 0
144 -118 235 0
-205 250 -79 0
225 -171 -263 0
234 58 173 0
135 274 -259 0
-140 274 135 0
48 -269 -102 0
149 166 258 0
-242 214 -249 0
-199 4 30 0
236 -59 -63 0
-72 212 -83 0
-242 19 56 0
131 87 -176 0
-201 153 54 0
94 -106 -71 0
-235 192 -99 0
100 -186 113 0
-168 216 67 0
213 224 -243 0
-116 78 -267 0
83 -174 64 0
-40 -81 -192 0
94 180 186 0
-213 233 260 0
21 46 1 0
77 42 -38 0
56 -241 -193 0
-274 165 -10 0
1 -42 69 0
187 227 -96 0
221 213 -119 0
179 251 153 0
-57 -7 -148 0
-240 -176 274 0
-159 -2 204 0
243 -190 -130 0
-90 109 126 0
87 -253 5 0
126 233 -15 0
-121 187 -109 0
203 45 -196 0
212 215 -76 0
-109 -265 93 0
269 184 223 0
99 4 -275 0
28 104 -218 0
-242 -112 131 0
-138 -117 -170 0
-146 226 -121 0
-75 272 -143 0
193 -194 129 0
72 213 248 0
-111 256 87 0
81 -79 -121 0
-223 227 -83 0
-95 -73 203 0
-249 -128 -96 0
-257 264 173 0
-89 -29 -87 0
143 -147 25 0
-217 -119 253 0
3 63 257 0
-209 122 -68 0
218 231 4 0
232 131 249 0
-254 176 -89 0
-1 -161 -54 0
191 -246 132 0
274 158 56 0
267 99 218 0
179 -240 -206 0
203 234 -190 0
154 47 -254 0
156 263 224 0
-181 269 42 0
67 230 255 0
-266 87 -187 0
-175 75 24 0
135 185 -57 0
66 -32 152 0
-39 -115 197 0
230 136 -55 0
207 48 77 0
-122 200 -88 0
161 -53 -207 0
2 151 -139 0
-143 -193 18 0
-101 -132 257 0
237 84 125 0
-121 -17 -257 0
197 186 82 0
6 -231 154 0
56 271 234 0
172 175 128 0
25 -80 -95 0
-246 200 136 0
-254 -13 210 0
-97 92 57 0
226 259 -62 0
81 199 -150 0
83 -152 151 0
239 18 153 0
-76 222 73 0
-174 -176 -104 0
239 -130 257 0
68 -84 -152 0
135 -233 -199 0
44 -233 216 0
88 219 -203 0
267 222 -88 0
28 -158 -3 0
36 89 -26 0
-258 -67 -242 0
-130 -53 28 0
-58 -159 -98 0
-272 -139 -185 0
229 166 -137 0
241 -250 -27 0
-217 87 -191 0
50 -16 -89 0
-149 163 238 0
-79 99 -229 0
205 245 134 0
85 -44 -16 0
78 65 -50 0
-137 247 68 0
104 220 -2 0
38 231 35 0
27 214 34 0
167 -15 -149 0
-246 -79 181 0
-136 -194 253 0
79 23 -217 0
264 65 -64 0
252 168 53 0
-154 149 -54 0
246 -172 -61 0
-118 100 262 0
86 235 -148 0
-74 191 105 0
-231 139 -150 0
73 -229 -212 0
-240 150 5 0
172 -90 68 0
-170 165 -86 0
-42 6 -34 0
-165 -227 104 0
-65 -46 -58 0
10 -143 147 0
156 95 -131 0
-38 30 -51 0
114 -63 -28 0
-182 -119 194 0
-274 -197 -165 0
15 31 40 0
223 -107 -23 0
263 86 -109 0
-106 211 199 0
-54 165 184 0
-69 -187 205 0
264 197 -236 0
162 -165 81 0
69 -157 159 0
270 -260 -136 0
-184 218 93 0
65 -153 -12 0
62 -229 207 0
-157 247 112 0
230 21 -62 0
-20 -235 -100 0
-121 118 -3 0
-30 227 -69 0
222 -251 92 0
-102 208 196 0
-168 -259 150 0
-64 -156 -61 0
-55 -66 -132 0
145 -28 130 0
-63 202 -223 0
144 -239 -127 0
218 108 -51 0
-29 32 236 0
-8 120 99 0
145 -165 -152 0
82 209 91 0
-215 205 -161 0
-53 -16 62 0
170 250 -242 0
-97 -274 -192 0
166 -168 -74 0
-49 222 -90 0
-230 -43 -82 0
-105 -228 -257 0
-233 178 -209 0
-104 -202 116 0
-203 97 -142 0
269 133 -34 0
-203 -12 -25 0
-189 106 -116 0
-85 -164 179 0
76 250 -240 0
-43 271 265 0
-224 -97 -221 0
124 131 -195 0
-240 124 -146 0
89 266 103 0
48 5 -131 0
36 -168 -243 0
-254 -34 -166 0
-272 34 -19 0
-115 -91 51 0
221 95 138 0
-190 -182 -136 0
-118 115 -189 0
-128 -15 75 0
261 -136 245 0
-191 134 86 0
271 147 260 0
-216 195 43 0
-196 258 -5 0
218 -25 -109 0
