p cnf 275 1171
251 50 -102 0
-247 -43 -192 0
212 65 209 0
-74 106 180 0
6 -184 -54 0
-221 232 -51 0
19 141 272 0
117 84 120 0
136 171 196 0
-29 -10 -109 0
-71 -233 -249 0
117 -272 -175 0
-168 143 270 0
17 -255 -264 0
14 -81 -76 0
-95 111 -12 0
43 190 189 0
27 -58 206 0
-233 -263 146 0
-165 117 -92 0
37 -103 -161 0
117 141 236 0
-265 -187 33 0
-266 159 -34 0
82 -275 -174 0
-145 -270 76 0
-220 -148 62 0
-244 170 132 0
22 146 32 0
-33 -23 230 0
24 191 -190 0
264 99 -78 0
52 58 -33 0
11 -32 106 0
47 -82 177 0
94 -201 35 0
235 -72 153 0
-199 30 -178 0
1 232 171 0
257 2 -143 0
-59 -190 208 0
-177 -14 196 0
-126 105 -160 0
136 -79 -42 0
85 -120 131 0
-25 -71 3 0
-114 -243 152 0
201 262 -24 0
101 108 -106 0
-28 92 104 0
112 -15 216 0
87 21 44 0
268 -32 199 0
-80 -101 -2 0
-68 37 -81 0
-114 -89 246 0
-80 -41 262 0
137 159 -76 0
240 -118 264 0
-171 -150 56 0
-221 249 -111 0
148 -22 -117 0
63 174 26 0
-65 260 253 0
154 -30 162 0
-47 -220 91 0
6 190 30 0
-91 -148 -107 0
-47 44 19 0
-209 225 237 0
153 -106 -37 0
165 226 -56 0
151 212 72 0
110 1 -161 0
139 -8 -243 0
-236 -153 -195 0
-272 111 -86 0
30 81 -136 0
-4 86 -170 0
-157 263 -85 0
257 -181 -73 0
-189 160 52 0
-23 204 189 0
43 -245 34 0
34 266 -240 0
73 197 -255 0
-96 -265 19 0
-212 231 -190 0
232 -99 -88 0
268 51 -211 0
-120 237 -41 0
-246 -74 45 0
151 -45 -252 0
228 35 133 0
231 88 -78 0
18 248 -212 0
32 -168 -101 0
204 60 -56 0
-242 -173 -43 0
50 -34 -96 0
149 226 -9 0
122 268 57 0
-212 154 -13 0
-41 241 -12 0
107 -17 -5 0
85 -6 106 0
-244 -213 91 0
-258 -221 -154 0
-245 -36 -58 0
152 -17 -105 0
-272 -179 -36 0
-255 -268 -37 0
65 -171 -157 0
-65 57 -92 0
-42 231 110 0
106 -191 60 0
-262 211 228 0
120 164 47 0
176 -41 271 0
174 -90 110 0
273 -55 -153 0
77 183 -220 0
-250 195 -67 0
-21 110 208 0
-8 -136 -175 0
-173 101 -133 0
-241 -44 191 0
-48 69 193 0
-146 -54 -167 0
5 238 40 0
230 -81 219 0
-182 53 -109 0
-185 197 220 0
-88 -58 169 0
185 208 -269 0
-172 -46 228 0
-186 142 213 0
-185 72 -218 0
106 -246 -71 0
-108 -238 -110 0
-243 60 239 0
-243 -176 -115 0
32 -272 -20 0
-199 39 239 0
-10 168 138 0
145 24 -176 0
7 54 -194 0
126 -171 -193 0
73 221 45 0
-9 -226 258 0
-30 32 -176 0
198 77 218 0
225 273 9 0
-32 -171 102 0
99 -24 253 0
-116 -205 -272 0
43 56 -264 0
-165 138 -25 0
-113 220 -123 0
-163 -83 56 0
-262 -198 215 0
15 -109 17 0
231 75 213 0
-232 -211 228 0
-222 172 -215 0
-124 -171 -91 0
-78 3 186 0
-114 -127 112 0
162 -107 -232 0
119 -114 224 0
-52 -256 45 0
54 189 219 0
266 97 258 0
205 249 -238 0
-214 -11 146 0
144 97 195 0
86 131 28 0
222 227 54 0
-212 -92 205 0
40 -97 171 0
141 116 -165 0
-35 235 -197 0
-200 38 65 0
178 -39 25 0
54 -3 -274 0
-254 -180 -69 0
21 -129 -230 0
-208 192 -218 0
-173 -55 -26 0
74 -13 225 0
260 259 188 0
241 213 -128 0
52 230 -212 0
-60 96 -40 0
-59 -269 -112 0
244 68 -84 0
-244 249 -150 0
-29 183 243 0
-171 -99 -154 0
255 -203 250 0
230 -228 119 0
-6 -183 273 0
124 221 -104 0
183 -148 47 0
227 62 -46 0
-260 174 266 0
-74 -81 69 0
185 -93 -258 0
-11 208 -184 0
-235 215 273 0
212 -55 -101 0
-130 -208 42 0
-149 -69 -156 0
-268 223 -173 0
177 -168 -267 0
-48 57 101 0
231 -241 65 0
242 270 -177 0
91 143 -222 0
226 195 216 0
-81 1 -167 0
-61 150 -268 0
-166 -100 -117 0
127 -226 231 0
9 -71 19 0
187 13 259 0
-33 -274 201 0
202 63 -102 0
65 -235 -106 0
-151 160 147 0
-72 45 -49 0
-71 -203 -110 0
-37 -273 107 0
-89 60 -133 0
-138 -217 -31 0
99 -32 213 0
-268 222 158 0
-4 167 -55 0
-170 -182 -139 0
-46 -267 274 0
-60 -74 25 0
133 -141 -142 0
189 -114 64 0
-222 -203 176 0
99 90 -253 0
60 -273 -262 0
18 200 -123 0
-60 -200 -164 0
223 11 86 0
189 79 -197 0
-66 45 76 0
172 26 -125 0
-245 -58 75 0
-17 -163 -28 0
19 -121 243 0
-190 -15 20 0
164 66 -195 0
268 -151 161 0
-173 -134 196 0
-69 75 -179 0
-30 243 261 0
171 273 216 0
233 -56 -115 0
-214 -157 259 0
-181 246 -216 0
275 -179 118 0
-133 -42 216 0
239 194 181 0
-49 175 -225 0
249 -77 -183 0
154 115 -14 0
-255 -20 -139 0
222 71 26 0
-66 -233 167 0
-126 221 60 0
-229 201 -256 0
117 -57 69 0
58 -239 -30 0
267 -263 -172 0
-99 43 15 0
-83 33 -100 0
-82 -104 -100 0
-203 151 136 0
-82 46 -270 0
227 -78 63 0
236 -53 -204 0
-58 2 -63 0
239 219 -194 0
116 231 -70 0
172 -227 130 0
94 -241 187 0
-75 -173 -261 0
-97 75 199 0
-44 235 83 0
83 -201 118 0
86 194 -230 0
123 -27 -275 0
228 -108 12 0
-255 -5 -45 0
57 -227 187 0
150 155 37 0
-179 -74 -11 0
-21 -181 132 0
-235 114 -218 0
-249 245 -52 0
137 -274 -159 0
-266 180 -231 0
73 -86 -122 0
-270 161 82 0
-263 -127 206 0
66 20 67 0
-148 143 -123 0
-215 -175 21 0
236 -24 -173 0
68 129 238 0
228 75 -184 0
79 153 51 0
240 -241 39 0
18 -161 -216 0
-33 -122 -212 0
223 122 -147 0
178 98 86 0
-198 254 -238 0
102 -262 -187 0
107 -128 207 0
-273 -211 -125 0
-192 -142 -25 0
103 106 -8 0
178 34 36 0
25 -261 132 0
-11 15 108 0
167 -1 -166 0
-182 -229 -201 0
203 -259 175 0
3 20 24 0
119 205 -267 0
11 -71 88 0
-76 -115 -176 0
-86 175 -121 0
-218 121 64 0
-167 157 176 0
1 227 -19 0
-152 252 -17 0
-112 -93 -29 0
135 246 -2 0
143 -261 269 0
-176 206 -95 0
13 -119 32 0
-78 231 132 0
145 80 -185 0
-46 216 -110 0
-110 -231 105 0
-20 158 84 0
273 -166 -257 0
-195 65 -121 0
215 86 -198 0
-118 -252 -222 0
33 149 -219 0
-78 -219 229 0
256 -71 186 0
176 177 168 0
61 -173 210 0
-226 -224 20 0
249 238 101 0
5 232 48 0
-188 215 -144 0
-207 43 209 0
47 206 -96 0
194 76 255 0
-214 128 -57 0
-183 171 159 0
264 111 -119 0
-184 -153 -231 0
103 260 163 0
-8 249 171 0
70 40 29 0
104 -46 -247 0
-106 199 -50 0
-80 194 250 0
49 165 94 0
131 258 98 0
142 245 236 0
-15 -249 147 0
167 17 -31 0
131 -215 -250 0
-187 220 177 0
42 130 172 0
-187 231 -248 0
-240 231 -186 0
-266 3 117 0
32 272 86 0
-238 -57 -37 0
189 1 7 0
241 -249 184 0
52 194 -258 0
-201 -105 89 0
-274 -26 48 0
98 -115 74 0
-48 114 -11 0
-90 -76 244 0
252 181 46 0
-259 39 249 0
85 -209 -93 0
55 -246 152 0
143 197 56 0
-185 123 189 0
169 121 11 0
232 230 77 0
-87 -69 -194 0
-122 -274 -184 0
267 -214 193 0
-105 -8 231 0
-256 -254 22 0
-48 -123 -80 0
-104 117 -247 0
-261 231 111 0
-81 209 201 0
221 7 163 0
-192 -226 -175 0
218 85 -117 0
-65 -55 -207 0
-212 13 -90 0
-79 33 274 0
166 -73 94 0
-53 178 113 0
-153 -10 138 0
-235 -14 -6 0
83 242 163 0
-71 100 81 0
-95 151 172 0
69 237 142 0
-258 -134 -102 0
-108 -20 -137 0
-210 157 38 0
-31 10 -163 0
-231 106 -95 0
-217 -193 -141 0
-95 -108 -205 0
267 -205 262 0
230 88 -74 0
-7 24 -232 0
-79 3 -274 0
-25 -260 29 0
-42 6 262 0
247 -220 -18 0
-114 -24 -95 0
-161 -142 18 0
-134 -253 -252 0
118 192 -200 0
-116 269 266 0
-134 -260 36 0
129 25 -9 0
-131 105 113 0
115 -129 -210 0
271 -33 -52 0
172 72 -6 0
247 -196 170 0
-193 49 60 0
-30 -138 109 0
72 -163 -100 0
4 99 -274 0
-191 -207 270 0
-89 -174 275 0
-107 -159 136 0
-137 -36 -65 0
-235 -192 129 0
178 -15 -228 0
115 -123 -56 0
239 -163 -180 0
43 65 -178 0
-119 -159 -261 0
275 -100 -215 0
210 100 -144 0
31 221 -148 0
-147 197 275 0
244 -48 -193 0
71 252 -177 0
-83 216 -235 0
-257 -235 214 0
100 -264 270 0
-5 -139 -86 0
96 219 153 0
158 255 -244 0
-246 73 -62 0
-142 -238 41 0
-142 226 -104 0
-77 -165 133 0
-272 161 9 0
8 -236 -128 0
187 -181 127 0
221 -212 -233 0
250 -229 -43 0
-76 -259 177 0
264 -158 -88 0
-197 -249 208 0
62 52 57 0
-90 -172 130 0
-208 -238 -162 0
227 231 35 0
8 83 -3 0
143 14 263 0
-219 -145 115 0
136 -200 35 0
-270 -86 -243 0
-27 -154 -4 0
-185 -7 91 0
164 -153 271 0
179 96 9 0
-247 171 -272 0
204 122 180 0
-27 -214 17 0
-198 -209 -87 0
29 -133 37 0
-21 -102 -16 0
-111 -249 21 0
80 205 244 0
-166 -255 -273 0
-7 -68 52 0
257 -228 -165 0
-73 -223 235 0
-192 -43 140 0
53 48 169 0
146 -142 80 0
-148 -170 -110 0
92 -123 114 0
238 -215 -51 0
-129 -180 -56 0
-94 -89 -207 0
207 -6 240 0
-140 19 190 0
-235 62 -125 0
-184 38 -97 0
86 162 -257 0
103 -189 117 0
231 -193 225 0
-23 67 236 0
-22 62 -145 0
-69 -21 -241 0
248 205 116 0
129 167 -14 0
-219 -139 96 0
-88 -60 -253 0
31 -201 -75 0
-176 -40 267 0
175 -11 -256 0
-42 -236 -154 0
57 -195 -126 0
130 254 -150 0
-3 24 -265 0
-198 -18 -265 0
210 -26 -223 0
-212 -50 -49 0
249 195 274 0
-136 -103 -217 0
-178 269 -102 0
72 -35 -182 0
25 113 -156 0
213 192 226 0
-46 -111 -118 0
140 -11 74 0
-257 -235 51 0
-229 224 235 0
-105 -258 -259 0
-141 -92 -25 0
141 96 -158 0
-7 -196 258 0
-258 -138 -161 0
-149 -97 117 0
-86 61 -170 0
-241 115 -217 0
-221 124 -233 0
66 -258 -206 0
46 73 113 0
22 184 239 0
-57 43 139 0
222 -225 -158 0
-214 183 -180 0
185 -123 -200 0
-272 9 50 0
146 -136 -205 0
70 -23 196 0
36 181 -228 0
-90 -208 -86 0
199 -87 -185 0
-95 -42 251 0
-208 213 156 0
230 -275 5 0
-50 -179 -43 0
84 274 -173 0
13 -189 -87 0
-59 -216 -83 0
-139 -65 227 0
-161 -187 54 0
129 161 31 0
223 -87 85 0
59 55 -112 0
-193 48 24 0
98 -175 94 0
16 90 -259 0
85 -263 -228 0
146 26 -60 0
19 -24 -257 0
77 168 31 0
268 -96 182 0
74 -30 -121 0
275 172 -18 0
-55 56 -243 0
136 125 118 0
129 235 -146 0
-142 -194 -97 0
116 51 -33 0
262 29 108 0
129 -63 164 0
262 215 -273 0
-190 194 233 0
37 -30 117 0
197 184 206 0
-107 216 -120 0
101 59 177 0
88 -56 110 0
192 -135 -44 0
267 -248 50 0
24 274 258 0
-66 -194 -261 0
18 -165 -175 0
2 -191 -105 0
-208 -148 62 0
-171 -182 -139 0
-252 121 203 0
139 -113 -67 0
178 -221 48 0
-103 30 97 0
-131 199 -160 0
-254 156 207 0
258 191 7 0
195 -149 62 0
174 187 -255 0
-8 -223 235 0
-112 228 -130 0
-228 27 151 0
67 -30 243 0
-100 85 -176 0
-202 275 -256 0
-252 268 107 0
-91 37 -9 0
138 -270 183 0
-236 166 -71 0
78 -203 -255 0
32 -62 -138 0
242 236 -212 0
194 144 -157 0
138 -84 -149 0
118 266 10 0
11 55 -162 0
46 134 -137 0
255 222 -246 0
-122 236 -270 0
-22 112 88 0
-174 -26 -274 0
-164 -173 139 0
-250 -206 225 0
161 -269 35 0
-135 213 33 0
-218 38 -211 0
247 35 42 0
-62 157 42 0
-233 -58 -78 0
58 211 -206 0
14 7 -37 0
268 -17 -159 0
-234 10 -230 0
62 -126 204 0
152 -230 83 0
-112 139 -267 0
-102 225 -34 0
147 79 274 0
132 -153 -70 0
205 262 20 0
61 124 250 0
4 -131 75 0
-19 -247 -8 0
250 -232 233 0
-123 -232 -79 0
37 -100 143 0
-57 169 -82 0
-225 -185 153 0
-3 259 -235 0
-67 255 -176 0
263 167 -258 0
-44 -117 -3 0
203 -220 34 0
-215 -166 21 0
79 -56 121 0
-226 224 237 0
83 38 29 0
126 58 -114 0
-167 164 -172 0
46 -81 78 0
11 -76 -27 0
-197 248 -122 0
-152 212 -102 0
-4 -91 -18 0
-60 232 -123 0
201 88 186 0
-11 21 -113 0
40 126 173 0
-258 18 47 0
64 103 16 0
215 -114 -229 0
35 -69 -262 0
50 180 188 0
13 149 -17 0
2 -100 137 0
-74 -35 231 0
18 15 -44 0
118 29 -177 0
265 225 -256 0
266 250 73 0
-13 19 -179 0
251 89 150 0
-57 232 264 0
-159 193 -128 0
-9 -142 220 0
35 273 274 0
179 -24 -118 0
237 -85 16 0
-100 -229 77 0
208 -271 -258 0
254 -100 -9 0
273 -7 106 0
-119 179 138 0
-152 -195 -148 0
-76 73 -268 0
-44 -245 -35 0
-273 30 185 0
124 -154 -267 0
236 156 -247 0
163 -167 -262 0
179 -207 195 0
-137 -44 -267 0
177 -17 -123 0
256 -181 201 0
7 121 56 0
-164 -106 70 0
176 256 194 0
15 -221 -151 0
-262 -85 -155 0
186 -210 -17 0
-7 134 -197 0
78 68 79 0
-41 -109 -64 0
202 -39 -35 0
-53 120 161 0
270 272 246 0
257 -217 -254 0
-94 -148 -176 0
99 -33 261 0
-188 -156 264 0
26 213 -116 0
-147 236 -17 0
17 -223 199 0
-134 -45 -266 0
-9 -16 -48 0
-53 -49 115 0
162 212 -91 0
-43 204 -179 0
175 -225 -82 0
-88 -31 -240 0
-196 -60 6 0
-57 110 265 0
64 118 -6 0
61 72 -179 0
-251 -231 31 0
2 -49 -73 0
43 9 -138 0
131 119 -189 0
217 55 -56 0
212 -152 236 0
-117 -97 16 0
-124 -142 18 0
124 -145 177 0
-89 -13 245 0
-52 20 97 0
-238 184 18 0
271 217 -157 0
39 54 226 0
68 -207 -159 0
-56 192 -77 0
-27 -269 -70 0
-256 -167 -187 0
3 32 245 0
-266 -170 93 0
-2 -128 44 0
138 -273 271 0
149 18 261 0
-228 125 -2 0
-11 -30 -64 0
96 18 134 0
-66 62 -136 0
34 -238 117 0
-194 263 -118 0
217 125 112 0
5 -23 173 0
-268 176 -21 0
-237 268 -158 0
-245 -178 206 0
-158 -27 -62 0
-238 -74 -60 0
190 130 79 0
-238 190 -22 0
245 -126 -7 0
49 -24 -47 0
-154 21 251 0
-59 118 -215 0
-72 193 61 0
230 -5 -19 0
-160 28 141 0
-77 83 43 0
169 38 245 0
207 -28 219 0
-139 -234 240 0
205 54 -99 0
-70 220 115 0
-147 -231 11 0
39 63 215 0
5 -224 -147 0
-10 -130 -164 0
52 151 41 0
153 -235 -273 0
260 255 -154 0
163 -17 -247 0
-231 -186 59 0
254 154 -214 0
140 153 -196 0
62 236 -244 0
186 -221 215 0
-180 242 103 0
-20 22 -35 0
62 133 -174 0
-68 -208 203 0
150 267 47 0
165 61 266 0
75 -205 28 0
1 7 -171 0
-91 55 188 0
48 52 42 0
263 10 -180 0
-210 -116 -176 0
245 -25 -249 0
92 55 -116 0
259 -69 -116 0
-218 -200 179 0
127 -137 129 0
-178 -84 95 0
205 -5 -93 0
82 -269 -122 0
-114 269 -108 0
173 -257 101 0
258 35 -108 0
-183 27 -178 0
30 230 253 0
-208 -234 -198 0
-231 -189 22 0
45 252 -242 0
212 42 -195 0
-163 -11 176 0
-239 126 53 0
-84 33 -252 0
-265 49 -85 0
-201 136 68 0
-54 53 -57 0
-54 -111 -240 0
77 -255 197 0
29 128 -25 0
-103 -256 241 0
-116 120 273 0
-141 -230 -274 0
89 -142 -252 0
117 192 169 0
272 -178 -234 0
4 -164 15 0
-50 -15 6 0
50 -122 -273 0
-196 -63 -178 0
-174 -170 -86 0
-167 -140 38 0
108 181 -126 0
-185 -45 -47 0
103 29 259 0
25 133 128 0
243 -39 200 0
-80 -115 9 0
-194 47 -262 0
-248 191 53 0
112 17 215 0
-169 62 118 0
29 -165 64 0
-202 89 -78 0
-52 267 205 0
-122 38 48 0
114 -207 -97 0
256 69 -121 0
128 -69 -78 0
-138 -61 -5 0
250 -99 -104 0
-229 -175 90 0
-112 115 110 0
34 173 123 0
-239 208 -219 0
204 159 -91 0
-185 97 -114 0
-130 190 -20 0
-208 161 15 0
-136 -218 -141 0
-104 -136 138 0
182 -73 103 0
22 180 64 0
-153 77 274 0
-187 -86 -2 0
226 -16 112 0
85 275 -56 0
-34 -186 146 0
61 -228 116 0
11 116 193 0
134 145 96 0
-50 -180 179 0
-228 87 172 0
147 -221 -270 0
234 226 157 0
244 -105 227 0
-27 1 -48 0
-208 88 -4 0
-238 241 -103 0
-25 168 144 0
-86 32 -211 0
162 -194 -103 0
-172 43 57 0
226 -260 -76 0
-112 72 -235 0
154 158 -211 0
96 236 -218 0
124 -92 33 0
-213 -73 200 0
-165 159 31 0
208 -16 -173 0
-15 -51 -83 0
-112 23 258 0
-148 -221 88 0
-44 -275 -138 0
110 -216 142 0
262 250 75 0
272 -76 53 0
35 182 -224 0
-4 139 24 0
19 196 166 0
-13 -269 -185 0
-96 -274 272 0
-118 -262 -238 0
-67 -83 -14 0
-135 -179 -75 0
-121 84 187 0
49 256 -19 0
-162 133 -167 0
-177 118 -3 0
196 235 -115 0
33 -114 149 0
-60 -53 -238 0
38 -52 155 0
-157 234 236 0
-140 -25 -128 0
65 142 -196 0
-96 177 -266 0
-163 65 -59 0
-157 11 -146 0
145 248 -243 0
-271 -182 -64 0
-33 201 197 0
26 6 205 0
60 227 87 0
100 -45 115 0
-64 176 248 0
-117 72 -119 0
83 43 -245 0
-71 -271 -95 0
41 -100 191 0
206 -204 123 0
-113 -8 159 0
229 -207 -198 0
247 53 68 0
-7 -258 178 0
-173 -144 -66 0
175 261 -122 0
208 217 11 0
138 147 157 0
268 -186 -173 0
-156 -257 -35 0
182 -87 -201 0
-154 135 157 0
212 71 138 0
-193 -125 222 0
-198 67 204 0
-82 -189 154 0
95 -113 256 0
52 -157 244 0
43 -185 77 0
-226 -231 -255 0
263 -70 166 0
-169 -51 141 0
-12 237 -186 0
140 250 175 0
212 -144 183 0
91 122 -7 0
-19 -171 73 0
-275 137 28 0
175 -180 13 0
193 -167 137 0
249 36 168 0
-262 -245 133 0
50 44 -153 0
-90 25 -146 0
93 -224 -267 0
216 157 -22 0
-191 20 -184 0
166 -9 242 0
-135 -250 -120 0
-142 28 227 0
214 -37 -120 0
44 -267 -150 0
-235 -2 160 0
45 -78 96 0
-106 103 268 0
-231 136 -42 0
130 -111 17 0
-129 -188 98 0
-225 -103 -214 0
-218 -124 243 0
227 -132 -192 0
93 62 265 0
178 -15 -195 0
169 48 -182 0
-56 92 231 0
203 -225 -102 0
239 -259 -108 0
274 162 -157 0
150 210 -217 0
-108 -192 -155 0
-23 177 -198 0
-157 53 -168 0
244 231 107 0
-111 127 -52 0
223 260 244 0
73 147 -27 0
102 81 -221 0
153 -147 -10 0
-174 99 -71 0
95 -266 145 0
-229 95 78 0
-6 90 -50 0
18 40 78 0
-50 222 -37 0
38 -253 105 0
88 249 -32 0
-84 -44 228 0
-232 -245 -42 0
35 178 202 0
-157 190 -269 0
168 -233 145 0
-121 -53 125 0
56 27 112 0
-173 -127 -148 0
-239 219 -116 0
140 78 209 0
-49 -153 11 0
32 -174 -30 0
176 -235 -102 0
90 -224 -180 0
79 -10 -237 0
213 -171 21 0
-131 63 -28 0
42 166 132 0
-170 -21 18 0
108 -35 -175 0
52 125 120 0
215 -75 115 0
-91 108 237 0
270 241 -140 0
107 84 136 0
115 -236 45 0
-81 28 -50 0
-272 -151 -152 0
230 174 182 0
185 -166 -189 0
139 -144 -179 0
-41 34 267 0
135 154 169 0
269 246 -184 0
-257 -100 -178 0
-19 166 93 0
208 223 -135 0
-258 164 270 0
5 120 -235 0
-85 82 -12 0
241 -136 264 0
82 38 48 0
-6 -110 -88 0
-110 129 156 0
214 -193 -159 0
-50 -154 145 0
-67 -55 -128 0
-117 -75 182 0
77 153 -246 0
9 104 122 0
91 23 -22 0
114 -257 -272 0
-38 137 229 0
229 -100 192 0
-130 -56 176 0
274 157 -242 0
33 3 251 0
86 132 29 0
210 36 -107 0
171 31 -191 0
28 185 -94 0
141 -80 -44 0
273 117 -255 0
-38 104 186 0
-7 -37 257 0
-49 104 223 0
-77 -81 -269 0
-119 -154 147 0
196 270 257 0
111 -216 -162 0
182 20 256 0
-142 -267 -154 0
-64 258 -159 0
-172 77 150 0
-222 -12 -207 0
235 -153 60 0
199 156 258 0
184 119 -63 0
-42 -58 -135 0
-113 141 214 0
-269 147 223 0
-37 38 -214 0
43 -273 20 0
-211 -55 -146 0
67 143 -7 0
125 19 -147 0
-7 269 275 0
-215 77 -266 0
228 95 -7 0
-238 -209 -108 0
171 263 -6 0
-47 -227 -161 0
-176 185 -43 0
97 -166 33 0
-88 220 -114 0
-118 203 -242 0
-14 -131 -5 0
83 1 -262 0
-50 -275 -217 0
-100 -181 179 0
-252 196 -3 0
-184 251 -2 0
230 228 -233 0
67 237 -105 0
-224 130 -11 0
-191 -194 49 0
-44 -10 -198 0
35 245 -259 0
-229 -44 -237 0
