p cnf 275 1171
14 -69 110 0
-199 -119 -214 0
-77 -5 -261 0
-118 -108 -60 0
-107 141 -234 0
-187 -268 -172 0
-208 -44 210 0
160 -12 -256 0
-124 -261 161 0
-89 99 -270 0
-129 -234 147 0
220 201 -254 0
-97 -139 -19 0
-184 -209 241 0
210 254 152 0
-260 -261 -28 0
66 23 119 0
-166 -81 -160 0
-274 231 147 0
-120 93 -209 0
-41 -52 -221 0
86 -220 -165 0
-101 -243 -144 0
246 270 -10 0
-232 141 -32 0
-88 227 239 0
-56 143 -135 0
75 187 155 0
132 164 -212 0
11 34 57 0
254 271 45 0
-142 -47 226 0
97 -227 -98 0
-81 50 215 0
-1 247 -20 0
52 179 70 0
-28 32 -65 0
-263 -83 55 0
-247 -239 -213 0
256 -95 -141 0
77 -265 -118 0
-273 -233 -200 0
-40 94 -28 0
-133 -136 -32 0
-215 -114 -266 0
-179 136 91 0
111 -274 194 0
-258 273 212 0
-130 -113 226 0
118 7 -164 0
264 -81 -161 0
-134 176 -181 0
-162 -140 74 0
179 -14 -124 0
-72 -179 -27 0
89 -82 180 0
-178 -250 65 0
8 -213 216 0
154 247 99 0
30 -219 93 0
-225 21 261 0
76 -56 -113 0
100 68 185 0
138 101 -244 0
-40 -219 -69 0
55 -73 5 0
264 184 71 0
-98 7 247 0
-237 201 76 0
-93 225 -140 0
-10 -6 183 0
250 242 156 0
45 -94 -170 0
-161 70 -44 0
-135 -85 92 0
-50 -181 -36 0
88 -191 -129 0
222 225 261 0
-21 238 203 0
-143 209 -189 0
186 178 -248 0
1 85 131 0
41 -225 -22 0
-117 -168 256 0
-128 265 -58 0
-236 123 -74 0
-218 -12 -147 0
-192 -123 86 0
-143 107 22 0
-14 -136 -55 0
-29 -2 -144 0
241 265 -8 0
34 144 -183 0
133 -24 -256 0
222 -122 195 0
-41 102 259 0
-228 165 -108 0
74 171 1 0
-93 213 -2 0
-86 -66 101 0
149 81 86 0
-260 199 17 0
-90 -24 -116 0
-214 -219 182 0
176 -97 -138 0
91 -153 -33 0
-237 -18 -121 0
106 -85 -84 0
254 -145 -257 0
-157 22 -42 0
17 -103 252 0
130 -257 55 0
245 129 58 0
165 -163 -263 0
201 -57 -81 0
-171 13 129 0
-133 184 11 0
-208 192 84 0
-48 93 71 0
247 168 98 0
-7 -70 -243 0
-62 201 -94 0
151 271 94 0
194 -83 -200 0
62 109 -19 0
82 -51 -81 0
-93 -26 -237 0
84 -196 -172 0
119 -263 273 0
108 26 -250 0
-2 -128 80 0
-73 -258 -130 0
252 -113 -86 0
20 -149 -23 0
-71 246 132 0
105 135 113 0
-131 229 266 0
172 -242 23 0
-239 162 -130 0
-172 189 -74 0
202 112 271 0
-130 -238 120 0
67 -252 52 0
-54 -171 99 0
-55 210 -75 0
256 -9 23 0
-102 -78 -193 0
-218 -216 -210 0
124 57 175 0
-100 230 -20 0
247 -232 -214 0
156 249 -262 0
24 -88 -120 0
46 222 -98 0
32 -99 -249 0
109 -174 -258 0
-95 91 55 0
248 -97 -245 0
72 -189 -205 0
-33 -15 -25 0
254 -227 62 0
25 94 210 0
272 -253 -171 0
-250 269 -252 0
-210 -14 116 0
199 -188 -225 0
53 -236 -45 0
-225 -137 162 0
-187 77 -78 0
114 12 146 0
30 232 -122 0
249 -198 -95 0
175 -16 54 0
274 -114 -271 0
-149 43 -11 0
103 -168 -234 0
-20 -138 -134 0
112 187 55 0
-259 272 148 0
-49 -132 229 0
-39 76 250 0
55 145 -58 0
138 29 11 0
31 47 -165 0
-136 -42 -52 0
-267 -187 90 0
81 -75 -248 0
-125 -258 161 0
-177 112 -147 0
138 118 -185 0
62 -168 210 0
274 -236 -152 0
205 225 134 0
-60 40 -121 0
168 -244 -124 0
-147 252 -79 0
-232 -69 -203 0
274 169 -130 0
-273 252 -133 0
-80 -99 -109 0
-254 259 -181 0
146 243 -257 0
-10 -185 -129 0
262 146 -81 0
46 -172 45 0
13 -38 69 0
-97 245 22 0
-80 200 -223 0
70 -142 223 0
73 247 141 0
67 -214 86 0
-239 -7 203 0
-186 -116 -160 0
-19 -251 26 0
-29 -148 65 0
22 134 42 0
182 -75 184 0
248 -184 -210 0
67 231 42 0
64 25 87 0
26 -179 86 0
137 -169 -167 0
253 148 55 0
44 115 -254 0
-274 10 -110 0
-174 82 -135 0
-2 92 -32 0
-96 -141 -223 0
-250 9 -81 0
202 257 113 0
203 88 197 0
220 -23 -177 0
-241 103 -72 0
-194 7 99 0
-144 172 -180 0
-231 93 182 0
-225 -210 202 0
-57 -88 -81 0
112 210 -197 0
50 157 27 0
-204 -213 -95 0
-179 155 220 0
98 -164 139 0
7 127 -119 0
200 -155 -40 0
-32 -49 157 0
211 72 70 0
67 -76 216 0
226 8 -194 0
-252 161 -73 0
146 -204 -83 0
-82 210 -1 0
127 -130 199 0
-95 265 116 0
187 -60 -258 0
-66 -253 -197 0
-195 -144 -264 0
210 -95 -260 0
134 -138 -79 0
23 223 46 0
238 72 155 0
-171 69 122 0
26 91 -65 0
-214 152 -194 0
247 -193 -3 0
37 -264 -132 0
-69 -238 25 0
-107 240 -100 0
55 103 -162 0
-231 108 174 0
129 95 -108 0
-222 -184 -29 0
-206 10 -181 0
238 -209 199 0
-241 146 142 0
-177 212 119 0
9 -212 55 0
-87 -198 -175 0
10 -158 -12 0
106 -59 -45 0
266 40 -206 0
-163 46 -58 0
-140 -60 -154 0
-82 -13 228 0
-134 -262 144 0
-92 -150 147 0
-101 -259 188 0
-130 6 -164 0
-98 -144 -115 0
61 -191 -23 0
126 -108 88 0
142 222 25 0
111 269 53 0
68 -71 -82 0
-255 219 -126 0
-109 -230 2 0
4 -215 -72 0
161 129 201 0
50 -102 82 0
-209 258 221 0
137 -211 89 0
-155 -211 46 0
121 -255 240 0
7 -225 -273 0
-125 205 115 0
-193 66 -243 0
203 -184 -25 0
-54 3 38 0
-170 -123 166 0
189 34 -80 0
-11 -108 2 0
-155 87 55 0
-267 -269 -73 0
49 195 -160 0
77 201 147 0
-3 -51 -121 0
-11 -19 170 0
-88 73 238 0
237 -18 -123 0
-59 -146 -147 0
166 269 -165 0
22 5 -167 0
-38 -58 112 0
132 85 32 0
206 202 -63 0
-204 93 -211 0
-98 -213 200 0
256 55 -174 0
-196 65 269 0
82 -115 160 0
117 178 161 0
268 204 -18 0
-94 92 -25 0
-140 38 271 0
79 -95 -190 0
103 -188 22 0
-99 -191 267 0
38 -126 -207 0
67 -268 -135 0
-193 220 -243 0
-159 239 -138 0
194 132 -37 0
111 220 -4 0
-136 171 256 0
-80 66 116 0
-77 -146 83 0
220 -81 -89 0
-222 -37 -51 0
249 69 106 0
-91 274 86 0
-56 254 32 0
148 -99 222 0
-24 89 92 0
-256 237 -248 0
253 -70 -110 0
-209 -118 -80 0
204 184 -144 0
218 209 -232 0
-84 -165 -37 0
-219 -174 -202 0
263 -249 237 0
-143 -82 -93 0
-147 -74 -115 0
-47 -140 219 0
-139 -151 17 0
258 125 107 0
166 -121 -5 0
93 51 -69 0
-264 -40 -263 0
128 -179 -177 0
206 177 -92 0
21 -83 168 0
128 84 165 0
-5 -111 54 0
230 263 -135 0
84 -150 -21 0
-55 84 26 0
163 -166 -61 0
241 -60 36 0
100 24 222 0
59 25 -270 0
-88 -141 -80 0
-186 27 168 0
114 76 66 0
214 -23 -149 0
-88 69 -139 0
83 162 -148 0
-15 178 110 0
69 272 -96 0
44 141 73 0
-8 -10 -255 0
-204 265 -16 0
39 252 -103 0
77 -169 84 0
273 -62 10 0
11 -103 -54 0
-211 -102 56 0
-156 -186 257 0
258 205 241 0
245 -6 -114 0
43 -188 24 0
-89 38 -265 0
252 256 230 0
200 183 134 0
-181 -227 -209 0
117 110 -38 0
42 -52 209 0
100 142 19 0
233 -24 247 0
20 -234 -133 0
87 -235 -8 0
103 -188 185 0
251 -144 -121 0
240 -117 176 0
-93 -177 -58 0
88 113 -135 0
-102 -91 -69 0
-240 81 -201 0
-100 261 101 0
210 118 -153 0
96 -180 -169 0
-134 -268 -91 0
232 -70 -250 0
83 -24 -91 0
197 155 -195 0
-220 151 126 0
6 -108 218 0
-227 -34 195 0
235 -134 27 0
197 105 -125 0
28 -7 -113 0
-208 56 -210 0
25 -68 -229 0
127 5 -132 0
28 63 -108 0
124 46 131 0
-167 176 -104 0
96 -36 93 0
51 -249 -61 0
77 88 22 0
2 -166 193 0
82 175 224 0
55 -32 -203 0
161 168 152 0
-234 -87 -242 0
-181 -267 -272 0
-93 269 2 0
-256 131 193 0
82 -13 -128 0
190 -102 -262 0
-165 -252 -100 0
-222 -176 -189 0
-62 260 271 0
129 232 140 0
258 -189 -160 0
152 270 145 0
112 -132 127 0
236 212 -73 0
-48 -223 -185 0
-114 -30 -239 0
-206 139 58 0
-216 67 -98 0
209 198 166 0
-21 -144 -143 0
227 268 -134 0
-170 155 198 0
56 -66 196 0
-234 9 258 0
-249 215 31 0
242 -152 -82 0
55 -188 -156 0
-179 -225 -185 0
-174 12 -131 0
-150 -55 -54 0
122 -46 -160 0
-139 54 -252 0
56 -239 -159 0
13 37 24 0
-124 254 161 0
-60 -35 -89 0
190 208 10 0
138 -173 -232 0
52 270 257 0
129 59 -9 0
25 -118 97 0
-259 -70 75 0
207 -173 -202 0
70 17 89 0
201 -154 -102 0
-193 -263 7 0
-229 -25 -206 0
-69 -66 -100 0
-266 -233 -230 0
-38 48 252 0
222 -71 48 0
223 50 87 0
252 -188 97 0
243 132 224 0
-67 195 -11 0
-272 145 -251 0
-129 264 154 0
-222 -141 35 0
209 -230 71 0
-74 111 44 0
-188 -180 -36 0
223 -208 91 0
-171 -9 -62 0
-184 -15 160 0
254 194 -180 0
-202 253 144 0
21 -202 167 0
154 17 -87 0
-167 -233 189 0
189 -91 -51 0
-37 -143 -176 0
-215 88 -53 0
31 9 -232 0
28 -135 -87 0
-265 -108 224 0
60 -81 70 0
-103 -28 -176 0
-52 193 -84 0
200 88 6 0
-100 245 210 0
-244 -273 -86 0
-212 90 16 0
-275 206 53 0
265 86 225 0
-170 -185 -50 0
-90 -241 184 0
3 -251 241 0
61 -142 -54 0
272 -203 244 0
226 -238 28 0
-55 176 23 0
208 146 236 0
-111 -38 -114 0
201 103 217 0
50 -66 -103 0
-118 104 -154 0
-257 -12 177 0
65 47 108 0
-135 61 -256 0
137 208 -144 0
22 -140 38 0
25 190 -247 0
214 8 -211 0
107 104 -93 0
-7 185 42 0
-68 -92 270 0
-32 -250 -66 0
274 119 56 0
-149 226 82 0
-142 53 55 0
6 126 -39 0
-85 238 -189 0
214 227 -81 0
-1 -49 149 0
-61 -133 -241 0
65 263 23 0
-32 259 191 0
-250 -102 -234 0
-209 25 259 0
266 -92 -105 0
-55 -158 12 0
178 -63 72 0
176 66 -74 0
182 -250 212 0
-235 -6 -246 0
26 -57 -220 0
-177 -172 -72 0
180 -196 218 0
107 209 -43 0
-104 -54 99 0
-102 -232 -65 0
-103 166 -44 0
-147 -82 -97 0
217 -73 -139 0
-15 211 51 0
135 -4 44 0
271 -50 266 0
245 139 -58 0
-265 205 152 0
180 -237 141 0
163 -259 110 0
154 57 -1 0
-244 -98 263 0
116 125 -123 0
-155 158 190 0
188 -64 -69 0
-36 -133 146 0
128 228 -2 0
130 -46 -91 0
-33 -48 142 0
-253 226 110 0
253 -243 -195 0
-174 -94 9 0
-14 172 77 0
158 -23 196 0
185 -165 -256 0
-24 199 -114 0
-132 211 35 0
-131 -163 51 0
-73 -146 -253 0
-17 73 -167 0
-24 -171 100 0
225 73 -23 0
3 135 -54 0
208 -68 -32 0
-7 -192 163 0
-212 12 82 0
264 -193 180 0
-8 185 98 0
268 166 -143 0
-35 -71 93 0
-241 175 -71 0
-104 -220 130 0
-94 132 158 0
173 213 19 0
-169 221 -88 0
22 -62 176 0
121 21 -1 0
-21 137 -259 0
-113 120 265 0
218 -27 -119 0
106 64 -170 0
-139 98 157 0
221 -189 -6 0
-26 -72 -152 0
-24 181 27 0
-137 265 -150 0
15 122 -165 0
52 45 -98 0
179 265 12 0
63 -185 1 0
-185 -157 -34 0
-252 -63 -246 0
130 44 36 0
24 259 120 0
-73 37 -64 0
-13 52 -42 0
-150 -167 -200 0
-29 41 223 0
272 -9 152 0
-233 187 255 0
23 201 -191 0
-147 -133 -184 0
-266 251 228 0
-153 -112 -12 0
189 195 -259 0
85 -37 72 0
205 139 261 0
87 210 184 0
2 65 54 0
231 -101 251 0
71 -115 -99 0
163 175 181 0
-126 -106 -80 0
141 275 227 0
154 162 74 0
66 29 -241 0
-248 103 -219 0
-181 88 -190 0
-274 -14 -187 0
-60 -37 55 0
139 -217 -66 0
124 165 266 0
41 142 235 0
109 128 18 0
-30 182 204 0
215 -76 -134 0
118 158 39 0
109 -134 175 0
154 52 188 0
-85 -27 -256 0
134 83 -166 0
135 -2 48 0
141 -184 98 0
241 -126 -158 0
11 -224 85 0
162 246 171 0
2 -270 231 0
52 -73 232 0
142 -62 120 0
-216 -223 239 0
16 -19 -90 0
-108 247 -19 0
-266 -214 219 0
-196 95 168 0
185 181 180 0
98 -42 25 0
-90 120 145 0
-110 -200 -61 0
197 163 90 0
-171 -4 127 0
152 216 -224 0
-54 6 -124 0
-71 -159 130 0
-273 -48 -116 0
181 -79 37 0
197 245 -32 0
-209 150 -243 0
238 -11 -158 0
-134 -209 -74 0
160 -250 -63 0
240 120 269 0
-209 -111 -45 0
-180 214 -91 0
269 190 -228 0
-91 -108 170 0
-224 138 -175 0
72 150 35 0
-95 142 -248 0
22 235 42 0
-263 -217 200 0
111 -80 -251 0
-252 -247 217 0
-19 117 -151 0
272 217 151 0
-178 143 252 0
-236 105 -40 0
125 -88 251 0
33 134 -105 0
244 113 144 0
-19 28 228 0
194 185 -246 0
231 29 -215 0
-99 -210 -196 0
-118 80 -15 0
-264 58 -33 0
148 239 -139 0
101 83 -269 0
-135 -231 -179 0
272 162 -199 0
113 -116 31 0
-111 102 -27 0
-187 128 247 0
-53 -149 31 0
62 -37 181 0
14 212 -108 0
-124 227 236 0
-12 203 -214 0
250 147 248 0
210 -74 22 0
193 235 -269 0
112 -57 108 0
172 -272 -274 0
-28 99 59 0
-233 138 122 0
269 -3 252 0
217 271 -253 0
17 -201 -171 0
-199 -132 -52 0
45 -230 -259 0
-270 -166 92 0
-255 91 -104 0
88 -55 -94 0
149 224 -154 0
-263 52 76 0
-41 -101 160 0
-259 137 249 0
-120 -85 -30 0
14 252 194 0
-105 -116 -111 0
183 -67 -260 0
225 -99 -87 0
230 206 16 0
-274 246 -97 0
-173 88 102 0
-28 141 -70 0
239 -68 -260 0
239 -22 -114 0
-167 180 138 0
26 10 51 0
141 96 -104 0
-261 -38 -247 0
-56 47 -117 0
-77 2 -203 0
-41 215 -259 0
180 -19 -15 0
-177 52 155 0
248 -123 142 0
-273 42 -149 0
220 59 -50 0
96 -113 -159 0
-68 69 -60 0
67 -129 -97 0
-92 -188 -230 0
49 33 94 0
22 215 -88 0
200 -30 -45 0
49 -228 -192 0
235 38 -114 0
-7 156 -247 0
118 176 69 0
-275 -98 -182 0
162 154 -248 0
-139 46 88 0
-195 234 124 0
-77 -7 191 0
-249 -73 29 0
201 -266 50 0
-29 256 -56 0
95 -212 211 0
-159 -255 95 0
210 70 -184 0
217 95 -132 0
-247 -232 129 0
-58 90 -183 0
-136 78 -234 0
-122 31 55 0
216 -254 -93 0
20 -132 131 0
256 106 -247 0
64 -118 -63 0
-172 116 -216 0
-258 -208 -17 0
-226 217 -68 0
-238 -122 -83 0
-35 161 -74 0
-155 116 187 0
200 -76 -33 0
-20 229 -34 0
166 142 -230 0
-75 275 -140 0
-273 -93 -36 0
-229 149 -226 0
-114 246 -208 0
-249 266 256 0
-220 50 144 0
-235 -38 152 0
-19 160 -220 0
-170 -259 127 0
262 -47 -128 0
222 -68 253 0
-8 -37 -29 0
195 -245 40 0
-224 -206 -54 0
-179 31 148 0
268 128 44 0
55 -14 153 0
-259 251 144 0
-58 244 103 0
-220 202 100 0
175 -147 -187 0
-22 -180 226 0
3 -108 33 0
192 -151 -28 0
105 159 269 0
-92 244 249 0
188 -68 227 0
93 77 -30 0
154 122 -89 0
179 -208 40 0
85 -272 -128 0
-22 218 255 0
73 239 -249 0
-201 -150 -270 0
-149 -211 -176 0
-85 -195 -59 0
-266 -2 -170 0
-8 -184 21 0
193 -42 -229 0
102 -62 -87 0
-273 -127 96 0
-193 -182 -190 0
119 141 250 0
-249 156 -257 0
-174 -162 -50 0
162 128 108 0
209 11 156 0
239 -113 211 0
142 31 191 0
-85 -34 241 0
74 5 -52 0
-1 -138 198 0
-264 117 -199 0
137 -66 -64 0
-139 263 -33 0
-197 36 83 0
-2 -207 224 0
168 -216 170 0
-222 -120 23 0
-20 -136 91 0
-265 -175 189 0
-2 -212 -177 0
200 18 39 0
-7 -53 139 0
-273 -53 152 0
-25 -149 130 0
116 -170 219 0
210 -165 -26 0
-56 -249 -177 0
239 -245 -253 0
37 244 267 0
-76 190 -219 0
-195 142 36 0
-117 -19 -222 0
196 258 -200 0
183 -213 234 0
-96 -246 85 0
-100 107 -52 0
-163 228 -42 0
95 224 187 0
-22 -61 -106 0
1 -34 176 0
-186 179 172 0
-42 -11 172 0
132 -31 268 0
-130 15 -66 0
270 -78 59 0
-32 -16 -251 0
-199 -94 204 0
-108 -273 -135 0
120 -113 146 0
-271 200 -10 0
-224 122 46 0
-65 210 69 0
107 133 -65 0
-140 -241 -25 0
-185 106 181 0
-205 119 218 0
-125 116 275 0
125 231 -65 0
241 151 107 0
54 254 -27 0
259 -20 119 0
-18 -26 -81 0
213 -27 24 0
-37 40 258 0
-267 116 -245 0
136 178 185 0
19 259 112 0
234 91 105 0
153 122 -247 0
-186 212 229 0
146 16 -158 0
-221 255 122 0
210 132 26 0
65 221 236 0
110 -247 -225 0
-266 53 -205 0
217 263 -27 0
-23 -34 121 0
268 -166 145 0
-221 -160 -96 0
51 14 -198 0
-208 -14 108 0
60 -172 43 0
-211 231 267 0
-152 -86 -257 0
-195 37 -65 0
49 130 117 0
-235 -99 147 0
-200 207 -52 0
204 180 164 0
-95 213 -127 0
213 -219 90 0
-188 -62 60 0
-219 124 -199 0
185 165 -186 0
-67 -110 194 0
33 -22 -238 0
270 132 36 0
114 -147 -269 0
130 -158 -92 0
77 212 -151 0
200 -49 188 0
109 100 157 0
-57 -54 -164 0
57 202 231 0
198 -66 -102 0
-200 172 -19 0
247 149 -114 0
275 124 -82 0
-124 11 163 0
223 98 -257 0
-255 215 225 0
200 -231 119 0
120 93 46 0
-208 181 -164 0
47 220 -192 0
230 80 115 0
-13 223 -111 0
-242 186 -106 0
41 210 -163 0
255 -30 -98 0
227 243 -271 0
-256 154 114 0
-138 96 -50 0
-168 202 -271 0
68 4 50 0
205 -83 -167 0
-148 -36 -140 0
-35 -115 -21 0
-69 -229 181 0
129 248 9 0
-109 -3 108 0
-198 -214 60 0
76 -136 173 0
-34 274 -190 0
213 62 79 0
93 150 -123 0
115 27 -138 0
124 253 192 0
-31 -244 221 0
101 163 19 0
-250 168 160 0
274 -134 -202 0
145 -29 -21 0
180 172 -234 0
112 -224 55 0
13 124 127 0
-96 -182 -227 0
-246 22 1 0
-274 -239 45 0
248 -162 -199 0
158 -30 -14 0
-218 -123 194 0
136 179 236 0
-81 94 183 0
31 109 -76 0
266 -117 -115 0
-225 -96 200 0
122 240 50 0
271 -214 -117 0
-121 134 241 0
-107 222 -206 0
152 238 216 0
53 -47 52 0
243 215 136 0
134 161 173 0
242 -147 -200 0
225 -270 147 0
185 -220 173 0
23 -260 122 0
-61 64 256 0
165 217 134 0
218 -239 -205 0
88 234 -137 0
34 -125 -43 0
195 -242 -108 0
183 230 235 0
175 -245 25 0
81 49 -190 0
144 63 42 0
-81 -69 -134 0
-206 -200 274 0
131 -25 207 0
-272 -68 -196 0
258 44 -67 0
-233 -89 29 0
-12 218 -15 0
-7 -103 190 0
35 149 164 0
70 -17 143 0
-76 77 215 0
247 -197 -135 0
-11 146 -165 0
246 -267 46 0
-5 48 -131 0
56 -97 64 0
11 -266 151 0
-72 199 68 0
14 207 246 0
-146 148 -64 0
176 -256 10 0
-108 11 -209 0
85 -162 195 0
-259 -95 88 0
98 154 144 0
222 44 69 0
43 -215 -235 0
-49 -219 96 0
7 -140 -213 0
11 -198 6 0
161 190 56 0
98 -178 -46 0
-110 -196 -71 0
-207 -55 -50 0
18 -110 191 0
24 -29 141 0
134 71 -157 0
145 118 -253 0
-100 -19 119 0
-43 -19 -207 0
-14 264 263 0
241 -60 -85 0
72 194 -146 0
-251 -105 -242 0
-200 57 -188 0
-263 -272 -64 0
-230 -26 175 0
49 -163 18 0
-67 -202 -206 0
-19 262 10 0
127 198 203 0
260 115 90 0
-199 -67 -212 0
-21 140 186 0
271 145 160 0
-176 -54 -14 0
241 -225 56 0
-247 -98 -246 0
-30 58 213 0
201 -89 123 0
137 114 -225 0
143 -151 149 0
-189 -151 44 0
-54 43 -245 0
70 -216 -196 0
-72 -132 -272 0
77 200 185 0
-223 -38 272 0
164 -173 175 0
241 -92 121 0
185 -145 51 0
78 263 -259 0
-107 -28 58 0
162 -30 -91 0
-65 53 -239 0
-275 -269 -4 0
-100 93 123 0
97 6 -216 0
-190 -14 -271 0
201 -42 179 0
175 -227 222 0
34 255 161 0
-69 -42 -45 0
268 -192 265 0
189 246 241 0
-190 258 -181 0
-94 -113 -206 0
23 -9 -47 0
90 -49 -197 0
250 217 -161 0
-238 -5 265 0
148 -88 -161 0
-163 -262 -6 0
-221 -73 -210 0
-250 3 216 0
254 89 -216 0
146 -88 -120 0
-41 -108 225 0
42 250 -143 0
92 58 -202 0
-96 -227 -32 0
92 125 68 0
-17 -23 52 0
40 -261 -199 0
-54 107 -113 0
228 50 8 0
22 251 -156 0
215 265 130 0
-94 -64 25 0
-71 -235 -84 0
69 53 234 0
37 36 107 0
184 244 -34 0
-101 -205 -128 0
-137 227 -28 0
-61 168 -36 0
254 -26 -246 0
-216 -127 75 0
-20 -154 147 0
81 94 -151 0
-175 22 19 0
102 193 -205 0
-236 58 116 0
54 -45 -120 0
-4 -84 121 0
