p cnf 300 1278
8 -92 -266 0
-20 -261 138 0
-82 239 -85 0
-148 204 174 0
-98 -176 -82 0
142 107 -166 0
-242 -263 -251 0
78 1 51 0
54 -193 99 0
-270 -93 -240 0
-290 -221 -180 0
-49 89 -192 0
210 -173 -256 0
-197 -233 160 0
-260 -10 140 0
-89 251 275 0
-199 189 58 0
80 183 -230 0
133 -237 71 0
-50 -63 119 0
194 -178 299 0
87 169 -13 0
-166 239 257 0
-65 292 -112 0
-285 87 -154 0
61 226 163 0
-59 -266 91 0
165 -282 108 0
-92 -71 43 0
202 -125 34 0
76 -47 -165 0
-74 -255 -194 0
177 -103 237 0
216 45 -171 0
-188 176 191 0
-26 225 -44 0
228 -227 -299 0
-92 278 -96 0
-129 44 -112 0
-261 -295 53 0
141 96 -70 0
247 78 41 0
-289 198 -107 0
34 -258 10 0
211 -56 -153 0
178 242 -141 0
189 296 60 0
137 -57 43 0
102 55 175 0
252 -42 270 0
-119 207 116 0
-222 59 -129 0
-48 288 -74 0
118 133 -34 0
17 119 76 0
98 -132 29 0
-98 -291 -72 0
82 216 10 0
-219 112 -46 0
-179 -96 -174 0
-58 271 -46 0
18 205 -8 0
-163 253 22 0
-282 44 -163 0
-244 120 -203 0
-145 242 -49 0
298 68 174 0
294 290 159 0
-197 46 43 0
93 86 -44 0
294 298 101 0
-271 66 163 0
248 -95 157 0
267 86 26 0
236 121 85 0
-89 109 -287 0
-183 -205 20 0
166 253 -13 0
204 -296 12 0
-297 105 -262 0
-85 228 -106 0
-177 -211 133 0
123 81 10 0
226 33 145 0
-130 254 10 0
-217 50 94 0
-31 -262 76 0
211 -276 -48 0
-159 27 -7 0
-246 175 -278 0
177 131 181 0
-171 -67 -18 0
81 243 9 0
-284 -65 174 0
117 72 187 0
-280 285 37 0
-25 -108 -88 0
-292 -202 13 0
167 -227 14 0
23 219 97 0
2 147 162 0
189 -169 106 0
158 80 77 0
34 57 54 0
83 -37 9 0
-270 287 -286 0
35 6 111 0
-133 -176 211 0
66 -180 -82 0
-195 -159 238 0
130 -212 -127 0
-68 58 266 0
18 -205 -191 0
216 -155 -271 0
96 -224 213 0
256 262 238 0
-123 -249 157 0
23 254 28 0
-232 45 251 0
-299 -53 -252 0
-66 11 -39 0
168 143 -165 0
263 81 214 0
-38 -60 -292 0
98 -193 -218 0
106 201 210 0
-111 -9 -280 0
31 -243 -1 0
-19 -10 160 0
-234 -189 54 0
14 -22 239 0
-183 38 -7 0
-75 -70 -202 0
258 241 -147 0
161 8 78 0
-127 274 168 0
-32 -217 24 0
140 255 -164 0
174 -9 -11 0
280 -37 218 0
112 212 183 0
-28 106 11 0
91 141 88 0
142 232 -227 0
219 189 284 0
291 -8 126 0
-300 -195 28 0
-186 87 148 0
-299 -243 -169 0
-55 136 262 0
134 193 -95 0
10 -45 220 0
212 157 14 0
-120 103 138 0
-187 22 -87 0
127 2 215 0
-183 -257 137 0
203 129 271 0
-256 -70 263 0
174 295 -61 0
59 127 -270 0
191 -55 147 0
175 -158 72 0
-118 -103 221 0
144 66 241 0
-253 -44 -4 0
298 -297 91 0
59 -201 -283 0
29 64 -91 0
-29 -132 115 0
-178 -11 -163 0
295 -96 70 0
41 -242 149 0
23 240 -213 0
67 -266 121 0
185 -31 58 0
-127 112 -103 0
-157 -292 22 0
-11 149 -128 0
285 -239 51 0
-295 -243 -215 0
32 -192 276 0
83 -252 -28 0
-8 -27 154 0
111 85 -6 0
-249 171 -220 0
87 -7 -299 0
-174 -48 -61 0
47 102 10 0
-112 66 183 0
-83 -77 -106 0
160 -253 -196 0
17 185 86 0
244 225 137 0
-37 43 -193 0
214 298 -11 0
149 -86 -32 0
-9 -87 -270 0
-43 201 16 0
60 -56 -249 0
72 -170 235 0
-248 -1 -173 0
87 -66 162 0
-300 90 -77 0
-9 295 -44 0
60 165 252 0
-15 -162 -73 0
-278 264 195 0
154 247 -32 0
47 -67 269 0
8 -12 -217 0
-132 22 285 0
196 -28 49 0
161 25 -111 0
-152 26 195 0
26 253 121 0
-195 -103 243 0
225 67 258 0
65 274 -247 0
-66 -181 23 0
281 6 149 0
-82 -60 -223 0
-258 244 216 0
44 112 -21 0
165 215 119 0
-137 -106 299 0
222 -240 -11 0
-268 -130 200 0
243 -203 298 0
287 -186 -43 0
134 51 140 0
285 -89 198 0
-296 235 163 0
-215 120 -127 0
-294 236 -24 0
-212 -255 -285 0
69 -293 -73 0
166 -98 -242 0
-50 139 -274 0
-140 275 221 0
300 81 169 0
204 67 117 0
-180 55 -235 0
272 63 -186 0
276 -218 257 0
-85 64 188 0
37 206 -52 0
167 -91 -210 0
235 -147 -35 0
-85 240 180 0
-239 -72 -298 0
-245 -176 -126 0
-36 43 76 0
261 -105 -268 0
-75 -22 -116 0
-248 155 -91 0
-63 170 68 0
-245 -227 -174 0
95 106 44 0
225 122 -78 0
137 -227 14 0
208 276 -126 0
37 -145 -16 0
122 -256 63 0
216 140 -19 0
106 -202 276 0
-244 123 265 0
-88 108 63 0
81 -194 28 0
-24 -34 271 0
71 -24 21 0
262 -50 117 0
235 35 -261 0
-249 -54 282 0
193 -181 73 0
284 260 143 0
168 269 -58 0
245 -250 120 0
136 190 -230 0
-30 258 235 0
-156 -79 20 0
25 -264 -278 0
-179 -297 50 0
-188 -16 -184 0
-289 114 175 0
-252 -75 100 0
-217 221 -82 0
-297 -235 -72 0
-108 -35 157 0
-134 232 100 0
160 81 -24 0
28 -127 -7 0
211 216 74 0
109 105 165 0
194 49 -183 0
-3 -57 18 0
-286 -10 119 0
105 -150 -68 0
180 -224 -88 0
4 -250 -293 0
-201 5 219 0
-100 169 229 0
219 -167 242 0
144 59 28 0
180 174 166 0
-155 -52 -82 0
71 17 45 0
227 -117 196 0
286 140 208 0
-204 -159 -171 0
-55 -207 -255 0
143 297 55 0
170 -286 -28 0
-164 22 228 0
148 -63 -57 0
157 -187 -134 0
-88 202 17 0
74 184 -135 0
-153 -31 -292 0
-179 -5 -185 0
-51 -30 -229 0
-117 -163 133 0
-61 -82 -35 0
44 -115 -70 0
-81 62 101 0
154 125 233 0
-187 -223 -129 0
-64 268 191 0
254 31 125 0
-154 -13 177 0
231 -227 -148 0
2 -218 -29 0
278 279 153 0
-106 150 -192 0
-85 -225 227 0
-174 207 129 0
-237 123 25 0
-4 209 44 0
208 13 -17 0
-292 32 263 0
213 -160 -71 0
-77 207 -266 0
265 -112 124 0
-208 -295 -121 0
-269 -59 -169 0
75 -158 68 0
-238 216 45 0
219 160 150 0
-243 175 -295 0
-5 20 -97 0
46 -149 -4 0
95 242 64 0
83 -225 237 0
108 -110 -228 0
212 -291 -112 0
-226 -71 -2 0
-170 226 -239 0
73 -19 -30 0
-269 -214 162 0
-64 -36 67 0
-143 -164 -32 0
145 234 211 0
4 279 -183 0
240 -204 -43 0
87 238 -3 0
139 74 206 0
155 -254 -145 0
-221 109 71 0
-182 -270 -204 0
235 -270 -210 0
104 -48 -6 0
300 71 -31 0
246 -26 139 0
-176 -75 69 0
63 -143 -177 0
-119 226 -225 0
130 -234 227 0
13 -183 -1 0
142 216 219 0
105 265 245 0
20 -100 94 0
-277 -50 -210 0
-43 152 30 0
4 41 44 0
-150 164 -49 0
254 28 268 0
228 159 -210 0
-193 234 -19 0
-125 2 256 0
-74 -35 162 0
-120 23 170 0
155 103 280 0
250 -130 -37 0
-109 7 62 0
-144 -227 -293 0
9 153 -259 0
63 69 -113 0
287 268 128 0
-91 -78 185 0
-73 101 142 0
-163 64 -16 0
88 131 286 0
-137 251 270 0
-76 -271 100 0
118 291 111 0
274 71 -93 0
55 57 -224 0
-264 -50 -65 0
-93 -78 -114 0
-89 -278 237 0
80 -197 198 0
50 112 -222 0
-267 88 -253 0
-117 -3 -119 0
-6 135 -46 0
-28 -17 -63 0
100 104 -229 0
32 271 246 0
240 -79 47 0
-107 155 -222 0
254 -244 -235 0
-258 45 218 0
46 270 -189 0
99 -286 -197 0
70 147 139 0
-245 162 60 0
263 195 -105 0
-102 -29 -205 0
-136 212 193 0
228 -65 13 0
88 156 -288 0
4 -234 -19 0
33 183 -57 0
-82 -167 7 0
295 -183 108 0
255 -298 -209 0
-285 -150 -131 0
299 -282 228 0
202 -87 -6 0
-81 -224 152 0
-113 190 -1 0
13 293 280 0
-126 -134 207 0
-289 136 -154 0
222 -142 138 0
126 -289 12 0
253 -228 -163 0
186 145 232 0
53 -40 247 0
200 -175 41 0
71 131 214 0
-68 -46 -27 0
26 38 -171 0
-39 148 30 0
159 -278 87 0
277 -207 -173 0
-90 154 50 0
-15 46 -285 0
-294 -233 100 0
67 207 -203 0
45 10 -167 0
-94 -206 240 0
265 -188 -74 0
-209 -217 -201 0
-228 -191 -243 0
-17 -113 -220 0
208 119 77 0
247 -75 -76 0
135 157 212 0
-191 172 179 0
207 199 109 0
141 47 293 0
-53 -153 225 0
-20 -79 10 0
-60 229 266 0
52 89 290 0
121 56 188 0
-184 157 -175 0
139 285 -129 0
76 -174 -219 0
279 -193 163 0
-238 -277 -149 0
199 16 148 0
196 -260 182 0
232 260 209 0
-70 -200 138 0
-187 -273 46 0
170 13 26 0
-156 -159 188 0
243 -232 183 0
154 78 114 0
-206 -64 -56 0
24 -149 16 0
-194 -241 240 0
10 236 -156 0
-93 -295 140 0
221 -227 31 0
-49 -251 -284 0
-240 120 -171 0
-62 156 -283 0
-7 166 -177 0
293 208 -221 0
186 -220 -255 0
169 269 148 0
2 5 -139 0
92 -127 142 0
82 -264 283 0
-213 -72 -95 0
-153 114 -90 0
-76 -93 -279 0
-184 -230 -185 0
-207 -188 -226 0
12 -96 -10 0
-196 181 -127 0
-19 181 245 0
51 -64 12 0
-54 124 127 0
-53 229 151 0
25 -120 -102 0
-23 281 -120 0
-300 141 58 0
-231 -230 -153 0
209 -229 -264 0
169 291 -273 0
216 99 -31 0
168 204 -142 0
-272 257 -211 0
219 19 279 0
-81 -182 -211 0
-17 -123 -218 0
172 280 -45 0
-262 5 -209 0
10 -20 -64 0
218 104 -274 0
-34 120 4 0
172 193 -62 0
228 -49 -91 0
101 124 274 0
-65 55 182 0
213 56 106 0
189 118 -210 0
84 -83 216 0
223 76 222 0
-115 -260 7 0
260 -239 159 0
-170 276 -247 0
132 -72 68 0
-104 245 177 0
132 236 210 0
-181 188 -29 0
-91 -136 139 0
232 162 158 0
-43 260 134 0
-95 -250 -118 0
-91 -55 175 0
-201 -61 68 0
109 -250 -71 0
177 -113 212 0
174 -188 -152 0
269 -236 203 0
-106 206 -66 0
77 287 -80 0
76 -225 259 0
-264 -111 -81 0
43 -16 -109 0
185 95 -273 0
-165 25 102 0
17 38 -246 0
-241 80 76 0
69 235 140 0
-172 139 -100 0
167 -77 -288 0
168 240 -122 0
-141 31 213 0
-258 -233 -130 0
-158 -35 32 0
-118 -185 -24 0
-220 -106 214 0
71 -100 -93 0
-57 257 -268 0
-274 52 82 0
-147 278 54 0
-248 216 148 0
230 -206 -112 0
38 104 -170 0
-237 -234 -152 0
143 -235 -210 0
-140 -82 -221 0
-182 295 87 0
-115 -156 134 0
32 109 -54 0
203 -96 -298 0
-35 -218 -103 0
-212 -68 246 0
-70 -20 1 0
36 126 -108 0
-257 57 -132 0
75 139 -236 0
296 -194 -10 0
-30 176 272 0
10 -133 172 0
47 -85 83 0
187 37 133 0
183 -164 -214 0
255 -176 195 0
-187 27 -100 0
-178 -35 81 0
-22 180 112 0
207 -143 148 0
-113 -218 -42 0
-81 -92 -97 0
131 187 191 0
-177 -254 94 0
154 -25 -112 0
220 -273 -50 0
-147 103 285 0
-297 -251 11 0
-27 -183 133 0
-238 -291 117 0
-60 86 231 0
54 -71 -76 0
120 -55 -129 0
272 -73 50 0
-28 -142 -112 0
-96 -258 51 0
33 -92 -53 0
202 156 -229 0
-268 -272 -215 0
-35 186 -118 0
-34 46 103 0
-296 -107 291 0
-144 -99 -65 0
286 237 14 0
163 101 200 0
-269 -264 -276 0
-142 66 234 0
-140 212 -144 0
-45 -54 114 0
-131 14 -75 0
260 -257 -222 0
-52 126 132 0
90 298 -203 0
286 173 95 0
-66 144 -273 0
185 -160 79 0
133 -293 -36 0
-92 16 166 0
-54 -179 170 0
153 -102 84 0
259 17 62 0
282 179 -129 0
-138 -296 -157 0
138 90 -79 0
222 22 -65 0
182 -227 192 0
-112 15 -243 0
208 200 162 0
272 -250 217 0
-164 8 264 0
-111 225 -50 0
284 -2 184 0
-72 -87 101 0
175 268 -288 0
157 260 -38 0
-24 -265 -295 0
-248 -188 -10 0
-90 183 -102 0
-203 137 296 0
242 6 -214 0
-31 77 -185 0
-24 -28 -282 0
218 88 231 0
-260 55 -170 0
-55 52 193 0
-42 70 117 0
49 104 212 0
12 -287 22 0
-11 215 -5 0
10 20 -189 0
195 -214 -266 0
-87 239 252 0
-54 71 21 0
32 -38 -29 0
-264 87 -201 0
-221 -220 -295 0
-287 -21 92 0
-59 -258 80 0
-191 -271 50 0
166 256 238 0
184 174 -93 0
147 -228 -75 0
-66 -281 91 0
140 157 224 0
169 217 -222 0
-31 281 -25 0
54 -154 259 0
196 190 9 0
148 -188 51 0
-220 -33 79 0
-99 32 50 0
184 -138 79 0
236 253 16 0
117 -173 298 0
268 232 176 0
282 30 -27 0
176 14 62 0
-34 33 -39 0
-6 189 122 0
-121 -205 208 0
-142 68 -229 0
-35 -219 31 0
-65 240 -116 0
-74 100 -192 0
-185 281 77 0
168 -213 146 0
21 -189 22 0
15 -274 271 0
-298 -91 176 0
-286 -47 -39 0
-225 -245 -259 0
276 -81 269 0
-50 -32 -115 0
215 -103 161 0
-12 58 -139 0
101 149 -280 0
-154 -44 -113 0
93 201 -178 0
132 -91 -223 0
-84 290 -3 0
-208 -98 137 0
237 -127 -273 0
139 -87 217 0
115 -34 -147 0
-188 187 -5 0
-158 291 -215 0
-104 80 94 0
57 -1 -23 0
135 -134 107 0
-252 83 -80 0
-4 276 -14 0
-114 -54 -164 0
-215 177 -270 0
-106 83 232 0
-264 41 291 0
-40 218 103 0
-209 -37 -190 0
-132 78 -227 0
-247 111 -33 0
198 -65 -175 0
280 -112 -161 0
-31 -288 69 0
-12 -214 -92 0
106 -131 148 0
35 51 -283 0
-279 224 117 0
211 -14 196 0
257 249 -105 0
17 -220 -68 0
34 293 -50 0
-162 28 -85 0
283 292 224 0
210 -113 -111 0
243 216 112 0
167 283 -62 0
128 -160 2 0
-211 295 206 0
-62 94 162 0
221 -245 16 0
-182 -101 240 0
-132 -33 -227 0
236 -154 83 0
123 -62 -23 0
-277 256 -130 0
134 -242 206 0
-10 255 95 0
-263 253 247 0
195 57 -203 0
121 10 267 0
-205 -211 233 0
-59 -71 -41 0
-32 134 162 0
-212 27 159 0
68 286 125 0
-4 24 -120 0
151 -223 61 0
-261 153 296 0
265 12 92 0
-253 159 201 0
64 4 -222 0
-208 135 -74 0
-151 -228 -223 0
-18 -62 266 0
252 221 -41 0
-14 265 -132 0
-289 -82 68 0
-257 -136 -80 0
223 -86 -122 0
236 184 247 0
70 -168 -163 0
-65 -253 -4 0
276 -167 -24 0
-166 251 124 0
-276 105 173 0
-200 -151 -229 0
176 -100 76 0
93 17 -6 0
82 138 179 0
-61 -92 245 0
-48 -89 -169 0
224 -96 284 0
39 -24 49 0
199 -73 -82 0
-13 -82 -117 0
8 -201 -147 0
-68 109 -285 0
113 -154 -178 0
-89 130 94 0
73 -163 278 0
-298 14 299 0
88 2 -271 0
-200 120 -115 0
19 -129 184 0
-276 -197 -13 0
84 137 -259 0
264 31 -181 0
-131 -208 -49 0
157 -285 -149 0
114 -81 294 0
-46 217 234 0
255 -60 120 0
114 10 -163 0
-7 -163 210 0
75 66 -118 0
-181 39 234 0
-37 67 -111 0
92 -275 214 0
195 -118 -45 0
186 -127 245 0
-36 -207 299 0
125 -159 -174 0
-40 -134 -154 0
-65 -15 -231 0
-109 190 274 0
137 -277 -7 0
21 -243 184 0
250 -8 248 0
244 -175 126 0
-257 165 -275 0
49 152 -252 0
179 221 -255 0
-100 -1 42 0
-65 165 -123 0
-201 208 291 0
-37 -269 -246 0
-31 284 106 0
-245 298 -204 0
158 -225 -300 0
-199 229 278 0
152 122 47 0
-154 235 4 0
-115 220 -5 0
-199 -175 -62 0
88 -7 -132 0
-164 53 -34 0
-284 89 198 0
62 -39 110 0
-253 217 -226 0
254 270 -54 0
92 -72 -299 0
83 -5 99 0
102 109 131 0
-158 -225 -285 0
-177 70 82 0
-200 -157 -239 0
-62 200 -39 0
169 -268 115 0
-143 -177 35 0
293 172 137 0
-62 279 -168 0
-212 -197 -66 0
272 255 -198 0
127 -131 68 0
-74 167 -160 0
-157 141 -266 0
-221 102 41 0
-23 205 -28 0
-210 6 260 0
261 -14 -184 0
-218 168 -241 0
-185 197 -300 0
-186 -175 55 0
264 -248 258 0
184 101 -4 0
-206 179 182 0
-101 71 149 0
-149 259 61 0
-67 117 -199 0
168 199 263 0
-114 242 37 0
-254 268 274 0
221 208 61 0
-265 -294 -25 0
-3 51 179 0
-232 -258 270 0
-285 257 -127 0
144 -40 62 0
248 17 -87 0
31 202 -262 0
47 -128 268 0
-34 7 -71 0
140 237 265 0
2 255 94 0
243 -82 19 0
282 158 169 0
-44 -46 216 0
217 297 -167 0
-66 227 55 0
-258 233 298 0
-155 -44 -124 0
273 -274 -89 0
146 -8 79 0
288 271 258 0
-186 -127 -223 0
28 -126 252 0
-266 292 -216 0
-172 -192 18 0
-251 64 131 0
80 102 -94 0
221 -178 46 0
194 181 90 0
-241 102 -181 0
-117 -189 220 0
10 93 194 0
125 -123 289 0
-114 -27 151 0
-9 -174 266 0
-152 277 -59 0
-69 223 49 0
-143 76 125 0
197 4 -230 0
-150 -230 41 0
292 130 127 0
-81 13 -54 0
245 -88 124 0
80 222 267 0
186 -35 -180 0
188 -164 232 0
-242 69 -67 0
300 184 -92 0
156 -120 -86 0
-123 234 73 0
-186 23 -143 0
-137 49 2 0
-72 153 245 0
-49 53 -66 0
136 205 -201 0
-54 53 24 0
-89 -94 122 0
113 -177 -66 0
-148 63 285 0
-147 -271 18 0
192 -184 86 0
167 280 188 0
-57 -79 70 0
-120 -185 179 0
109 218 32 0
-225 80 276 0
103 -86 -205 0
-106 51 213 0
186 251 240 0
-261 -251 187 0
254 -76 169 0
218 -7 -141 0
-97 253 120 0
141 -34 -133 0
241 138 -182 0
-44 -19 113 0
75 -103 169 0
-172 -56 -244 0
51 234 -195 0
-179 224 -67 0
297 -270 -141 0
-23 -87 -22 0
-203 -261 -230 0
3 -142 -282 0
-36 -87 -237 0
-75 247 -9 0
-235 -135 -53 0
106 162 -70 0
-284 124 -181 0
234 239 -263 0
147 -176 180 0
215 -43 -38 0
-88 -118 52 0
-70 187 -199 0
-111 25 88 0
7 -261 68 0
235 89 -125 0
196 119 296 0
286 253 71 0
244 84 194 0
-202 -191 249 0
16 -168 256 0
-169 211 -300 0
-120 298 -188 0
30 139 -159 0
-227 72 94 0
40 -243 56 0
-109 27 113 0
-116 157 9 0
293 -294 168 0
-68 209 -198 0
-160 233 22 0
34 -94 -151 0
-120 -185 -23 0
-55 -88 198 0
-22 -157 281 0
116 101 -161 0
182 -163 12 0
-54 110 191 0
35 81 100 0
25 -219 212 0
-168 116 190 0
234 -263 59 0
-106 -279 -234 0
205 -285 130 0
-79 233 -271 0
138 -232 13 0
202 223 196 0
-32 50 -69 0
20 51 57 0
-196 -104 -58 0
-66 -216 -175 0
300 229 172 0
-16 183 -34 0
-135 162 136 0
224 213 -207 0
-137 135 -270 0
14 -245 -228 0
84 170 70 0
-116 94 -281 0
-13 -248 238 0
181 240 168 0
-97 -258 83 0
-191 214 268 0
-160 253 279 0
-170 266 -277 0
111 -290 -79 0
-86 171 43 0
199 -217 -211 0
-267 -195 95 0
100 -105 -178 0
-142 -37 -257 0
246 219 60 0
-225 -108 -30 0
-153 226 38 0
151 58 68 0
-183 87 174 0
226 161 -171 0
253 -153 120 0
276 92 -32 0
-196 179 -200 0
65 -8 -172 0
149 -131 283 0
-42 210 -145 0
-46 -5 294 0
116 -78 -152 0
203 -35 145 0
173 237 -5 0
-200 -286 66 0
172 276 195 0
-37 127 135 0
-297 160 1 0
300 256 241 0
-33 269 246 0
150 -130 232 0
233 -125 -58 0
-220 135 -86 0
85 -180 -105 0
-78 -280 174 0
163 -133 178 0
-257 -283 -187 0
-51 176 5 0
-231 -272 -83 0
219 -58 -236 0
290 61 38 0
-257 -219 -103 0
285 87 94 0
32 103 -110 0
-147 300 -20 0
-13 -37 -196 0
-272 204 32 0
-19 -56 -154 0
289 229 -46 0
-235 -91 167 0
124 -216 138 0
-77 161 -26 0
2 -171 124 0
74 -29 68 0
-250 -164 77 0
213 39 -58 0
285 -239 -44 0
74 -295 285 0
-127 60 297 0
221 -214 97 0
270 292 -218 0
127 180 -161 0
66 140 -67 0
-240 -183 -296 0
-68 165 -29 0
246 130 86 0
-200 -81 -168 0
-176 92 -215 0
-19 236 -57 0
5 -116 149 0
-170 -163 213 0
-267 5 -264 0
-11 -232 38 0
-140 220 -138 0
-252 -250 43 0
23 -105 102 0
-191 271 -138 0
125 -61 -158 0
65 -94 -201 0
-230 263 173 0
-73 280 81 0
-127 26 -156 0
23 251 59 0
46 123 -240 0
202 138 -238 0
115 129 66 0
-134 96 260 0
144 171 -134 0
-39 -7 -144 0
182 -290 -285 0
-241 2 59 0
112 -149 141 0
-261 50 174 0
273 157 -133 0
71 140 -97 0
153 126 278 0
281 153 -27 0
-223 -63 206 0
56 262 -39 0
-42 158 243 0
130 148 -267 0
-96 -1 253 0
168 176 -278 0
-28 -76 -280 0
-127 -278 103 0
-120 240 153 0
90 -140 -230 0
271 215 -54 0
-91 54 192 0
250 -286 -159 0
-208 -18 236 0
-257 -150 -96 0
-203 132 146 0
213 -161 145 0
264 -97 109 0
291 -88 161 0
-76 -136 -35 0
137 -67 -64 0
42 238 -199 0
115 89 287 0
122 -48 -245 0
200 157 -284 0
175 -2 59 0
-77 -282 -207 0
110 252 -131 0
-156 48 -129 0
-221 -57 -194 0
86 -74 -98 0
-244 232 271 0
-26 -70 119 0
47 -5 253 0
-237 -112 -11 0
-177 -42 -108 0
224 -76 268 0
-210 241 -120 0
-291 -253 2 0
111 -295 -299 0
222 112 270 0
-9 165 74 0
27 -279 -210 0
-204 110 -51 0
209 -99 -54 0
177 287 -192 0
130 -153 -197 0
-289 139 -12 0
-75 234 243 0
154 -133 -170 0
-145 -210 160 0
64 121 77 0
97 31 12 0
-115 -208 282 0
-272 83 -28 0
230 -266 -233 0
66 64 -105 0
126 -154 -300 0
-280 242 138 0
217 -264 145 0
-278 -257 -170 0
-154 44 73 0
298 -205 -241 0
-17 140 -226 0
73 9 231 0
-25 -239 45 0
237 95 -16 0
-49 -250 -252 0
228 128 9 0
46 -117 -185 0
196 -11 211 0
245 -233 -55 0
-43 -12 84 0
108 -22 151 0
-229 -67 -156 0
116 72 -98 0
-117 217 -175 0
-258 -165 -160 0
-12 145 -13 0
98 173 260 0
-182 -221 -60 0
-284 -42 -185 0
108 198 137 0
-14 -195 170 0
90 162 137 0
-183 -145 -286 0
267 -198 259 0
-164 281 292 0
178 -26 -34 0
243 -104 -244 0
59 295 273 0
15 -115 -223 0
19 -111 77 0
240 -294 -218 0
-74 -174 274 0
131 -266 -56 0
-285 189 -42 0
123 -44 117 0
284 170 80 0
-265 -294 -187 0
111 -36 -231 0
-40 90 -208 0
-121 126 102 0
47 46 286 0
-217 -21 -170 0
-141 212 -112 0
-215 -231 -229 0
135 -111 238 0
-38 -80 -120 0
27 170 237 0
253 33 -105 0
102 152 -274 0
-231 -73 -253 0
292 201 221 0
-173 -33 282 0
-188 -72 202 0
31 34 -189 0
-231 132 -64 0
-42 132 1 0
238 54 -45 0
40 9 55 0
201 -63 -285 0
54 -89 -80 0
-30 296 -103 0
-26 133 -201 0
-278 23 99 0
250 -50 -269 0
153 165 182 0
188 254 129 0
-183 -15 226 0
296 126 -169 0
248 137 236 0
89 -211 -201 0
-273 -157 158 0
61 -103 -249 0
11 187 25 0
