p cnf 300 1278
-188 68 115 0
-233 62 -37 0
-33 -53 -47 0
207 -103 155 0
232 34 -130 0
-52 -165 -140 0
214 58 51 0
195 158 83 0
32 -5 -183 0
197 88 -285 0
-199 -235 -270 0
219 286 -260 0
-180 197 34 0
19 33 -55 0
-80 -291 152 0
274 -239 25 0
77 130 -3 0
-37 202 -298 0
-113 -289 194 0
-181 -27 -235 0
-100 280 176 0
103 -33 -50 0
-141 -263 64 0
-28 92 33 0
262 140 -252 0
-34 230 26 0
-15 247 -137 0
144 -286 -87 0
251 -255 85 0
45 272 -242 0
-252 -82 -36 0
7 94 141 0
127 -258 -204 0
57 152 261 0
-62 -42 38 0
104 162 10 0
255 34 45 0
-253 -191 -18 0
263 -292 121 0
231 -133 177 0
56 -60 -97 0
67 117 147 0
177 -33 193 0
-60 149 183 0
-247 -44 57 0
254 44 256 0
-94 -135 6 0
119 241 24 0
-106 -146 12 0
-234 -114 -175 0
-218 136 122 0
107 230 9 0
-233 -59 300 0
278 -123 -265 0
-252 -107 -100 0
128 -183 -216 0
150 -254 139 0
-160 282 56 0
246 -253 -206 0
-76 -115 -41 0
49 -289 -57 0
42 173 -147 0
88 -148 -188 0
239 117 114 0
79 -167 153 0
1 151 -170 0
145 62 201 0
-82 283 284 0
99 -163 -285 0
197 201 -202 0
142 178 300 0
279 231 -160 0
80 -203 -30 0
-148 -172 -214 0
72 190 -141 0
-287 299 -209 0
157 -231 -145 0
-252 -115 142 0
197 294 153 0
69 -196 140 0
204 172 -90 0
-297 -180 128 0
244 84 -214 0
-65 -226 255 0
-27 178 -180 0
-165 -58 181 0
-160 -75 -253 0
92 269 53 0
279 -35 116 0
199 -94 -34 0
170 29 -230 0
-249 155 -107 0
175 -96 -200 0
-234 -232 -70 0
-111 3 57 0
43 188 -178 0
47 91 -101 0
-117 -266 -269 0
-124 296 101 0
9 -274 -80 0
-163 157 131 0
-103 -290 -16 0
-96 -67 -24 0
-229 128 148 0
-55 -44 48 0
-207 -178 208 0
-14 145 -42 0
-125 -13 89 0
269 35 134 0
-212 116 -100 0
143 -77 263 0
-269 -132 163 0
-33 -161 218 0
-168 231 20 0
-73 -17 -234 0
-3 274 60 0
-186 -60 165 0
244 -151 278 0
-84 230 -111 0
208 83 48 0
-278 -76 120 0
108 265 240 0
-231 -257 -190 0
21 -177 -271 0
131 38 291 0
158 159 87 0
-87 205 -300 0
-124 -121 -71 0
-263 99 -277 0
-13 268 -186 0
104 28 227 0
174 -129 1 0
205 -10 -199 0
235 225 -30 0
-237 -242 138 0
15 43 -253 0
-73 48 -111 0
-178 208 -65 0
-258 -269 61 0
-240 -295 26 0
49 196 -265 0
10 -119 279 0
159 77 161 0
-267 -232 -213 0
9 287 115 0
-226 -268 -7 0
-84 293 -253 0
107 -287 33 0
254 79 143 0
283 264 -298 0
90 -23 -9 0
205 244 -24 0
141 -24 -72 0
56 31 87 0
292 -182 -38 0
150 221 168 0
-76 -161 -183 0
-257 -270 44 0
155 -146 169 0
-184 -193 202 0
25 -47 232 0
246 258 102 0
-177 -100 -183 0
-211 154 -178 0
-132 -194 -22 0
235 30 181 0
-63 -77 104 0
286 298 120 0
222 -10 143 0
280 -52 -99 0
259 7 176 0
-270 -112 240 0
-168 -147 52 0
243 -179 -72 0
-241 244 150 0
288 62 -112 0
80 283 68 0
126 266 -262 0
153 -232 150 0
-44 133 -203 0
-207 -250 186 0
-153 -277 260 0
-184 175 248 0
-226 110 -17 0
22 134 167 0
233 -103 -60 0
183 154 10 0
-12 45 84 0
-26 28 -200 0
-150 -237 -202 0
273 103 260 0
-59 73 210 0
228 266 -265 0
2 223 -186 0
65 -74 -45 0
279 -112 62 0
240 13 -231 0
295 -95 -77 0
-44 53 -205 0
114 -36 -45 0
177 59 42 0
294 -110 269 0
8 233 85 0
185 -12 -210 0
179 -290 -25 0
125 -288 -64 0
-300 -263 -299 0
51 -36 169 0
229 -297 190 0
-156 -93 -131 0
-58 -6 -166 0
262 -99 -175 0
-132 256 -135 0
235 -40 -91 0
10 142 230 0
272 282 142 0
260 42 -206 0
151 27 -25 0
-282 257 -45 0
188 -81 13 0
135 24 186 0
274 49 -257 0
11 115 -271 0
195 288 -257 0
-94 -70 244 0
192 223 -173 0
16 -136 -270 0
-215 160 280 0
-233 -116 22 0
15 -107 -157 0
-241 220 -14 0
110 -227 -59 0
-253 -212 -164 0
101 268 -289 0
-80 132 257 0
-119 -250 -98 0
-163 -215 -131 0
-281 -78 -18 0
75 17 -183 0
-252 91 -63 0
-70 134 240 0
-182 -299 -34 0
160 -17 187 0
247 -146 -131 0
-49 217 -295 0
158 -168 258 0
-140 -169 28 0
74 -8 179 0
279 208 246 0
-268 -280 -95 0
271 280 216 0
-269 11 -246 0
50 27 100 0
113 76 160 0
-56 -196 -65 0
163 -286 -267 0
22 -114 135 0
116 274 74 0
-81 -193 172 0
21 173 292 0
141 -281 -56 0
223 31 10 0
216 94 194 0
219 -85 178 0
94 164 -247 0
-283 -258 -79 0
218 29 216 0
186 221 -126 0
107 -73 -232 0
266 -264 165 0
94 192 -224 0
-101 296 25 0
141 -221 145 0
-85 -270 175 0
139 125 -286 0
175 285 -162 0
-296 -185 -167 0
51 -15 41 0
23 -114 -180 0
291 41 43 0
-262 -232 -49 0
-196 -263 -37 0
51 -278 -7 0
-275 -95 -146 0
212 -299 -134 0
135 -17 -14 0
-92 -6 272 0
46 44 -136 0
172 -210 -43 0
-134 -137 108 0
-93 -295 -238 0
-281 -26 56 0
-125 -227 -190 0
-214 -193 7 0
84 -62 -221 0
-143 -79 -121 0
-250 -166 -200 0
-60 -117 234 0
-95 -107 -162 0
-133 -269 -121 0
17 -294 -174 0
-194 280 299 0
-160 -272 165 0
22 241 -135 0
105 83 -59 0
-183 -223 -110 0
147 -257 -293 0
67 233 -71 0
-43 -39 -67 0
91 -115 -121 0
2 57 -192 0
286 -279 -67 0
147 193 -6 0
-221 -82 -131 0
-110 18 -129 0
-221 11 57 0
-219 48 105 0
245 99 -90 0
68 -86 -177 0
-80 -170 275 0
-40 196 -89 0
160 -283 147 0
-104 -273 161 0
145 -113 -120 0
12 -291 31 0
38 117 225 0
-209 -82 -124 0
-139 45 299 0
-112 -187 90 0
19 -211 214 0
107 267 -236 0
19 48 -98 0
182 131 -76 0
151 2 242 0
-10 104 233 0
34 -106 -37 0
158 69 -107 0
-42 -35 236 0
-293 113 295 0
172 278 27 0
100 -261 -216 0
-284 127 -180 0
248 -266 -97 0
289 269 106 0
230 174 -60 0
-228 47 29 0
202 99 -222 0
138 -295 141 0
242 -270 -95 0
84 281 203 0
-132 171 203 0
-154 -2 196 0
-129 293 -263 0
-262 8 170 0
-132 116 -9 0
-100 269 -196 0
99 -238 15 0
242 -37 -177 0
-225 79 200 0
-210 -284 60 0
-59 7 -73 0
-72 -228 8 0
-44 64 -57 0
-136 253 -31 0
145 156 -186 0
-154 94 184 0
115 -235 -124 0
-232 -249 116 0
-229 -98 -42 0
178 190 41 0
-20 206 -276 0
-98 -197 -127 0
108 -205 -6 0
-33 -173 -162 0
144 175 -72 0
-198 76 -29 0
57 -130 295 0
172 232 109 0
-244 -282 -140 0
-230 -74 111 0
-26 -12 109 0
-2 114 -286 0
216 -132 104 0
170 -226 -191 0
-130 -277 291 0
-122 -277 4 0
-1 -201 280 0
-32 -210 31 0
-49 279 251 0
-257 60 225 0
274 -163 156 0
-148 -273 74 0
222 68 42 0
177 214 271 0
26 214 108 0
255 -236 -96 0
25 35 -168 0
-40 -141 96 0
-177 -285 252 0
-200 -267 62 0
-251 -175 296 0
273 -37 -163 0
100 -266 -116 0
164 -183 213 0
158 271 274 0
288 -195 -285 0
292 204 107 0
-291 -38 -292 0
149 -101 130 0
-276 -44 -252 0
103 -92 109 0
203 -192 -115 0
-109 -122 -155 0
88 222 -93 0
54 274 -199 0
239 287 130 0
-273 -8 -172 0
-7 74 -87 0
64 -190 118 0
244 294 -202 0
-27 153 -100 0
-95 -37 87 0
160 -166 -143 0
-133 -187 173 0
-233 -171 -219 0
-133 -256 -124 0
-4 -172 120 0
-83 -62 68 0
-156 -235 -184 0
268 195 81 0
-290 -256 -177 0
-234 70 -227 0
60 -16 5 0
90 -203 195 0
-105 -199 -284 0
-243 35 93 0
-44 -213 -104 0
-92 227 -143 0
-184 32 25 0
-102 55 -14 0
-40 -18 84 0
103 3 -34 0
89 184 -12 0
-132 111 255 0
296 -98 -250 0
196 236 255 0
181 -109 -61 0
38 -297 -124 0
-40 -174 -263 0
-77 -217 -214 0
-267 -62 31 0
226 -185 -259 0
-207 9 -191 0
175 -219 -18 0
-281 -163 -149 0
73 -238 -29 0
-34 -237 -125 0
205 -66 272 0
-246 245 -144 0
142 -184 -251 0
222 -35 53 0
266 -11 -40 0
-216 163 54 0
26 39 -289 0
181 -109 278 0
88 -112 256 0
-82 142 -265 0
25 116 90 0
-12 -15 156 0
-124 -123 -246 0
-111 -128 -64 0
-9 278 198 0
93 -52 -158 0
245 104 276 0
190 -267 -24 0
58 -72 207 0
-143 -134 230 0
-26 223 227 0
-2 57 -80 0
290 37 209 0
-123 41 -300 0
-254 295 112 0
42 183 12 0
14 243 -55 0
180 231 203 0
-279 264 167 0
296 268 292 0
-55 49 -61 0
-163 -51 220 0
-237 -153 -99 0
-250 44 -155 0
-229 -270 -183 0
166 -210 -64 0
222 165 104 0
-45 110 -85 0
204 132 -50 0
-149 -207 -147 0
-210 64 -120 0
-230 -190 -36 0
211 56 300 0
209 249 -55 0
-106 180 -181 0
-150 179 -31 0
-118 -137 -54 0
-239 219 107 0
-133 84 297 0
-34 59 -88 0
70 -5 42 0
-230 112 -209 0
-220 86 201 0
55 298 81 0
-169 75 -233 0
-84 44 110 0
-148 86 248 0
130 -94 -92 0
-293 178 -81 0
-216 -200 14 0
-214 -177 231 0
271 -38 246 0
271 -31 -146 0
-158 115 -193 0
-177 99 146 0
-88 216 -230 0
84 255 238 0
-202 84 -8 0
-133 -135 143 0
-202 -101 7 0
-93 -81 6 0
-180 -162 133 0
-114 53 -222 0
-74 114 -75 0
-10 -46 -296 0
260 -36 -206 0
-253 64 -229 0
-152 206 288 0
-87 189 296 0
-142 -261 -279 0
157 -266 151 0
-124 -6 43 0
-285 161 -271 0
-5 -269 148 0
118 -260 -87 0
-198 -271 99 0
-114 -269 124 0
125 161 27 0
193 161 59 0
300 -290 175 0
274 -131 135 0
-30 91 -297 0
202 14 68 0
-227 85 163 0
139 -152 -190 0
-65 -243 110 0
101 72 -250 0
-122 81 271 0
-202 150 -76 0
-272 -298 -200 0
-255 -239 -122 0
-51 -94 -273 0
-262 100 222 0
149 145 254 0
-264 202 -36 0
190 -151 -218 0
83 -149 300 0
154 -89 4 0
-109 -2 161 0
25 -110 231 0
154 255 185 0
114 -107 -93 0
274 29 -192 0
61 -210 220 0
174 22 -147 0
113 -172 204 0
-176 -59 198 0
-150 -267 98 0
-139 75 34 0
-185 -85 -291 0
-262 91 48 0
143 89 -249 0
124 90 -96 0
202 -95 160 0
-231 -91 79 0
-249 -38 -89 0
132 300 292 0
126 111 176 0
-242 122 235 0
-131 33 3 0
90 137 -206 0
-52 -150 175 0
-275 -162 196 0
-175 -287 120 0
81 17 288 0
-100 -208 222 0
-33 -202 229 0
-16 -7 283 0
-118 -40 213 0
281 274 111 0
262 61 88 0
-239 -125 -93 0
-201 298 -279 0
124 220 54 0
-212 54 -239 0
-165 277 -68 0
23 193 -217 0
189 -172 2 0
278 176 -125 0
15 32 -59 0
-206 -29 -211 0
120 -112 -279 0
255 138 260 0
-216 -71 -91 0
211 -135 250 0
170 105 281 0
-273 233 -262 0
153 -111 -151 0
77 -46 82 0
-253 -36 28 0
-72 -108 166 0
-29 244 -26 0
-209 28 214 0
-98 103 -196 0
-286 -259 236 0
261 -258 164 0
-23 -21 226 0
-165 13 7 0
101 159 -191 0
-104 -138 -15 0
159 -287 226 0
-68 39 142 0
-76 -24 70 0
84 73 -203 0
-201 20 172 0
297 -236 219 0
181 217 31 0
298 -276 -279 0
184 58 14 0
188 155 149 0
-35 125 -153 0
95 -249 -124 0
-288 -36 9 0
230 278 -31 0
86 116 172 0
-41 8 294 0
236 82 219 0
239 -56 278 0
130 75 50 0
-161 105 -112 0
-18 231 235 0
214 -105 -2 0
216 273 -279 0
145 -99 -144 0
-74 -133 -1 0
74 146 -290 0
262 253 57 0
281 263 -294 0
-227 121 -130 0
-124 -183 211 0
184 238 44 0
199 -241 -262 0
-232 -245 128 0
-290 53 -56 0
153 -134 257 0
295 -2 -200 0
232 202 -142 0
-269 -275 110 0
-97 186 -174 0
-186 209 255 0
19 -25 -239 0
249 -135 274 0
-58 118 -75 0
189 237 215 0
-61 199 51 0
78 -211 248 0
57 -11 -153 0
15 -154 -1 0
-267 218 -127 0
-59 41 -106 0
-59 -70 -71 0
-186 -74 -109 0
297 -289 283 0
72 -224 -277 0
188 -166 -290 0
171 -99 -16 0
-249 -117 13 0
-169 151 -280 0
92 136 -31 0
99 -40 85 0
299 -101 -19 0
207 267 147 0
41 -241 -24 0
201 234 45 0
-249 85 -76 0
-47 125 64 0
109 284 263 0
119 84 -46 0
-13 215 130 0
112 295 124 0
98 228 -180 0
-92 -178 -242 0
3 134 -272 0
183 55 -3 0
-114 222 -88 0
32 99 11 0
35 70 268 0
-199 105 -205 0
-152 35 16 0
-51 155 103 0
38 -79 -184 0
152 -195 -171 0
-168 221 261 0
157 -206 8 0
30 -246 201 0
84 154 242 0
128 -293 -263 0
-220 72 -168 0
29 -299 260 0
-275 -119 58 0
99 -295 67 0
-94 44 243 0
-114 214 -24 0
229 60 80 0
262 -168 -65 0
114 43 -272 0
204 171 43 0
-171 130 -271 0
210 94 -277 0
-119 -130 291 0
-61 -68 104 0
287 -221 6 0
111 -288 -247 0
114 207 -228 0
18 -105 -76 0
-199 95 -227 0
-150 238 -134 0
293 66 -278 0
95 -96 76 0
-137 -57 -163 0
151 -263 105 0
145 270 -95 0
-248 241 38 0
249 -187 -101 0
85 264 168 0
-289 175 -177 0
-133 -168 -144 0
141 20 22 0
9 105 198 0
269 261 142 0
-124 13 -96 0
167 -300 -210 0
-90 -166 169 0
-23 -51 -185 0
-300 222 -106 0
22 -258 205 0
-261 12 -283 0
-151 149 247 0
282 158 172 0
-168 128 275 0
-234 -65 280 0
-45 -116 245 0
-194 273 163 0
28 -194 47 0
-297 -50 -180 0
253 -153 -174 0
193 155 281 0
-102 -222 -215 0
296 -41 58 0
97 218 -34 0
-55 101 -144 0
-177 14 194 0
-246 230 217 0
-171 -86 -48 0
251 284 172 0
-292 43 241 0
137 -39 -257 0
177 -166 171 0
111 83 -77 0
233 101 -296 0
-191 23 151 0
85 -288 7 0
-73 231 -43 0
-125 -6 -269 0
114 -103 -117 0
207 294 201 0
-96 197 192 0
12 260 128 0
-274 -252 -56 0
-250 31 -101 0
1 31 -21 0
3 -12 -271 0
-22 108 183 0
-280 279 -134 0
-78 228 25 0
-171 181 -209 0
-294 85 -64 0
-275 157 -217 0
-287 95 134 0
-153 -97 264 0
97 -103 -119 0
194 142 200 0
21 -279 -50 0
223 -216 4 0
-129 281 -101 0
108 -36 -191 0
20 -178 53 0
-201 -151 116 0
6 -277 -116 0
237 240 -69 0
174 220 -263 0
161 186 22 0
-15 39 -236 0
-232 73 157 0
19 -194 -179 0
-9 -169 16 0
232 -115 -139 0
-247 259 3 0
-53 -40 82 0
-54 -240 280 0
-81 189 254 0
8 -192 -161 0
-259 -71 -251 0
102 -28 -294 0
108 -29 -261 0
75 -109 -141 0
-15 -66 3 0
129 282 -68 0
-199 -287 -127 0
-69 -116 220 0
-119 284 -204 0
-38 199 -72 0
16 26 273 0
231 55 213 0
-290 -163 -5 0
-14 -26 54 0
135 -200 149 0
-293 129 -247 0
-58 9 -164 0
243 -255 -15 0
105 163 -119 0
269 -80 291 0
-260 -278 55 0
-13 238 85 0
-215 162 -255 0
-147 18 276 0
-132 -96 -156 0
-217 298 -55 0
-234 169 -146 0
-86 12 -66 0
193 -296 50 0
-34 -68 -74 0
112 -140 263 0
-127 87 296 0
-253 -96 8 0
-2 -156 199 0
-266 106 190 0
145 234 -110 0
-110 -25 220 0
252 216 -99 0
19 -157 46 0
-170 -88 -62 0
-125 189 -80 0
-67 -90 201 0
107 -33 -10 0
111 71 -101 0
297 -83 259 0
232 70 -19 0
93 -72 -80 0
-77 -82 -14 0
258 -254 133 0
-291 -144 -245 0
81 -74 -47 0
296 -106 -83 0
-142 -39 -281 0
-163 173 221 0
-244 285 86 0
21 -69 -277 0
51 104 261 0
215 -234 -192 0
98 220 18 0
168 253 119 0
262 -180 -152 0
-35 262 20 0
39 -129 231 0
290 -147 24 0
-49 197 -147 0
-94 143 70 0
-170 103 -65 0
-204 -83 179 0
153 -283 -117 0
99 -83 231 0
242 144 96 0
-18 194 -166 0
11 -58 -66 0
40 134 -287 0
195 -297 247 0
79 179 25 0
-189 -276 -52 0
173 262 63 0
-157 -123 -41 0
-102 -151 -271 0
71 191 151 0
169 57 -36 0
171 -24 -155 0
-223 216 227 0
150 103 135 0
18 -9 -203 0
-159 183 41 0
-93 220 -191 0
215 95 -76 0
-174 -162 233 0
237 -12 144 0
125 -190 75 0
151 -30 132 0
241 291 270 0
73 -133 89 0
-190 -108 282 0
-32 130 -197 0
244 -51 -43 0
-43 247 214 0
42 145 172 0
-1 222 -57 0
152 149 -167 0
2 -34 -99 0
-298 81 115 0
-159 1 -48 0
277 208 -91 0
128 286 -201 0
-123 -230 -97 0
-19 -249 -167 0
181 -267 47 0
-159 -178 -106 0
-143 232 -138 0
-193 225 261 0
238 -33 77 0
-167 -54 136 0
-277 -177 87 0
91 -125 159 0
25 -24 16 0
-106 32 117 0
-58 -158 91 0
205 227 209 0
22 123 299 0
-30 163 143 0
240 68 269 0
-194 -130 22 0
-241 149 -138 0
-138 -177 83 0
-113 -26 -224 0
-261 231 281 0
229 -264 145 0
88 130 -283 0
-243 -269 -116 0
295 234 -251 0
196 -107 -223 0
-67 255 175 0
242 192 -193 0
-88 -132 243 0
170 239 227 0
-36 -35 272 0
224 -270 -25 0
185 300 -171 0
265 -152 60 0
204 -37 111 0
90 110 -125 0
-80 -287 223 0
246 -160 -102 0
131 34 144 0
-265 196 -56 0
-146 245 222 0
-49 -12 223 0
259 213 -283 0
213 221 126 0
1 -115 263 0
187 -226 -153 0
-280 247 -219 0
36 22 277 0
-189 -283 31 0
-97 -209 -99 0
-116 -138 -105 0
-112 173 131 0
-297 -31 92 0
15 -154 -254 0
-58 147 39 0
-103 -18 126 0
7 -27 66 0
46 -84 -60 0
-278 141 -285 0
-73 102 -127 0
-185 -168 272 0
-89 -45 -127 0
86 -173 -200 0
235 91 -243 0
186 -65 -272 0
12 -133 273 0
220 280 67 0
-267 253 -234 0
283 -106 290 0
-269 -232 -207 0
-41 93 -45 0
-151 101 -133 0
89 -67 144 0
-163 287 86 0
180 53 106 0
7 -211 53 0
-235 -121 -81 0
50 -179 275 0
-97 -151 155 0
-125 260 222 0
283 108 -66 0
186 250 241 0
-281 256 289 0
57 292 -277 0
-267 247 -42 0
-169 -231 184 0
182 131 58 0
151 68 152 0
-68 -66 211 0
136 -165 232 0
-70 -277 -203 0
124 -123 243 0
170 156 234 0
88 -159 291 0
-113 -40 -165 0
147 -285 -28 0
-174 -121 -75 0
-253 -90 -225 0
-60 -268 -153 0
-289 -14 -175 0
-299 209 11 0
108 -201 226 0
155 -181 293 0
-236 94 165 0
44 252 -5 0
-139 -229 -105 0
-62 -192 157 0
160 90 13 0
5 52 -182 0
272 -9 -190 0
127 -192 247 0
-73 -261 118 0
-178 -197 -33 0
-253 105 132 0
-167 63 11 0
25 -271 -4 0
-143 261 -257 0
-7 -17 97 0
42 -146 -22 0
204 -130 147 0
121 -153 -263 0
220 -114 -54 0
265 -298 285 0
275 93 282 0
-141 132 17 0
281 220 269 0
-90 -219 199 0
129 181 -39 0
157 283 -17 0
168 200 -1 0
-208 -89 117 0
202 144 -138 0
-78 -145 151 0
272 242 -2 0
155 52 199 0
-161 286 293 0
-98 -262 134 0
-151 255 19 0
-268 -158 -128 0
172 -145 -107 0
54 31 225 0
-295 -35 -150 0
-123 66 -95 0
258 145 -4 0
-293 -88 -42 0
-223 110 9 0
183 236 40 0
218 175 261 0
-232 290 -109 0
246 -118 -219 0
-21 35 245 0
-142 178 86 0
-166 -112 -268 0
-38 -142 -257 0
-263 -123 34 0
-280 222 -289 0
117 282 -253 0
-128 245 54 0
153 -251 -72 0
91 -184 85 0
162 138 -234 0
-143 234 202 0
168 -53 113 0
-252 -29 15 0
-14 258 171 0
-3 234 -43 0
65 38 45 0
67 35 -94 0
156 176 153 0
-86 -244 -99 0
-107 -254 119 0
244 241 250 0
42 188 -289 0
15 72 -268 0
8 -263 -219 0
92 -252 -89 0
183 3 129 0
203 132 -111 0
-149 -260 -290 0
-85 -60 -244 0
-151 -18 25 0
-246 -95 2 0
230 104 175 0
-159 -137 33 0
-88 -265 37 0
288 -187 -276 0
-217 78 -195 0
131 177 -188 0
138 146 -196 0
-22 -144 71 0
298 -21 -185 0
-286 -79 221 0
106 -16 292 0
295 123 11 0
146 69 -131 0
157 112 -298 0
-83 -194 174 0
-32 180 182 0
253 133 -107 0
-189 70 107 0
157 -263 198 0
-238 -298 261 0
131 -242 -114 0
91 151 -14 0
-184 227 145 0
18 -48 -273 0
177 14 182 0
114 283 227 0
80 96 286 0
-71 -293 -185 0
67 109 118 0
-42 11 -248 0
10 -191 293 0
-164 37 -143 0
-225 128 -256 0
-258 254 111 0
-249 146 251 0
-262 273 217 0
-90 -116 220 0
234 -283 7 0
-34 -137 298 0
-275 200 189 0
-54 -224 -247 0
-125 228 -178 0
130 7 -195 0
-41 290 -213 0
-15 27 -284 0
110 142 -251 0
-26 91 205 0
-135 -81 -295 0
-1 167 -152 0
-153 275 238 0
187 -44 -3 0
251 -75 261 0
-116 272 -147 0
144 161 86 0
42 281 259 0
83 10 -208 0
59 -109 -158 0
36 280 165 0
-259 204 7 0
-66 -224 -100 0
-147 -206 276 0
294 108 -264 0
-103 83 259 0
-140 137 249 0
-208 -88 231 0
223 92 -13 0
49 -41 -215 0
-38 1 -23 0
295 79 -167 0
59 -14 238 0
-259 163 37 0
-87 24 130 0
163 248 -232 0
-98 -198 -232 0
-120 234 109 0
115 -153 91 0
-94 -288 -32 0
-299 265 -134 0
207 -55 -42 0
85 289 196 0
264 189 -180 0
52 -279 242 0
242 -229 -21 0
31 -44 -70 0
-38 19 148 0
-287 -59 -180 0
-283 -188 7 0
210 226 205 0
-272 -124 -139 0
65 25 -92 0
-117 -195 64 0
289 -163 -270 0
234 -80 162 0
188 154 147 0
114 -165 285 0
-206 -201 -52 0
29 -43 -184 0
297 138 -141 0
-170 277 53 0
-270 -161 229 0
46 -92 -71 0
-27 -13 -115 0
28 -295 -183 0
-158 268 -275 0
119 -19 33 0
9 76 -80 0
-292 -13 81 0
-167 -83 202 0
293 -271 135 0
211 74 262 0
-255 -185 -109 0
-44 -274 -251 0
-268 -279 298 0
46 36 161 0
247 -185 -298 0
-115 -228 -293 0
182 -186 -87 0
-39 -60 291 0
-289 11 139 0
235 -78 -300 0
-162 11 -223 0
-234 -201 -296 0
-178 65 -109 0
-142 290 -13 0
114 142 -151 0
-172 -78 -272 0
-279 -248 -247 0
-39 89 -256 0
-249 -131 -267 0
292 19 99 0
-78 35 189 0
-263 -300 -162 0
146 -217 -258 0
86 95 -18 0
11 -67 91 0
-293 -234 -90 0
-90 257 99 0
-158 154 251 0
-195 -64 35 0
-64 -116 -153 0
171 -166 102 0
-53 -154 -159 0
-139 232 -167 0
158 -155 259 0
128 -221 -265 0
127 68 204 0
259 -76 182 0
-117 -130 172 0
-213 -154 -3 0
-67 -26 32 0
-257 -82 -62 0
75 -183 -246 0
30 268 79 0
-210 -105 -80 0
-131 219 -33 0
-17 132 -206 0
-267 240 -18 0
-112 -251 -30 0
26 227 -108 0
149 -65 -268 0
53 258 254 0
260 79 -33 0
203 -242 -46 0
-296 -30 -217 0
233 66 52 0
-235 -62 -134 0
29 72 53 0
261 -132 -183 0
126 -250 -245 0
