p cnf 300 1278
112 287 -259 0
-12 -241 151 0
131 -16 -150 0
15 4 -245 0
81 -79 30 0
-245 -105 208 0
-233 -197 -85 0
-137 55 95 0
-43 -152 266 0
171 99 160 0
-49 -81 -139 0
10 -48 -293 0
-79 -128 -288 0
-86 -56 48 0
-93 145 -73 0
33 -189 -243 0
18 -174 179 0
-209 -285 -281 0
159 167 -188 0
228 73 93 0
-84 -212 -118 0
-298 112 -73 0
84 -152 18 0
-271 -31 -180 0
57 -109 209 0
-263 -68 -92 0
-105 -242 78 0
-168 169 240 0
-107 201 8 0
253 149 -14 0
74 -148 -19 0
60 -213 291 0
57 155 217 0
-100 151 172 0
-48 51 -101 0
-218 3 63 0
-153 -54 -195 0
-155 102 -255 0
-145 -278 -282 0
-212 55 -286 0
-231 248 169 0
-107 82 -220 0
106 138 -132 0
-167 165 -32 0
166 -57 48 0
132 178 181 0
-122 -41 -271 0
-16 220 152 0
-126 -73 179 0
-261 127 -36 0
195 -48 -111 0
-72 157 161 0
-258 24 153 0
133 75 -98 0
225 -101 -156 0
36 -289 53 0
260 -39 295 0
-224 261 -64 0
79 168 33 0
-223 294 -282 0
268 187 -153 0
253 194 -158 0
-270 -156 -155 0
-70 -87 -39 0
240 212 255 0
128 264 26 0
-32 -162 122 0
126 243 152 0
164 269 30 0
8 -105 61 0
95 -246 -86 0
-90 -150 216 0
289 211 -123 0
-172 -148 281 0
246 119 152 0
10 -32 231 0
5 -175 249 0
251 84 -34 0
-244 134 146 0
267 -71 -205 0
59 -77 -245 0
-60 216 -291 0
-144 130 -24 0
-264 -178 62 0
160 110 -41 0
-139 -191 -141 0
46 -272 213 0
262 -229 -50 0
144 297 186 0
-106 294 -181 0
206 -32 96 0
-270 169 -32 0
-245 -146 276 0
-198 295 -14 0
-4 271 -78 0
121 -63 210 0
-108 20 273 0
160 207 187 0
-132 -247 43 0
144 142 139 0
85 6 -168 0
-221 -227 -7 0
186 288 -95 0
228 -100 -256 0
-267 17 264 0
235 183 -6 0
-146 -100 178 0
-185 280 291 0
192 210 152 0
133 -255 -6 0
91 -109 -33 0
-75 154 204 0
-39 -166 -256 0
-85 -94 171 0
84 -239 -82 0
281 71 210 0
22 -260 -113 0
-290 298 -254 0
32 287 117 0
-208 216 -172 0
287 -105 -9 0
-28 254 15 0
-85 -230 -148 0
-97 52 -207 0
210 -258 23 0
-103 293 -37 0
-266 -162 -240 0
-54 -234 241 0
-137 -221 -182 0
105 -111 -7 0
-140 -7 -181 0
21 239 -111 0
-95 -241 281 0
-10 144 -15 0
162 -30 220 0
300 -63 -51 0
89 -250 223 0
108 -267 92 0
-110 80 -264 0
-192 136 -197 0
-206 -103 258 0
97 30 55 0
154 36 -173 0
292 -29 229 0
-228 61 -136 0
-234 -91 295 0
196 67 -10 0
-77 -8 296 0
79 -15 -207 0
157 -185 250 0
-193 157 -240 0
-122 -158 -215 0
280 -43 -25 0
-279 151 -77 0
41 -298 291 0
-133 275 235 0
215 224 -255 0
40 -240 -72 0
-291 -124 -247 0
50 -13 247 0
-162 -239 -167 0
266 -84 -233 0
-238 249 66 0
255 -179 221 0
-205 154 22 0
53 -66 -293 0
-245 154 34 0
-252 -274 -150 0
-299 5 -110 0
-40 -106 77 0
190 -282 -70 0
111 132 152 0
-43 -118 91 0
-80 113 287 0
-50 237 -219 0
25 -172 92 0
-168 -148 180 0
69 -210 -107 0
-275 -58 -120 0
-296 -131 -161 0
-84 111 -137 0
-6 -65 -14 0
-165 -42 105 0
-48 -34 50 0
-255 -117 -190 0
25 -78 -238 0
266 252 277 0
-76 -154 -120 0
293 86 -235 0
149 -170 -96 0
-52 -284 -143 0
-206 10 -62 0
75 -73 173 0
205 52 -93 0
-252 -183 -115 0
-242 -84 197 0
-13 38 100 0
24 -32 -60 0
85 61 -88 0
300 163 -119 0
-66 104 -15 0
-272 -255 -246 0
-244 270 40 0
-42 146 -82 0
169 -168 -98 0
-98 -104 -228 0
-243 -202 30 0
178 266 9 0
53 25 -115 0
-151 279 -68 0
77 -23 210 0
289 50 294 0
49 -34 -152 0
-229 -189 299 0
-128 71 -75 0
-292 -254 -47 0
151 -133 -216 0
8 -207 160 0
-17 -62 -192 0
100 66 -16 0
-156 10 -207 0
79 113 -266 0
-145 253 29 0
-219 -187 -163 0
-44 -15 -81 0
50 -64 39 0
-63 -71 23 0
2 160 279 0
-275 251 19 0
-147 -83 146 0
-138 74 161 0
-284 118 177 0
-222 -142 215 0
124 -49 -65 0
-16 75 -4 0
-90 200 -130 0
145 -88 -282 0
-157 281 -23 0
26 -291 -64 0
-149 -273 166 0
-8 -266 -139 0
230 291 -270 0
-64 -255 -61 0
26 -255 234 0
-32 227 -218 0
-204 112 -175 0
-101 -51 -77 0
-83 -66 131 0
-59 -261 151 0
64 218 2 0
-123 167 154 0
-266 -139 213 0
288 -195 181 0
-225 269 133 0
150 80 14 0
-52 274 -175 0
-191 280 -175 0
67 249 -178 0
33 -269 -78 0
269 -195 -285 0
-284 91 -60 0
-166 284 47 0
266 188 269 0
206 -204 -6 0
-275 145 -222 0
62 103 -288 0
-148 -52 -94 0
-10 -250 -240 0
-131 -132 -293 0
72 52 -132 0
42 -9 -152 0
-228 100 176 0
88 118 247 0
-82 -129 72 0
182 198 -118 0
-239 -124 -25 0
118 69 -52 0
46 88 -125 0
141 -285 22 0
-145 64 -255 0
72 271 247 0
293 250 -242 0
-191 -241 -152 0
-272 36 218 0
195 -219 29 0
285 1 269 0
121 -32 -191 0
249 283 52 0
-271 -291 125 0
118 -146 -229 0
-209 -163 268 0
200 -65 -57 0
-278 154 283 0
-224 252 165 0
-67 -42 -66 0
216 -226 5 0
-194 -38 -294 0
65 -271 -269 0
-266 258 294 0
-296 251 279 0
300 245 298 0
67 -283 -115 0
259 -223 216 0
242 -255 -12 0
189 -161 289 0
-2 32 38 0
-44 89 155 0
10 -227 -132 0
290 94 255 0
-181 -39 -171 0
64 -26 -164 0
125 270 264 0
152 -153 -232 0
-161 -111 -206 0
-118 -269 10 0
-96 -26 266 0
273 219 180 0
186 85 7 0
283 -50 251 0
-199 107 19 0
148 17 -251 0
199 -64 -9 0
241 -277 -78 0
-96 -5 241 0
-242 -205 195 0
186 259 134 0
-262 -200 -172 0
1 209 112 0
-105 -222 -99 0
210 270 278 0
-15 -237 116 0
5 75 300 0
-109 -201 87 0
-154 274 -205 0
296 88 -65 0
-218 -237 100 0
146 55 191 0
198 211 216 0
165 240 184 0
92 -30 -38 0
220 -247 -51 0
124 149 -208 0
-274 165 60 0
-95 51 -157 0
-212 -10 -180 0
-131 238 7 0
-3 -281 -175 0
-225 -74 101 0
252 160 115 0
-38 -291 292 0
271 81 26 0
-96 115 240 0
45 293 14 0
114 -149 27 0
186 35 24 0
11 -10 -245 0
9 30 -145 0
-153 48 168 0
-173 15 11 0
-160 141 -10 0
194 167 69 0
-138 112 96 0
278 66 -220 0
191 -59 -26 0
-200 76 -156 0
-203 -185 191 0
56 2 251 0
-16 -188 235 0
91 -203 -76 0
4 209 -273 0
280 248 -228 0
112 -249 -189 0
194 83 201 0
-186 -231 -72 0
-224 269 -22 0
-136 -84 -36 0
173 106 41 0
-102 253 30 0
-281 232 -174 0
-268 244 -252 0
210 53 -208 0
25 251 243 0
-125 61 25 0
-259 -227 -232 0
-110 207 -21 0
191 201 -66 0
230 -201 -63 0
175 275 -205 0
-214 -154 170 0
29 113 -53 0
-215 -253 -114 0
210 257 81 0
268 -30 80 0
217 230 18 0
-282 -208 171 0
-186 83 174 0
103 -122 16 0
-226 -159 271 0
133 -160 -211 0
-98 42 272 0
93 212 227 0
88 -149 -278 0
90 191 236 0
-124 -52 262 0
-138 114 -276 0
-264 70 244 0
232 -92 -61 0
232 169 3 0
-92 283 -247 0
-93 192 29 0
-127 135 206 0
175 280 -79 0
-180 -1 203 0
-103 -150 -254 0
230 186 -6 0
-222 199 37 0
245 -137 187 0
146 232 280 0
139 -112 -255 0
50 18 192 0
220 -249 -84 0
-143 -191 44 0
-225 -145 -235 0
-300 -270 -250 0
-102 -266 -278 0
285 -215 85 0
-283 -59 -44 0
-214 176 -128 0
-297 -117 -287 0
228 279 -124 0
-20 -262 51 0
167 -264 -133 0
112 -180 -79 0
-275 46 -250 0
-72 152 4 0
-205 78 -269 0
-64 16 -234 0
-6 -19 101 0
267 173 186 0
83 -80 -194 0
284 31 196 0
-241 214 -93 0
2 -185 -196 0
62 -189 -151 0
-236 -204 -46 0
-126 122 261 0
-20 88 -210 0
-291 -198 252 0
-291 -14 -16 0
96 293 -201 0
-191 -208 220 0
278 249 -131 0
5 83 -268 0
169 -132 208 0
203 171 -98 0
-102 -31 116 0
-145 167 -38 0
40 -206 3 0
-55 -107 79 0
81 -50 214 0
-17 76 250 0
-167 -50 11 0
-193 -56 -48 0
-289 298 5 0
-62 126 -199 0
66 -169 -231 0
88 -161 233 0
-15 238 -274 0
265 251 22 0
178 -108 -61 0
256 252 248 0
-206 -272 -192 0
-162 -268 -117 0
129 -249 -171 0
-164 165 -294 0
-189 -269 -76 0
-153 163 228 0
-76 222 145 0
-261 219 57 0
-284 -189 -260 0
-68 -52 -225 0
87 251 74 0
-36 -139 281 0
-228 -198 75 0
213 165 17 0
267 -242 232 0
-263 -83 276 0
61 263 76 0
-266 153 -25 0
-106 164 -198 0
-38 39 -202 0
88 119 -265 0
116 -188 -167 0
81 231 42 0
-148 -261 -101 0
-246 75 122 0
-44 -135 -18 0
207 -71 -105 0
80 -232 -133 0
-210 -120 -29 0
181 113 -196 0
-30 267 230 0
36 124 -105 0
43 108 -100 0
-93 -117 225 0
171 -183 205 0
266 257 126 0
-75 -186 -117 0
-131 240 58 0
-290 224 4 0
100 177 198 0
50 -26 88 0
-37 289 -47 0
64 115 186 0
-290 198 -137 0
-161 -296 -22 0
-213 166 -290 0
20 -79 -212 0
-17 -234 212 0
-282 167 300 0
-49 70 -190 0
-244 -28 -257 0
-212 -41 5 0
21 -60 -80 0
208 -190 -25 0
-95 -25 -20 0
-27 -187 102 0
108 -178 -236 0
-169 -13 105 0
-73 201 260 0
59 -191 103 0
-113 175 -24 0
-18 -5 128 0
-200 225 291 0
255 51 -215 0
279 43 154 0
80 174 86 0
-100 147 198 0
222 -40 -72 0
-220 -61 29 0
281 -20 229 0
-258 -78 -96 0
267 61 173 0
211 201 13 0
123 -28 17 0
-80 107 -241 0
-169 246 131 0
-127 52 63 0
269 19 -272 0
-228 -144 -176 0
-282 -169 -299 0
-116 150 34 0
192 -121 -56 0
266 60 -4 0
200 -224 -52 0
-146 -120 -271 0
-32 200 109 0
-17 68 125 0
183 -37 -132 0
-117 -287 62 0
32 -153 125 0
-258 -37 200 0
-146 132 -228 0
-232 225 -288 0
-68 109 3 0
-198 -285 204 0
-251 -10 -134 0
-132 -228 65 0
57 -259 -252 0
271 -195 -89 0
-32 174 142 0
-201 116 297 0
-215 -289 -216 0
-38 -250 -278 0
-241 -132 63 0
185 -222 -299 0
-270 77 -155 0
211 196 -62 0
122 207 93 0
47 215 96 0
10 -17 -223 0
77 -3 300 0
-142 285 -3 0
-173 -297 -294 0
-117 -129 195 0
276 55 -168 0
-154 3 230 0
-195 -114 -295 0
41 47 251 0
-78 -294 -287 0
-122 -61 -219 0
130 190 -78 0
165 47 60 0
-129 204 -195 0
-269 35 175 0
141 23 -89 0
255 -64 -229 0
-207 124 -55 0
45 110 -62 0
251 143 -4 0
69 -180 -160 0
266 -186 241 0
245 109 -50 0
-50 9 -81 0
227 77 -37 0
94 223 -235 0
-225 246 -23 0
187 -289 246 0
-11 -109 187 0
288 10 -93 0
-8 -124 182 0
-245 -16 -280 0
-102 140 -4 0
6 37 5 0
-132 -227 -280 0
27 6 95 0
151 -38 221 0
-223 107 169 0
-26 -293 249 0
-221 -160 -201 0
299 205 -169 0
-9 -185 200 0
-70 251 -68 0
277 55 300 0
149 -231 -291 0
96 -259 -229 0
30 -289 286 0
256 251 29 0
52 125 -299 0
282 -185 -165 0
-99 -14 189 0
-132 89 -149 0
-262 80 36 0
-186 -187 262 0
287 -165 71 0
-80 -172 -38 0
-55 152 -263 0
163 -99 -288 0
293 133 -180 0
159 187 -15 0
-135 10 -133 0
-244 -268 15 0
209 165 34 0
43 65 -53 0
141 79 33 0
-244 153 -186 0
-167 -159 -93 0
-24 143 -249 0
-27 -249 -6 0
256 -247 52 0
-190 -285 -86 0
-244 -248 193 0
-119 -251 -211 0
-70 129 24 0
-98 19 -16 0
278 -149 -94 0
91 -174 104 0
297 215 -279 0
-33 73 -10 0
-97 -73 -110 0
-242 -277 -178 0
-144 48 165 0
-150 -128 -23 0
273 -81 275 0
82 -123 233 0
-196 -115 -173 0
-11 -169 -95 0
-186 -254 167 0
-62 199 61 0
-153 -258 90 0
49 2 236 0
-211 274 -269 0
-109 -49 166 0
160 -264 102 0
159 -53 284 0
140 -101 48 0
224 -127 142 0
-136 67 107 0
-81 -202 129 0
240 -75 -11 0
148 -26 -194 0
4 103 231 0
243 -55 -50 0
5 -110 235 0
4 -43 -251 0
185 -274 159 0
-111 87 35 0
284 54 -242 0
16 17 -211 0
161 -248 233 0
-281 278 5 0
-260 -86 -179 0
-8 -124 160 0
-168 183 36 0
-5 -297 222 0
68 -244 -248 0
-184 -204 -116 0
-146 30 -163 0
-225 -268 183 0
-10 -123 -271 0
-77 -265 -22 0
-226 219 -263 0
-153 289 83 0
-270 -137 209 0
-235 -125 211 0
73 32 12 0
281 295 32 0
161 -54 -55 0
193 -50 -49 0
39 -164 224 0
273 -132 76 0
279 87 158 0
44 105 -120 0
77 299 13 0
176 -149 -112 0
45 162 -272 0
-7 291 120 0
-65 14 127 0
59 270 27 0
-284 -187 2 0
-288 37 224 0
295 -77 208 0
38 -137 -269 0
-299 -257 137 0
187 -267 294 0
168 -287 -233 0
137 -157 52 0
271 -166 178 0
-54 -241 -134 0
-234 -103 210 0
-133 -290 129 0
-221 -211 -146 0
-293 267 -266 0
-48 -162 -272 0
100 -73 -130 0
-68 -185 276 0
160 -1 -141 0
-293 248 -137 0
-219 164 -183 0
84 -99 52 0
-285 10 74 0
-159 -153 155 0
-219 154 -79 0
-118 -68 -137 0
-42 -17 -3 0
-225 163 -75 0
300 -192 -273 0
223 -17 207 0
-93 39 133 0
251 134 -188 0
-225 -121 -231 0
231 -140 -173 0
149 28 -127 0
267 82 -131 0
-160 -227 -68 0
-140 43 75 0
-202 -254 -220 0
-152 163 -96 0
-186 296 96 0
-53 264 -221 0
-174 288 125 0
260 -205 -110 0
-95 -267 -277 0
-120 161 106 0
-200 -70 29 0
-278 95 -299 0
145 -20 125 0
-166 -71 -32 0
-260 -285 203 0
-298 254 81 0
236 287 -178 0
124 -271 -98 0
121 -295 171 0
-104 34 75 0
-28 103 -131 0
-25 -241 -29 0
63 -29 -236 0
-51 203 125 0
246 293 84 0
26 -5 240 0
-116 -136 -282 0
-287 -160 27 0
-13 120 167 0
2 -212 245 0
134 253 244 0
-108 187 -151 0
-293 27 -20 0
-241 96 -176 0
37 -101 -253 0
-46 -278 252 0
48 -185 146 0
-145 -87 252 0
-292 -108 173 0
-170 -234 -232 0
217 84 168 0
-280 230 170 0
71 83 -162 0
-226 244 30 0
187 -125 290 0
109 246 123 0
102 -5 79 0
-176 246 265 0
-52 69 -75 0
251 -151 269 0
33 -130 242 0
-142 -88 191 0
-299 -113 23 0
135 20 257 0
-231 -122 -100 0
40 -218 -127 0
-170 -141 -283 0
143 142 -155 0
-38 -230 -134 0
-299 -107 -253 0
-251 150 -172 0
-245 101 -78 0
-119 -46 -98 0
271 207 -70 0
-183 -88 14 0
-174 -259 5 0
-3 138 -43 0
117 -156 -84 0
143 7 237 0
132 -68 17 0
72 -270 -159 0
-76 -190 -145 0
-149 241 229 0
42 -18 239 0
-273 118 -160 0
-96 -233 -88 0
262 -246 225 0
-141 -218 -21 0
-261 -77 244 0
-42 11 114 0
28 6 -40 0
38 289 253 0
-58 -244 -225 0
-140 185 -6 0
-45 -152 -105 0
-69 47 -139 0
154 -252 83 0
90 -6 -141 0
88 -287 205 0
105 66 18 0
-210 48 160 0
193 -8 -226 0
-82 -108 273 0
-222 -173 -296 0
-66 -236 -240 0
-248 -96 -137 0
-132 290 -236 0
-39 232 159 0
-290 -73 243 0
206 -140 -252 0
299 19 296 0
-168 -247 275 0
-112 -6 63 0
5 -122 168 0
-63 -151 -291 0
114 -127 99 0
-279 -116 -51 0
-193 137 220 0
-176 -172 84 0
-87 28 16 0
-299 -249 -165 0
-190 -206 10 0
-109 -29 203 0
291 -255 -194 0
-58 55 -162 0
176 -118 -203 0
193 78 -187 0
243 27 -297 0
-164 268 -281 0
-33 189 275 0
-115 138 -250 0
-92 57 -232 0
-284 270 -261 0
-155 167 -79 0
-38 160 3 0
74 -247 223 0
80 -134 128 0
76 6 -99 0
-51 140 250 0
-211 -276 -243 0
56 -47 -283 0
-298 -292 20 0
111 -145 -151 0
-115 236 -240 0
-217 -145 -183 0
141 -135 162 0
-67 -13 163 0
-192 -206 -88 0
-112 -111 269 0
-26 226 -97 0
82 221 -258 0
-217 196 -90 0
35 -258 72 0
46 128 -287 0
-142 42 -218 0
195 222 9 0
104 -37 109 0
-113 -16 53 0
193 -96 -160 0
203 -97 142 0
147 -131 -166 0
187 198 114 0
-53 97 -270 0
-120 -292 -18 0
167 -168 -257 0
-215 -233 213 0
94 286 157 0
-30 289 -91 0
-149 -34 200 0
123 -254 -91 0
228 21 218 0
199 -206 13 0
216 101 -184 0
-121 191 -19 0
57 -257 -9 0
202 182 -174 0
281 187 192 0
179 18 -163 0
-54 143 -107 0
82 274 113 0
192 -114 -208 0
250 75 -190 0
286 -184 135 0
131 95 -233 0
207 123 271 0
138 251 -170 0
-110 228 -61 0
-232 79 -16 0
-64 125 19 0
-167 160 26 0
-8 266 -132 0
80 -132 214 0
42 -235 -265 0
218 13 -86 0
-99 10 218 0
283 267 242 0
299 81 125 0
181 -145 -71 0
23 203 121 0
-289 249 3 0
272 172 210 0
141 -199 -196 0
-174 -117 81 0
-218 -195 293 0
-178 252 -253 0
181 143 300 0
-65 -258 99 0
162 -108 269 0
184 -255 202 0
118 -122 -194 0
25 76 -195 0
41 -256 80 0
-72 102 -263 0
-243 293 -35 0
27 -45 -107 0
222 -286 69 0
-28 -34 -169 0
-102 -56 -174 0
155 248 -283 0
63 51 263 0
245 177 -20 0
241 -300 -159 0
177 -159 239 0
-268 185 -257 0
215 258 -64 0
174 6 -154 0
234 -197 -200 0
-138 222 -82 0
104 220 -84 0
150 198 158 0
-173 -68 261 0
87 -237 25 0
261 137 -95 0
230 -145 -19 0
81 128 -9 0
-116 -157 -59 0
-192 -245 77 0
232 -265 -18 0
291 278 -13 0
-202 -290 40 0
265 203 -81 0
-141 -75 -239 0
273 -16 -15 0
164 282 168 0
37 111 75 0
204 53 -261 0
183 -254 21 0
-9 297 -177 0
-224 -43 236 0
-37 83 -247 0
-70 -271 92 0
202 -266 -146 0
-227 280 248 0
-76 -110 279 0
155 -64 -263 0
-34 -208 295 0
-116 140 97 0
-60 -30 -72 0
-154 -188 -127 0
54 19 86 0
-235 222 48 0
-107 -157 160 0
-172 -60 197 0
41 131 -127 0
283 280 155 0
182 203 87 0
295 219 91 0
-284 160 128 0
16 -148 146 0
-233 54 16 0
224 132 61 0
196 180 -130 0
-210 -207 261 0
126 69 245 0
-50 -278 -234 0
-81 24 274 0
-40 -262 -67 0
-117 -298 -195 0
128 188 26 0
-180 157 248 0
-81 77 -190 0
-155 -293 -274 0
-300 -191 -264 0
55 -174 70 0
215 61 -107 0
32 -28 5 0
289 189 -167 0
-175 -287 -74 0
207 -201 216 0
-160 165 107 0
267 -284 -149 0
-91 97 -62 0
231 279 295 0
196 -18 106 0
269 -196 175 0
-28 -127 263 0
75 -222 111 0
86 -71 279 0
87 194 -62 0
255 145 -253 0
-244 -222 -22 0
-294 -203 169 0
-286 167 110 0
-76 -24 -152 0
221 -63 98 0
-38 7 -72 0
-51 70 280 0
184 -280 -112 0
-264 -103 187 0
99 -63 -267 0
217 -6 286 0
-120 -10 -189 0
293 102 46 0
-1 -191 150 0
-269 299 -181 0
175 -215 253 0
8 -61 -210 0
274 213 3 0
-73 176 147 0
158 -296 57 0
-207 58 -255 0
-140 -154 -171 0
-61 239 257 0
133 -286 -181 0
46 -129 53 0
-188 231 46 0
120 125 114 0
91 130 79 0
-88 174 -156 0
227 90 197 0
-8 -269 -297 0
256 -60 175 0
-238 -52 -140 0
70 -135 -193 0
-30 230 135 0
42 52 -107 0
234 38 -73 0
208 29 169 0
43 239 -158 0
43 65 193 0
-228 -169 -209 0
71 8 57 0
238 -205 -211 0
79 24 -284 0
-102 -111 221 0
191 -118 -29 0
-45 -18 -146 0
-261 53 265 0
274 151 -249 0
213 -134 -120 0
124 89 -201 0
219 160 -123 0
-132 -219 -249 0
276 -46 265 0
-17 -36 98 0
-52 -101 -81 0
127 260 -73 0
-292 207 62 0
-102 -226 -252 0
204 175 63 0
18 48 -113 0
-216 201 77 0
57 -221 -141 0
149 -280 33 0
203 -214 -239 0
-223 -256 -100 0
205 173 55 0
-52 31 5 0
-126 -227 109 0
-200 -73 -34 0
-299 224 -7 0
-85 219 235 0
-70 269 -18 0
-297 -131 -53 0
298 237 130 0
92 -239 -97 0
24 275 242 0
177 -278 -32 0
-99 -279 -264 0
19 58 30 0
194 -65 -168 0
69 -130 -247 0
-277 126 -29 0
31 248 -11 0
-126 -155 173 0
-265 -47 -92 0
221 -227 132 0
-131 -78 176 0
268 257 -66 0
273 287 178 0
264 255 95 0
263 -238 97 0
-252 13 18 0
134 -279 -142 0
184 -273 277 0
84 -203 -153 0
-249 105 -60 0
-134 -74 203 0
240 191 296 0
-257 7 -88 0
-168 -166 -3 0
-138 -222 112 0
235 -286 122 0
294 -118 -40 0
-111 -48 -188 0
-89 61 171 0
-121 -61 122 0
145 110 -251 0
-296 -122 -207 0
21 200 -259 0
91 221 -73 0
56 -228 300 0
224 -72 277 0
-204 64 21 0
-51 -218 -208 0
190 -111 -113 0
-155 98 89 0
-148 -251 192 0
-275 -216 118 0
87 -89 -225 0
-295 68 208 0
259 -65 164 0
-154 188 -235 0
115 -142 52 0
231 -162 5 0
-130 -99 -274 0
-274 -247 -116 0
-163 55 -132 0
252 117 217 0
-284 -176 263 0
-155 112 115 0
205 26 -183 0
203 293 -123 0
230 -195 6 0
-140 -164 147 0
-253 238 -175 0
37 180 -252 0
245 151 -128 0
106 -207 183 0
-123 227 -128 0
-163 157 26 0
-240 176 -58 0
227 274 207 0
-116 45 149 0
62 -245 -63 0
-123 93 272 0
-99 52 -209 0
12 121 -55 0
-223 -246 287 0
261 97 -188 0
252 -156 -232 0
-267 200 192 0
210 104 -175 0
196 33 187 0
29 105 -300 0
-163 215 263 0
-42 159 -219 0
-168 213 -270 0
-5 -289 84 0
207 -218 -62 0
-249 219 -203 0
-270 136 -29 0
154 -256 -137 0
-139 26 -75 0
-147 255 -106 0
-274 251 237 0
-230 276 21 0
-28 -237 175 0
-146 285 35 0
-263 61 -300 0
190 289 32 0
178 123 184 0
273 -29 -265 0
-264 236 -8 0
-295 101 -287 0
248 198 -287 0
-84 -280 -79 0
140 -7 -279 0
-249 -134 -91 0
-232 264 230 0
-285 -142 53 0
291 122 45 0
17 197 274 0
-8 144 111 0
30 73 219 0
-232 165 135 0
-183 -229 -236 0
204 13 -32 0
185 51 -151 0
-12 -266 175 0
-220 -182 12 0
-186 233 92 0
16 -142 84 0
235 177 -153 0
48 -177 193 0
-255 202 51 0
-272 -210 34 0
262 94 -231 0
-13 264 67 0
81 212 78 0
-220 -164 -179 0
-176 218 151 0
95 210 -268 0
232 -137 -158 0
87 -274 -83 0
-34 297 -63 0
100 -86 142 0
-4 211 66 0
-264 -91 263 0
24 238 -257 0
226 -106 -212 0
-63 -6 -85 0
254 73 -143 0
43 -242 -123 0
-238 -202 -143 0
-147 -3 -92 0
-23 241 155 0
-246 -272 291 0
-28 83 -33 0
261 -223 -151 0
1 260 -69 0
71 -119 -281 0
17 158 -265 0
-82 35 54 0
14 1 236 0
-230 34 255 0
-221 212 6 0
-144 -278 -208 0
-186 32 -39 0
160 -128 -229 0
-128 138 -190 0
151 -255 -54 0
172 -165 -54 0
-204 9 44 0
