p cnf 300 1278
-270 -101 -13 0
149 -88 -212 0
285 -48 221 0
-116 73 -237 0
118 -205 -226 0
-99 42 -7 0
114 -297 218 0
148 -227 123 0
-157 -276 137 0
188 48 -95 0
299 282 -129 0
-167 -117 -129 0
108 256 -73 0
166 111 190 0
162 234 86 0
275 114 -207 0
98 184 -99 0
-153 163 -272 0
-59 200 -134 0
-165 189 -300 0
-276 -125 -300 0
-89 205 38 0
140 93 -132 0
282 53 200 0
-165 84 131 0
160 81 -8 0
82 -84 -91 0
-45 -267 123 0
97 189 72 0
-229 59 37 0
-278 77 189 0
-1 238 -170 0
33 186 -10 0
297 -292 40 0
102 -151 67 0
-13 202 -277 0
-186 233 125 0
-209 -66 155 0
-107 218 199 0
15 85 -187 0
197 -16 80 0
231 -146 -123 0
65 -158 -300 0
-23 -100 -203 0
-150 -121 53 0
-107 11 -139 0
186 -114 122 0
199 -60 276 0
114 -108 -60 0
-110 12 -280 0
-28 264 -263 0
141 -239 193 0
185 206 -196 0
265 -76 -238 0
-150 -216 233 0
-274 -35 -261 0
-35 -13 159 0
-68 -112 60 0
-241 -248 -50 0
-193 -168 -133 0
187 -277 -29 0
256 -223 277 0
-161 -250 -12 0
36 93 -46 0
-297 -71 -240 0
-131 12 32 0
155 -282 166 0
-114 7 -29 0
-169 -136 -71 0
176 284 -191 0
-132 283 42 0
242 274 -41 0
-64 -166 -66 0
-131 -295 248 0
18 -225 93 0
197 -238 222 0
165 -43 245 0
-174 106 70 0
59 38 -251 0
8 117 -49 0
217 -36 268 0
116 -119 88 0
85 181 -179 0
-58 297 -253 0
-72 -36 -117 0
46 300 127 0
25 34 -212 0
-279 -292 -246 0
191 -32 -81 0
-18 -105 205 0
211 240 48 0
253 221 200 0
175 79 14 0
-120 35 -32 0
150 216 45 0
198 -19 234 0
184 -245 219 0
228 -101 227 0
283 48 -290 0
-191 41 -115 0
-4 -253 16 0
170 109 -29 0
225 29 20 0
220 10 -53 0
-56 203 -71 0
-203 292 211 0
-77 264 295 0
-120 218 119 0
-164 226 2 0
182 -180 -8 0
-98 175 -293 0
-146 -68 166 0
-130 46 -179 0
263 -175 -182 0
201 96 152 0
-67 -192 224 0
92 -186 -245 0
202 -248 184 0
217 246 122 0
-51 -2 173 0
-256 115 -58 0
16 89 177 0
-299 243 245 0
210 12 288 0
-82 -97 -201 0
-38 83 -24 0
234 -233 63 0
-79 -234 109 0
261 -206 220 0
127 13 78 0
287 -269 -297 0
-283 -29 -111 0
81 231 130 0
287 125 133 0
177 222 -93 0
-178 -155 254 0
-13 250 -80 0
284 -30 267 0
-73 -153 -295 0
-112 141 -9 0
283 34 -182 0
21 178 254 0
228 -163 -257 0
228 -283 -209 0
-175 62 -53 0
-162 -31 -137 0
185 1 267 0
-133 -173 159 0
-82 -69 -86 0
94 -267 110 0
48 -155 -19 0
-145 -71 289 0
183 32 45 0
-262 -94 -214 0
279 -22 229 0
-244 -293 178 0
261 206 -221 0
-296 -261 28 0
-89 -29 -180 0
296 -157 -59 0
-103 -285 -270 0
-233 129 262 0
261 -275 -140 0
-203 153 175 0
-93 -117 220 0
293 252 -264 0
23 -77 80 0
-298 -269 225 0
261 -200 -188 0
-156 14 -12 0
89 226 -153 0
100 -28 3 0
248 61 151 0
31 -225 -121 0
170 65 -114 0
-202 -8 229 0
-249 -235 272 0
218 39 -167 0
-251 94 5 0
-260 162 108 0
-49 294 71 0
22 119 -88 0
-110 58 119 0
-1 4 42 0
116 49 -187 0
195 -80 166 0
-187 -266 92 0
-279 -283 -72 0
-257 299 -282 0
250 77 75 0
-158 -132 247 0
253 -96 -191 0
-208 -177 -3 0
204 198 -291 0
49 -238 285 0
-163 -41 -101 0
8 -123 251 0
293 -204 32 0
-201 -82 -246 0
253 -187 -162 0
290 221 -72 0
98 176 134 0
-148 74 -233 0
20 245 -229 0
198 -189 -253 0
139 285 29 0
185 80 41 0
-152 -220 124 0
205 244 269 0
-160 -35 131 0
-67 85 114 0
-188 -225 -263 0
132 192 -36 0
-267 -188 131 0
275 -139 292 0
286 -218 -71 0
52 219 288 0
-101 169 -2 0
-140 175 120 0
231 211 -161 0
133 -276 269 0
281 -288 -131 0
-276 -218 -282 0
-95 -149 97 0
81 -15 183 0
271 195 79 0
-81 190 216 0
-153 18 254 0
-155 -265 -254 0
65 -178 -90 0
-283 -254 196 0
-221 108 276 0
257 39 173 0
199 168 193 0
-7 4 209 0
-150 13 -125 0
19 -32 152 0
-183 176 -253 0
-280 -44 -290 0
125 -52 -236 0
94 2 -143 0
100 33 142 0
222 -258 244 0
88 -5 -217 0
-158 88 3 0
-295 -92 -170 0
-180 295 230 0
12 -242 261 0
-43 -97 -240 0
-109 102 -300 0
-178 20 -54 0
-224 -4 -160 0
118 106 217 0
-175 -283 122 0
219 -129 123 0
164 -31 27 0
-151 -109 -204 0
-54 -16 -112 0
34 115 -242 0
-199 226 171 0
206 75 179 0
-238 20 166 0
111 79 -199 0
31 266 95 0
-295 62 19 0
87 -227 89 0
43 109 -125 0
-241 -190 249 0
43 111 -90 0
-218 -297 -51 0
-283 -63 22 0
-249 42 174 0
-264 134 -35 0
80 -190 -144 0
72 -128 -221 0
280 -290 -99 0
128 251 -200 0
-137 5 101 0
-85 -14 -156 0
186 264 43 0
-265 155 65 0
262 -5 -294 0
43 -178 -197 0
-169 6 -155 0
4 -80 -299 0
-107 -189 138 0
-167 58 65 0
92 -61 118 0
-197 -249 -21 0
97 -114 -76 0
-280 -167 72 0
48 116 120 0
-62 126 271 0
-227 -120 46 0
-244 -241 -196 0
165 -230 -9 0
182 -286 -228 0
-163 -92 -207 0
119 -206 139 0
-252 97 -114 0
-79 255 153 0
-276 262 240 0
-294 -150 271 0
107 -229 -252 0
76 233 -124 0
-216 -180 -14 0
-6 168 282 0
263 -145 15 0
-297 62 -111 0
262 -150 -57 0
-210 8 207 0
54 -196 -187 0
131 -193 232 0
-229 -56 -291 0
-45 -145 98 0
25 252 115 0
-207 263 186 0
-14 137 -185 0
-144 -260 -106 0
82 -268 209 0
143 191 44 0
21 257 -202 0
-114 242 -250 0
179 15 278 0
-94 -74 61 0
-92 179 148 0
-116 -82 -161 0
57 142 -73 0
-65 -42 -78 0
130 132 -30 0
28 206 -52 0
-58 123 -178 0
85 -267 182 0
267 -153 -249 0
243 -295 263 0
199 -146 -27 0
-113 -95 251 0
157 -158 -276 0
-18 127 106 0
-162 258 185 0
-220 245 255 0
114 -298 46 0
-108 -208 -277 0
285 279 224 0
-250 268 77 0
267 -226 -273 0
39 250 -37 0
-236 12 260 0
268 -144 -92 0
-206 -32 -177 0
-83 123 175 0
295 214 -233 0
197 -260 21 0
182 -71 135 0
-280 224 -175 0
-133 -248 201 0
238 263 234 0
-92 161 121 0
258 214 -111 0
-25 300 -277 0
297 83 145 0
96 -72 -239 0
-165 -206 -31 0
-244 229 170 0
-271 -134 -225 0
151 83 -182 0
-91 -112 -226 0
-169 191 284 0
159 -11 103 0
-16 265 283 0
-210 178 39 0
271 279 53 0
106 26 -21 0
235 69 -181 0
-223 -21 52 0
-119 -132 -194 0
49 85 276 0
-29 -42 178 0
-5 245 -57 0
1 17 -57 0
-126 -20 -143 0
105 125 -214 0
-135 257 -84 0
-293 147 98 0
136 185 -34 0
226 153 -176 0
-96 1 3 0
92 -171 -222 0
-264 199 103 0
55 -276 -5 0
253 -18 243 0
158 -69 283 0
209 108 -78 0
-58 -196 -198 0
-96 139 -67 0
-191 56 -148 0
293 95 -241 0
213 -19 -226 0
-60 89 220 0
290 -171 47 0
297 8 277 0
169 -75 225 0
-263 -89 -175 0
-239 250 58 0
283 150 118 0
197 -12 56 0
-88 48 176 0
183 262 208 0
168 -164 -227 0
66 -129 -232 0
-225 177 -146 0
47 -238 268 0
239 249 -271 0
-58 189 28 0
114 47 64 0
249 225 -34 0
40 122 148 0
167 -292 -231 0
219 -12 -109 0
-67 -89 -48 0
279 -52 -292 0
-105 -97 262 0
94 99 96 0
-60 -4 -291 0
-98 19 261 0
82 227 88 0
283 54 -109 0
-255 156 -133 0
-261 -102 -282 0
-228 -295 164 0
280 122 -66 0
250 176 245 0
-165 -13 -284 0
-225 162 -41 0
1 -142 169 0
149 81 -214 0
83 -238 9 0
-179 -173 -273 0
-157 -273 -184 0
-214 55 255 0
-217 -16 -227 0
-251 253 48 0
-52 296 -124 0
116 203 19 0
-172 -183 -156 0
-300 146 237 0
69 162 -167 0
-208 203 128 0
-40 257 53 0
226 59 -119 0
116 91 -179 0
-131 62 -202 0
179 272 299 0
-7 -24 -75 0
-28 102 94 0
288 -278 84 0
-112 167 -185 0
106 165 -9 0
130 55 75 0
290 190 -51 0
-270 138 116 0
-230 -32 24 0
40 -295 213 0
72 -84 213 0
-220 -125 -102 0
229 188 158 0
-280 -208 -122 0
201 2 268 0
104 91 264 0
189 -232 -184 0
76 176 -242 0
181 -61 146 0
230 141 103 0
-44 108 96 0
127 -56 -119 0
-249 185 102 0
18 246 -89 0
-202 156 247 0
-137 188 -41 0
271 -113 4 0
-265 121 261 0
-193 210 -9 0
-163 -147 -17 0
-131 118 -13 0
145 14 -159 0
-6 -154 -186 0
-251 -136 202 0
2 281 -97 0
117 186 84 0
277 66 98 0
66 -132 -299 0
-294 78 66 0
-250 -95 -252 0
43 -21 -16 0
85 -179 17 0
-62 -299 30 0
-285 152 -290 0
154 -237 -32 0
251 283 -54 0
40 249 181 0
127 275 -236 0
152 -129 219 0
3 55 113 0
-283 -4 107 0
-23 16 -290 0
291 -130 285 0
-217 -15 199 0
245 -220 34 0
-70 -292 -205 0
261 -135 177 0
-289 -72 228 0
-204 112 -151 0
-265 -134 278 0
9 100 -27 0
40 -97 -105 0
-89 38 224 0
26 109 -200 0
-5 -84 -300 0
124 183 80 0
207 1 224 0
-288 186 -218 0
-89 262 21 0
197 -2 -131 0
-101 167 290 0
-191 -22 -9 0
-133 -154 -181 0
162 265 -11 0
-176 -23 -147 0
-98 294 122 0
-187 -107 -167 0
-131 200 -289 0
-56 146 159 0
-91 159 -134 0
-278 272 -88 0
-189 -284 36 0
-263 -143 -181 0
-27 -234 -73 0
73 99 -126 0
126 -294 206 0
-259 -97 -297 0
284 223 -147 0
224 26 247 0
-145 -242 2 0
-272 184 174 0
-267 103 -125 0
55 249 165 0
136 -152 -58 0
-20 -210 284 0
-99 259 -4 0
-143 274 38 0
13 -254 200 0
57 -297 -202 0
60 -240 -126 0
247 -27 -113 0
-5 -288 -260 0
-246 -93 -79 0
140 -121 10 0
-207 -165 -54 0
-293 -43 -251 0
-259 -214 -54 0
176 -23 31 0
162 115 188 0
181 213 251 0
-76 -296 -138 0
-189 233 -190 0
-32 190 -231 0
73 260 257 0
-12 29 24 0
-299 64 -264 0
204 -24 181 0
-3 159 -57 0
-168 268 -38 0
-169 -206 -257 0
106 -227 102 0
-28 -276 -250 0
38 -150 -202 0
62 214 -164 0
147 120 113 0
91 276 195 0
195 69 -187 0
253 125 22 0
177 251 288 0
194 -93 -31 0
31 -236 147 0
-223 72 40 0
105 220 -183 0
-96 -19 210 0
-128 219 156 0
15 -150 -245 0
-198 -82 -45 0
-146 -198 252 0
225 -232 39 0
-221 -254 -92 0
157 -165 -238 0
277 -204 -281 0
-21 -85 38 0
-108 -100 26 0
84 -167 65 0
102 114 209 0
-209 -118 -3 0
-45 25 -168 0
286 -112 138 0
-17 -101 -81 0
140 7 93 0
-198 243 -44 0
-220 135 152 0
-59 -11 -246 0
14 125 -42 0
286 238 50 0
253 -142 222 0
194 134 215 0
-244 -211 -88 0
257 -38 -253 0
-238 195 229 0
-10 -62 177 0
-204 -200 92 0
-60 51 94 0
177 -213 187 0
-223 -158 -50 0
135 269 -174 0
66 271 -71 0
300 -199 221 0
-127 -14 -165 0
-9 134 -151 0
-82 43 123 0
-138 271 -282 0
177 -138 236 0
-89 62 -108 0
-43 -59 181 0
257 59 72 0
65 -258 -298 0
-118 -292 -70 0
247 -175 18 0
169 -130 2 0
-82 -126 218 0
110 -129 -172 0
-209 -8 161 0
15 65 132 0
-138 -217 -93 0
218 200 194 0
-189 -57 134 0
-192 69 92 0
2 286 75 0
184 251 -158 0
-212 191 257 0
200 109 197 0
136 -155 -172 0
88 -183 -171 0
73 32 -203 0
89 -165 241 0
-168 141 -39 0
-48 98 19 0
-9 233 165 0
41 134 194 0
-121 126 196 0
200 -62 118 0
-225 -292 197 0
-149 -232 -94 0
141 79 113 0
-151 -167 193 0
-86 245 -296 0
129 50 -37 0
234 258 -33 0
36 10 237 0
-219 -96 -162 0
117 14 196 0
-109 -283 6 0
-91 43 153 0
264 8 59 0
-136 154 -278 0
276 136 -75 0
298 192 -79 0
-203 144 -210 0
-112 135 155 0
-255 262 33 0
-49 -266 232 0
-82 -125 293 0
-35 38 -205 0
204 -104 -257 0
62 -75 246 0
-123 -239 -223 0
-51 193 -153 0
-249 -53 273 0
219 254 197 0
-161 121 262 0
-103 234 -118 0
59 -102 -267 0
279 -177 151 0
-94 -232 -46 0
137 72 193 0
-210 237 -59 0
-217 -221 123 0
-165 -277 82 0
151 -41 185 0
-49 278 -208 0
186 171 206 0
121 19 31 0
-54 286 -93 0
-257 79 141 0
-174 -125 97 0
-138 40 -59 0
-209 -69 -42 0
250 28 -8 0
172 152 -278 0
-74 -93 17 0
256 -177 -280 0
-105 167 -286 0
-43 -252 -99 0
153 -51 91 0
273 78 122 0
74 220 178 0
26 -297 -116 0
23 150 -159 0
-242 -271 48 0
47 75 46 0
203 -65 271 0
150 -286 104 0
41 265 297 0
288 -28 134 0
-212 -206 -58 0
35 10 5 0
173 -49 -217 0
28 57 -117 0
-206 -101 142 0
210 -258 -74 0
269 13 -97 0
281 39 -160 0
230 -283 42 0
-146 278 65 0
-120 49 -37 0
-3 -106 68 0
-125 80 269 0
-192 60 209 0
-184 130 -143 0
-206 -281 20 0
183 195 -298 0
-279 -252 -291 0
-184 -142 296 0
-166 -74 125 0
32 132 -149 0
-61 -105 247 0
-73 -76 220 0
277 -203 213 0
-20 -155 -159 0
278 34 90 0
-44 131 -158 0
137 -40 -273 0
-171 90 26 0
-183 106 -281 0
-164 -287 -207 0
-208 240 200 0
-194 -158 -181 0
-68 208 -274 0
-146 155 -157 0
-289 274 -37 0
248 236 -90 0
-134 45 75 0
65 -154 -50 0
57 -156 210 0
89 -63 -229 0
34 253 12 0
37 195 86 0
134 -251 -206 0
261 -253 169 0
-173 254 290 0
-169 174 -216 0
-187 -232 -208 0
188 -39 -120 0
243 -143 234 0
226 -246 243 0
203 -11 121 0
277 -240 197 0
214 90 232 0
-226 -67 -222 0
-127 130 173 0
221 257 -119 0
-148 213 74 0
-236 262 16 0
-125 -12 -264 0
16 144 -153 0
-91 11 -27 0
-226 -142 -171 0
-218 65 208 0
231 -169 82 0
-137 77 -190 0
173 -3 225 0
70 -269 -291 0
152 126 -206 0
-224 -4 259 0
249 109 -205 0
62 -105 229 0
-121 -200 24 0
214 12 141 0
-247 155 206 0
-147 212 -133 0
-253 103 -226 0
-241 -178 132 0
229 -210 161 0
138 235 -57 0
-58 214 -121 0
44 -226 -8 0
194 108 85 0
246 210 202 0
-236 235 -128 0
225 183 64 0
233 133 11 0
-156 -29 33 0
243 116 -86 0
124 53 286 0
-7 -210 -189 0
188 216 -102 0
231 92 55 0
-176 16 61 0
-15 -199 -252 0
-85 272 44 0
83 -157 206 0
18 -140 -272 0
-263 146 -67 0
186 -232 286 0
187 -259 -26 0
-127 119 81 0
-29 -210 86 0
40 176 -61 0
-131 49 -243 0
92 146 -118 0
220 24 164 0
-222 -291 -214 0
202 201 273 0
177 -277 154 0
-220 -195 -94 0
-253 168 -272 0
-225 -33 125 0
196 -84 138 0
-83 -129 -214 0
234 -216 235 0
-72 -198 265 0
137 -114 158 0
-216 -274 -68 0
-30 -261 -111 0
-283 -101 -242 0
-162 100 -150 0
123 6 -165 0
21 -162 -242 0
-178 -298 -141 0
-39 -2 114 0
-106 -133 235 0
-217 -231 294 0
-60 155 199 0
20 -147 -22 0
39 -244 -43 0
-185 69 -298 0
124 -184 -235 0
157 294 257 0
-168 250 122 0
103 225 236 0
-51 -273 272 0
-121 -153 253 0
-246 -110 34 0
-222 20 120 0
-209 -116 61 0
169 -124 -115 0
-50 -37 -181 0
-163 16 -28 0
159 227 -8 0
-179 -273 -50 0
-186 -91 281 0
169 -210 174 0
-55 11 -237 0
-232 226 -139 0
51 152 -205 0
128 -206 -259 0
-123 -217 145 0
-261 186 29 0
130 109 -123 0
-61 185 -281 0
245 -214 118 0
74 102 -202 0
-153 -80 -81 0
-51 279 57 0
-286 -49 127 0
42 112 -221 0
-263 -83 -113 0
285 109 -28 0
194 72 -139 0
168 -300 -51 0
53 142 -215 0
-4 18 -190 0
-162 130 112 0
31 -61 44 0
-73 -25 -7 0
104 -164 224 0
-144 -119 -61 0
133 230 191 0
159 -87 20 0
-106 -36 19 0
241 72 -208 0
-264 19 49 0
222 -141 -137 0
-138 -226 -149 0
-213 -125 200 0
108 206 101 0
-276 244 264 0
40 -255 263 0
-169 -35 195 0
234 -164 -105 0
181 -288 -247 0
164 -157 239 0
-57 186 -89 0
201 -35 -41 0
72 283 190 0
-159 -58 -250 0
47 72 -179 0
106 197 -162 0
259 51 -66 0
89 78 -48 0
-3 136 247 0
17 -93 -110 0
206 -170 -72 0
180 -61 144 0
171 -183 -114 0
127 45 51 0
-223 -12 -236 0
-179 -106 180 0
34 139 -187 0
115 -271 172 0
-50 76 -7 0
54 -109 -179 0
-188 -100 -12 0
220 254 142 0
288 18 161 0
-56 -291 225 0
-28 294 -94 0
5 -239 254 0
242 256 193 0
65 263 99 0
275 -294 183 0
-255 138 -230 0
61 -28 79 0
204 250 29 0
-65 102 -173 0
153 230 -294 0
28 55 -261 0
-298 -280 103 0
225 -23 185 0
45 -193 120 0
174 -77 206 0
124 90 -172 0
-90 87 -234 0
-206 276 -138 0
-21 165 30 0
75 -70 -175 0
163 -103 267 0
-143 231 -193 0
203 -23 -137 0
-46 125 209 0
-233 108 183 0
246 -240 83 0
193 128 67 0
-264 -105 -50 0
276 -170 222 0
159 -175 109 0
99 61 -223 0
202 39 36 0
-107 234 -116 0
-203 232 -60 0
140 255 -272 0
27 -138 80 0
-61 71 81 0
17 -188 192 0
167 -283 250 0
32 90 203 0
261 -201 238 0
9 -251 -175 0
-38 207 189 0
130 8 -227 0
30 274 123 0
-119 145 -228 0
187 2 21 0
172 -81 133 0
-254 -157 196 0
-214 -63 196 0
15 -31 281 0
59 18 -75 0
-124 275 42 0
-280 193 35 0
-267 -198 113 0
-226 -49 144 0
248 -30 -292 0
294 -242 10 0
206 42 93 0
1 7 203 0
210 269 -162 0
259 45 180 0
-14 114 218 0
-17 66 -264 0
-8 203 221 0
226 -204 250 0
137 167 -184 0
-234 60 -143 0
-160 199 108 0
-142 230 18 0
-55 -118 -266 0
87 -76 157 0
167 -127 7 0
-280 -179 4 0
103 153 206 0
84 -162 241 0
-62 263 76 0
-128 -279 -73 0
232 -254 -276 0
-79 -188 -277 0
208 -219 261 0
-29 -211 238 0
-36 10 299 0
145 280 20 0
272 -99 -6 0
-20 -260 -200 0
-105 -49 -44 0
214 -88 277 0
-62 -292 240 0
-291 -9 186 0
196 242 222 0
196 -47 75 0
31 -290 210 0
78 -85 -24 0
-127 31 76 0
-270 218 -243 0
-118 28 -291 0
246 -116 -59 0
-190 272 -209 0
-276 28 -57 0
220 38 286 0
267 -300 -107 0
178 -130 70 0
279 -110 -12 0
-265 -262 -276 0
-155 -83 191 0
124 -128 125 0
-143 -135 104 0
30 -69 118 0
-255 165 -254 0
115 272 -178 0
139 79 267 0
-101 129 206 0
-248 181 -279 0
-42 115 143 0
39 185 -115 0
-31 -235 -165 0
-245 -219 27 0
-239 66 222 0
-167 -299 265 0
205 -201 278 0
188 42 172 0
-24 -155 107 0
280 7 246 0
-257 -99 -57 0
-227 206 -262 0
-57 -287 85 0
-181 183 155 0
-32 68 -299 0
294 295 134 0
279 171 6 0
294 -104 287 0
261 -141 197 0
133 -85 291 0
178 -127 -36 0
-300 -280 172 0
68 59 276 0
-20 257 121 0
199 283 229 0
85 -134 -89 0
-195 218 172 0
-55 72 266 0
-111 247 133 0
-160 -101 1 0
161 221 -32 0
265 -13 -68 0
93 51 279 0
-192 142 -201 0
-120 267 61 0
36 -15 -185 0
92 -57 -74 0
-82 182 -220 0
-169 288 -177 0
179 284 -234 0
277 -37 -134 0
-82 288 -127 0
69 -72 -213 0
119 -138 277 0
157 -179 -41 0
78 -173 -179 0
220 81 -72 0
-207 111 -38 0
-236 -23 -130 0
15 -243 53 0
-36 8 172 0
287 -219 -140 0
166 52 60 0
126 112 127 0
-199 216 37 0
29 68 60 0
17 197 -35 0
67 231 213 0
-120 -14 -267 0
-171 -106 72 0
214 24 60 0
-36 112 -134 0
264 -83 -52 0
241 190 56 0
246 -152 52 0
-291 131 -190 0
-130 -178 -197 0
-297 248 193 0
-283 -203 -162 0
275 -44 183 0
205 216 -63 0
-173 -21 -181 0
-111 64 87 0
-276 298 -112 0
-190 -131 184 0
-52 -197 63 0
-55 -203 137 0
-201 223 -284 0
145 197 -15 0
-275 -156 9 0
68 65 -58 0
250 65 99 0
96 295 167 0
-105 -211 -281 0
-79 -225 108 0
173 -80 -111 0
-165 125 -38 0
55 35 -162 0
-265 209 228 0
296 -166 300 0
210 184 -214 0
-137 252 72 0
-23 -34 279 0
20 102 -195 0
88 243 -97 0
286 119 263 0
-27 -45 -62 0
54 -256 3 0
-268 187 282 0
-6 116 85 0
-170 -177 -7 0
-256 -262 23 0
279 -20 128 0
300 283 126 0
172 89 -128 0
130 143 -161 0
-261 89 -200 0
-117 -86 -232 0
166 120 -193 0
-107 -76 -288 0
214 47 -276 0
125 249 -95 0
-287 -86 145 0
149 -88 -179 0
-191 -102 -209 0
-203 189 -250 0
229 -76 179 0
202 161 241 0
296 183 -222 0
156 251 145 0
-49 -127 -199 0
-289 52 -227 0
203 195 150 0
235 -287 246 0
154 159 -148 0
211 44 56 0
-83 240 -163 0
39 253 -47 0
-247 -274 -203 0
-103 163 -241 0
94 -267 159 0
-16 -267 199 0
253 -154 120 0
-164 285 282 0
-8 -7 -211 0
-237 137 62 0
-150 263 -45 0
206 229 -124 0
178 -49 -240 0
201 -199 266 0
-103 -296 202 0
178 173 -231 0
282 265 -189 0
-116 2 -166 0
-182 244 214 0
231 292 -106 0
-127 -74 112 0
-215 -263 -17 0
103 -20 -91 0
-248 252 169 0
-173 -144 -38 0
-255 -31 195 0
-237 -130 -288 0
73 -61 -279 0
141 -121 279 0
178 152 -80 0
70 83 282 0
72 -147 177 0
-239 268 -275 0
9 148 -48 0
50 49 -295 0
-258 202 24 0
234 26 -143 0
-253 -41 -258 0
-85 -117 298 0
-215 221 -30 0
261 162 -126 0
73 188 -76 0
146 250 270 0
99 -209 227 0
108 -61 -298 0
129 7 -156 0
-106 -32 -164 0
-147 -258 177 0
-130 241 -270 0
258 -69 -139 0
79 -287 71 0
-200 76 253 0
69 -292 -19 0
-163 255 -41 0
24 202 14 0
-232 286 95 0
-248 210 86 0
-292 -154 174 0
-114 128 -287 0
122 -50 -3 0
-278 -167 225 0
-292 -271 -250 0
81 265 117 0
142 -183 -220 0
-241 158 34 0
271 110 -95 0
-97 -191 -68 0
278 -68 -46 0
243 274 -37 0
-216 -99 234 0
-121 -68 -205 0
65 204 107 0
32 -97 -296 0
224 11 160 0
18 -295 -176 0
-106 136 -298 0
-285 -290 135 0
280 192 136 0
192 235 122 0
213 -25 123 0
-159 -210 -25 0
-291 -127 38 0
254 129 243 0
-2 225 259 0
-204 -170 102 0
-49 197 129 0
117 -96 254 0
-279 -287 223 0
243 71 -22 0
123 -191 247 0
174 179 135 0
-13 12 190 0
143 86 -54 0
-180 156 -119 0
95 -112 -286 0
-32 -64 -230 0
256 -282 184 0
-157 104 -54 0
167 -100 -231 0
-112 39 34 0
264 283 -299 0
-194 247 -91 0
82 -210 -213 0
-138 -110 163 0
137 209 -256 0
-120 237 257 0
-262 276 -250 0
