p cnf 300 1278
23 215 -272 0
-23 208 -103 0
199 -39 279 0
175 -79 272 0
-120 -182 -17 0
123 18 230 0
295 -60 134 0
285 191 277 0
-241 45 -163 0
235 18 220 0
211 70 104 0
-23 -255 76 0
-249 163 -128 0
177 178 171 0
134 275 -229 0
-15 203 199 0
-82 95 -60 0
-135 17 -278 0
-266 104 -198 0
30 -279 63 0
14 -6 -146 0
45 80 -90 0
-64 -243 -84 0
118 297 -247 0
74 -165 5 0
-77 273 205 0
152 -229 -176 0
-161 197 -226 0
271 52 -90 0
66 256 -47 0
20 -77 -171 0
-121 270 85 0
150 -149 24 0
278 51 53 0
189 223 -132 0
71 300 167 0
170 189 -109 0
130 -166 185 0
-253 -261 -189 0
47 45 156 0
32 297 -27 0
249 -37 298 0
270 126 102 0
56 207 161 0
226 -127 -200 0
146 228 -224 0
95 102 138 0
-181 -2 212 0
-281 -228 -105 0
87 190 64 0
-123 209 -221 0
-32 -136 124 0
137 -212 -2 0
-150 -249 -152 0
141 300 -140 0
-160 249 192 0
160 -61 -116 0
-44 119 -199 0
-80 45 -20 0
-6 10 247 0
-232 -128 -270 0
-202 -27 23 0
-286 67 139 0
294 -265 -70 0
281 -253 70 0
69 237 -49 0
-204 -173 218 0
154 -119 -189 0
226 -28 245 0
-255 -22 -127 0
-19 57 -38 0
269 216 -261 0
258 -149 -35 0
190 272 128 0
-152 -283 -87 0
-167 2 255 0
-68 -94 200 0
-208 -181 -48 0
264 104 -273 0
291 120 -126 0
179 130 92 0
210 -230 49 0
-102 -44 184 0
27 110 249 0
75 -270 236 0
-184 -229 -163 0
114 -194 -234 0
3 186 -113 0
-224 56 188 0
262 -89 188 0
-171 -211 177 0
161 92 27 0
-298 -92 -103 0
-287 -131 -251 0
229 284 -111 0
-108 -269 21 0
-171 -106 -61 0
-239 95 -80 0
198 27 -204 0
-200 282 116 0
113 99 130 0
-42 -83 -189 0
-60 -148 269 0
44 -133 -151 0
-178 17 -131 0
-203 245 -128 0
268 109 75 0
-223 -90 135 0
-272 299 -212 0
-13 52 53 0
7 270 111 0
181 250 277 0
125 -118 -184 0
222 145 187 0
-270 282 -189 0
18 292 179 0
-230 79 276 0
237 272 -61 0
273 249 144 0
-274 -140 -30 0
55 89 228 0
105 -159 85 0
-264 220 -101 0
13 -80 -124 0
133 86 -111 0
-227 126 262 0
-276 289 269 0
188 -17 -233 0
116 183 -27 0
-11 -205 -251 0
298 -11 260 0
198 -57 227 0
152 -89 -187 0
173 62 -273 0
-67 94 200 0
-278 45 -192 0
229 -118 -53 0
46 8 275 0
198 39 -257 0
5 -15 -72 0
140 115 99 0
-167 75 189 0
-89 269 297 0
101 -262 48 0
248 -117 -3 0
-112 235 -26 0
188 -125 -103 0
-126 27 144 0
-106 229 214 0
-229 -60 226 0
211 138 -198 0
4 240 159 0
-201 86 173 0
-101 36 -227 0
171 -52 -300 0
-129 176 283 0
-1 246 168 0
-114 -209 -200 0
16 -71 -288 0
-62 265 -11 0
-240 -285 -266 0
269 47 56 0
140 -292 114 0
54 -49 -231 0
-19 293 -3 0
-216 220 -77 0
19 296 -247 0
-10 -222 -130 0
140 -51 190 0
180 -121 -169 0
-264 -155 163 0
258 11 250 0
-245 -235 87 0
-153 27 158 0
-91 -192 228 0
113 148 100 0
253 164 273 0
125 -86 98 0
-184 241 219 0
280 -237 192 0
26 4 144 0
75 235 -107 0
-219 -98 -159 0
-153 -100 -180 0
-197 -187 295 0
167 -259 287 0
223 -17 -106 0
-90 284 184 0
-26 15 -224 0
197 -60 18 0
-203 -277 166 0
192 -26 139 0
-194 105 265 0
295 -202 -194 0
-181 115 19 0
-24 97 -127 0
192 288 -68 0
-28 215 169 0
-290 -268 130 0
110 268 -245 0
287 -171 -49 0
-269 -35 -224 0
3 42 133 0
-173 -219 22 0
-215 -189 -124 0
239 -2 164 0
-74 119 -254 0
98 11 -36 0
-43 284 189 0
12 154 -64 0
-63 -189 134 0
-45 -195 167 0
35 -234 164 0
57 -241 210 0
-76 -159 -77 0
-292 -273 -218 0
-45 -296 69 0
-288 184 -136 0
33 -212 -227 0
-161 44 132 0
224 111 276 0
-24 203 -32 0
172 -207 42 0
-119 150 -179 0
-12 -115 255 0
-97 117 136 0
178 240 45 0
297 31 258 0
184 49 -228 0
145 -279 -92 0
-113 63 -190 0
-150 -262 -226 0
-211 -133 164 0
-109 -236 -278 0
-11 21 -266 0
64 -211 73 0
-291 -239 -296 0
-164 -167 217 0
-165 -270 17 0
-277 -3 -191 0
139 -164 205 0
-209 78 178 0
65 -51 -49 0
-157 85 192 0
128 -300 242 0
95 186 127 0
-135 -181 -82 0
117 242 -62 0
-150 -155 -86 0
-227 -125 53 0
33 -152 163 0
116 296 34 0
-25 261 -83 0
-80 110 -23 0
167 -76 -13 0
246 -165 97 0
225 -139 119 0
241 296 -181 0
130 219 -144 0
-146 -207 244 0
-207 -22 -25 0
-121 -93 238 0
-149 60 -284 0
-226 216 68 0
27 230 -57 0
-18 111 119 0
-196 10 -70 0
236 256 -276 0
-57 6 -41 0
104 -54 -116 0
296 -242 -295 0
58 92 35 0
109 -175 -251 0
235 -81 -111 0
146 -78 -245 0
-195 -64 245 0
-219 -105 -86 0
-221 -147 207 0
-270 -229 -245 0
-129 295 87 0
-123 -62 24 0
-245 -134 -268 0
124 281 -114 0
46 -19 -287 0
-276 -290 214 0
46 -106 -25 0
-83 19 -105 0
167 -70 -18 0
-208 201 42 0
287 -249 -241 0
42 68 -76 0
-232 85 77 0
226 56 195 0
173 146 284 0
-237 -114 -101 0
37 196 -226 0
216 -174 198 0
186 52 219 0
298 -119 289 0
297 -255 -268 0
-43 -82 -255 0
-4 -179 193 0
-72 18 -111 0
99 -73 -2 0
294 185 64 0
-280 150 200 0
134 -82 -63 0
-288 -45 68 0
187 237 -185 0
-26 166 201 0
149 264 71 0
197 118 135 0
21 95 208 0
69 -152 36 0
39 -110 -267 0
35 110 115 0
-264 139 186 0
94 189 270 0
-148 -157 -73 0
-227 215 -280 0
-15 162 -144 0
-57 72 16 0
112 -295 -77 0
252 247 -119 0
111 -164 152 0
-55 138 -270 0
-179 82 -70 0
-232 -181 -262 0
-10 99 -61 0
71 151 -164 0
-100 97 -128 0
66 -57 -92 0
-145 -123 -101 0
-174 -254 -124 0
212 -274 291 0
223 98 289 0
46 224 -129 0
-25 188 -159 0
-15 215 -208 0
208 68 -65 0
251 -35 72 0
85 23 -99 0
-18 176 -250 0
-229 296 32 0
2 264 106 0
24 -178 104 0
278 -213 246 0
-57 -239 50 0
-248 -3 -122 0
224 -211 -70 0
-190 -38 275 0
178 253 -290 0
-176 -29 -246 0
193 -95 -250 0
-86 -184 35 0
-62 283 -26 0
88 -127 13 0
-180 -199 -26 0
-284 -244 119 0
33 -239 -100 0
111 6 -242 0
-221 -178 -81 0
-142 -17 112 0
-66 26 17 0
-109 -113 -146 0
-184 -218 296 0
71 238 33 0
244 17 -236 0
-40 53 -99 0
-214 -122 16 0
-191 -152 267 0
-203 252 1 0
-241 -270 72 0
-128 -123 285 0
219 -225 -252 0
-182 -129 -172 0
-155 -292 -16 0
161 -139 -79 0
178 -146 186 0
213 24 128 0
-11 143 58 0
172 -219 37 0
-46 136 191 0
-296 -112 -8 0
-240 -100 58 0
256 -47 234 0
148 92 -105 0
-48 -231 -257 0
-134 185 -114 0
102 -285 -30 0
15 -99 -248 0
-173 -230 170 0
-194 -98 -166 0
-251 202 117 0
187 -159 -158 0
177 -300 -245 0
-203 -196 216 0
65 262 -174 0
287 199 -267 0
-214 -295 57 0
147 45 22 0
-60 94 254 0
-158 -163 -239 0
-47 -92 34 0
153 -210 -59 0
-116 -112 -198 0
216 -88 -64 0
9 -160 -195 0
212 58 -291 0
64 157 -97 0
-231 49 -28 0
-181 -122 44 0
-219 236 253 0
254 99 -67 0
132 -253 -131 0
128 39 11 0
-293 238 158 0
-10 173 -245 0
-183 16 94 0
-36 -216 -33 0
220 -293 22 0
-266 -64 207 0
31 94 -197 0
-250 -300 -254 0
113 207 -169 0
34 256 -211 0
172 208 178 0
-195 -97 -275 0
-39 -154 -117 0
271 -36 138 0
4 12 33 0
64 -3 61 0
-207 -160 -272 0
-179 -44 274 0
-68 34 -41 0
106 -87 -135 0
-12 193 158 0
13 -84 -97 0
-4 106 280 0
-227 218 28 0
278 -257 13 0
-26 -242 80 0
209 45 245 0
-171 145 41 0
-161 -150 51 0
40 -91 -169 0
-93 233 65 0
-107 -31 -100 0
-77 175 -108 0
71 -26 185 0
13 235 -135 0
-139 -278 220 0
1 -106 -174 0
-184 192 254 0
-251 -255 -154 0
-34 -182 -229 0
-137 -55 -277 0
-149 -293 146 0
-220 -259 114 0
-147 250 228 0
82 -214 282 0
42 -125 47 0
257 -189 -297 0
-50 -151 -245 0
-288 -19 -93 0
-162 187 -260 0
-131 27 111 0
135 -42 -237 0
139 153 200 0
-88 299 81 0
-158 -82 -199 0
173 -30 -67 0
-59 146 -72 0
-171 74 -185 0
-41 80 178 0
-225 245 -207 0
222 -224 -47 0
151 276 -133 0
-50 -129 -260 0
-214 -204 101 0
-264 -69 209 0
253 245 -61 0
180 80 229 0
117 -163 284 0
143 -155 17 0
-87 26 218 0
-168 16 169 0
61 -173 228 0
-291 -112 -202 0
-96 -33 -164 0
-274 114 45 0
-56 180 122 0
268 149 -26 0
60 147 -183 0
47 -92 253 0
-21 -88 -197 0
-295 -156 -261 0
-207 -93 14 0
-139 -222 46 0
-208 64 -264 0
112 -186 -126 0
2 63 -88 0
250 -281 -158 0
-275 87 -29 0
152 -182 -184 0
-116 -183 -2 0
-107 148 215 0
-87 -13 227 0
245 103 197 0
-142 -43 55 0
243 -67 121 0
28 120 88 0
193 -182 -211 0
-86 198 -139 0
-229 296 206 0
-157 23 76 0
268 146 63 0
49 -190 -35 0
104 -251 -194 0
81 139 -290 0
185 -189 109 0
19 106 -225 0
-245 -30 6 0
-245 252 177 0
101 288 124 0
-180 -150 58 0
-167 -42 -69 0
-23 -30 199 0
-96 -47 -39 0
54 -48 -38 0
-139 145 2 0
276 -29 -252 0
152 198 128 0
-68 170 12 0
-273 -221 241 0
-36 -184 177 0
-39 64 111 0
-61 20 -146 0
159 -283 -299 0
208 -139 -3 0
-78 203 23 0
-44 8 120 0
105 -17 239 0
-183 -83 74 0
110 29 -61 0
200 190 -284 0
-247 -199 -101 0
193 100 -111 0
151 223 4 0
39 244 99 0
181 -81 257 0
-191 29 172 0
-220 183 -244 0
106 -29 -127 0
142 -83 -208 0
74 -157 -67 0
-101 2 5 0
60 118 269 0
-126 119 183 0
40 289 -213 0
-47 28 227 0
179 -230 -252 0
-124 -61 -255 0
-171 -96 244 0
-231 292 -177 0
-251 -267 -169 0
245 97 -191 0
-257 249 141 0
-270 -221 226 0
136 -86 -269 0
91 105 -182 0
129 146 -278 0
200 -133 194 0
152 70 -14 0
84 -188 220 0
150 -134 -191 0
-155 119 294 0
-181 -183 -59 0
-184 -89 97 0
60 151 -162 0
-58 188 216 0
-159 -252 96 0
98 288 61 0
112 37 -253 0
15 241 96 0
204 -134 -290 0
130 -139 85 0
-181 107 285 0
176 155 158 0
92 -104 -256 0
-86 -173 -184 0
211 271 -166 0
-209 212 106 0
-62 274 43 0
62 24 209 0
-228 191 -300 0
113 -167 -17 0
74 110 206 0
209 178 259 0
187 300 174 0
293 172 -287 0
191 -85 37 0
53 207 -296 0
-194 14 170 0
60 207 238 0
272 176 81 0
-100 -87 -29 0
111 265 -207 0
151 127 -137 0
239 156 59 0
-124 157 174 0
-64 284 -296 0
-18 -102 -230 0
-29 -95 57 0
147 9 217 0
-212 -17 -76 0
-95 73 -127 0
-17 289 -120 0
215 132 -288 0
-174 -284 292 0
144 -24 197 0
1 18 -24 0
-218 135 -262 0
104 1 -21 0
-234 149 -273 0
-225 178 12 0
-170 -286 -184 0
155 -297 130 0
10 272 -162 0
-203 -279 123 0
103 289 96 0
-40 -117 -200 0
-233 -18 -35 0
-284 -282 271 0
257 -147 1 0
-67 -8 -258 0
-95 79 48 0
12 -248 -51 0
-180 -300 -269 0
-177 -168 86 0
-53 127 19 0
276 3 170 0
140 295 -266 0
-196 -71 160 0
202 -85 -67 0
222 299 173 0
-129 -195 -260 0
272 -274 -160 0
-213 -21 272 0
-66 228 -176 0
-36 -49 238 0
-206 168 -26 0
-207 -60 -175 0
-120 -127 -266 0
187 265 55 0
-59 -205 140 0
-226 -290 -296 0
-236 -45 -194 0
3 -162 -73 0
171 54 -206 0
-248 167 217 0
101 -285 -28 0
-33 223 217 0
-24 40 247 0
65 36 225 0
-84 101 43 0
-149 118 -85 0
-213 -200 19 0
-85 -82 -166 0
220 -285 -108 0
-175 -104 146 0
-154 81 138 0
-181 -101 -111 0
286 -190 -58 0
-279 -243 -251 0
298 56 -225 0
246 -197 -153 0
185 134 -68 0
-89 126 -225 0
-70 -25 -77 0
-133 -217 -216 0
-265 5 35 0
127 229 143 0
-179 -84 175 0
79 -122 23 0
110 8 -28 0
-297 -196 131 0
-92 87 -180 0
-93 236 -23 0
243 -153 278 0
291 -170 -153 0
-49 4 -131 0
226 -153 -289 0
-93 123 205 0
-294 -153 -169 0
39 84 30 0
241 157 112 0
26 59 169 0
298 184 18 0
293 269 265 0
-90 185 151 0
-234 271 -41 0
248 10 27 0
105 193 103 0
47 -229 -125 0
-164 -157 283 0
-95 -284 246 0
-275 -214 158 0
-203 34 -106 0
-157 -16 -95 0
-220 -186 46 0
-217 -259 224 0
-169 47 299 0
-278 297 -223 0
297 -265 189 0
266 -218 -249 0
-17 -286 220 0
-8 274 -109 0
-116 -201 271 0
187 111 -160 0
221 -40 -233 0
-245 28 174 0
32 49 253 0
-151 -24 -2 0
101 -195 243 0
-190 -278 226 0
264 74 88 0
227 -268 -210 0
-223 -30 -231 0
-18 112 -51 0
-160 -96 -67 0
-46 127 -49 0
183 -37 -16 0
-24 168 -253 0
-48 -153 -187 0
292 133 -111 0
-62 -172 -117 0
188 -253 157 0
-63 229 -61 0
50 255 234 0
96 -175 -100 0
192 43 62 0
-21 -111 126 0
-19 -299 -107 0
283 -102 -259 0
22 -217 -202 0
-247 -150 45 0
252 -55 81 0
-125 -228 278 0
-199 -246 -178 0
177 -174 43 0
-269 253 -154 0
-273 -133 -63 0
-233 196 186 0
-269 45 -147 0
26 -264 -77 0
-72 124 -23 0
146 68 -95 0
-121 248 15 0
-195 262 -192 0
-140 56 -226 0
156 -25 238 0
240 8 -246 0
23 187 140 0
131 -258 107 0
75 -21 -175 0
-6 230 38 0
-17 72 52 0
215 161 -7 0
-89 -239 -21 0
67 -278 -81 0
-84 272 -235 0
-278 -102 146 0
-210 178 -10 0
-269 215 105 0
-237 -207 98 0
260 -90 -118 0
225 32 60 0
-159 -180 151 0
-97 54 -90 0
-149 -137 -104 0
283 6 215 0
289 270 132 0
-112 -300 -145 0
238 -56 246 0
28 24 193 0
186 7 -64 0
213 85 210 0
-208 -30 223 0
127 -175 -152 0
-279 -252 -87 0
136 109 101 0
-296 24 93 0
-124 -90 -257 0
-24 -26 -27 0
253 -146 -288 0
-81 -79 -107 0
145 -208 121 0
283 -34 231 0
-272 -115 23 0
80 -21 -28 0
105 -150 -178 0
-267 -109 -141 0
-234 239 -25 0
-202 -95 -21 0
67 56 -157 0
264 -101 16 0
-230 13 72 0
127 271 -249 0
165 5 177 0
-251 -181 -58 0
-56 298 137 0
-58 -70 -246 0
233 216 218 0
222 237 -271 0
-212 178 59 0
-145 -62 -231 0
77 -43 244 0
30 -173 -73 0
220 120 -243 0
178 62 221 0
175 -190 81 0
-246 -13 166 0
240 131 -39 0
-283 -138 166 0
179 249 69 0
-2 82 115 0
-128 13 -282 0
-41 274 238 0
196 -69 -173 0
127 -235 201 0
151 -282 -51 0
-45 -15 -136 0
-264 117 -56 0
141 227 181 0
271 -160 -68 0
8 125 221 0
-115 231 -291 0
81 -24 140 0
-23 222 -117 0
44 -29 131 0
-184 -234 42 0
-183 -210 -2 0
123 150 -217 0
264 300 -208 0
-175 300 22 0
-251 129 284 0
118 255 -198 0
-7 230 114 0
-33 123 -52 0
-104 138 95 0
-118 -98 293 0
96 -50 -93 0
-33 277 23 0
125 -3 -213 0
-266 -72 288 0
159 123 -71 0
59 -212 238 0
124 299 18 0
213 201 -65 0
-39 -99 286 0
297 268 -233 0
62 233 69 0
278 96 275 0
-229 -131 -138 0
279 270 -240 0
-193 120 204 0
104 -213 46 0
279 -52 55 0
-228 -244 176 0
-235 -231 128 0
-17 148 -187 0
-77 253 -219 0
-79 67 -246 0
285 26 228 0
194 -245 70 0
21 -191 143 0
276 -199 22 0
-54 52 -147 0
118 -231 -141 0
-287 152 253 0
-214 96 -144 0
118 -46 -228 0
150 87 -138 0
-121 31 -226 0
-62 81 -214 0
-4 -191 18 0
87 -220 294 0
292 -180 32 0
-98 107 229 0
264 -177 -73 0
5 -21 269 0
-40 27 31 0
183 139 -99 0
80 161 -195 0
191 -70 -157 0
-124 -74 97 0
103 -3 169 0
-206 144 -164 0
228 -113 -182 0
-257 -251 -3 0
-248 16 -181 0
-204 115 -154 0
283 -136 72 0
195 -153 135 0
-293 116 -95 0
116 80 167 0
-263 -151 -25 0
6 249 -142 0
-20 -67 -80 0
242 -26 -235 0
-112 -201 50 0
-283 -129 -9 0
-99 -132 252 0
-296 -212 -125 0
257 125 96 0
235 -229 -271 0
-200 -291 230 0
136 -92 -166 0
-163 263 106 0
235 -29 179 0
-195 95 -63 0
11 -41 131 0
-74 276 277 0
-168 33 54 0
-57 -49 174 0
156 -276 -90 0
144 289 -295 0
38 -132 59 0
31 -82 145 0
-81 268 218 0
88 -93 -10 0
-262 237 -125 0
-195 238 -125 0
-237 281 50 0
152 161 92 0
-45 -16 -283 0
136 -174 -177 0
-125 31 180 0
-210 82 -96 0
-142 227 46 0
108 -298 137 0
87 -12 268 0
-35 84 -160 0
-227 27 -76 0
-52 7 -40 0
15 97 39 0
32 -290 -135 0
-228 -109 -202 0
283 -47 -217 0
-111 -232 -266 0
-251 249 -73 0
-218 -123 35 0
-3 -186 -132 0
139 15 -44 0
242 217 -184 0
-150 55 -273 0
-104 -37 -148 0
94 -163 254 0
149 43 -96 0
-53 145 129 0
114 -116 193 0
119 -282 134 0
170 75 -236 0
230 -56 -153 0
201 59 137 0
230 -13 112 0
88 176 -159 0
-174 -37 166 0
273 -68 222 0
157 -191 -124 0
297 179 268 0
200 268 290 0
295 241 66 0
-229 41 17 0
-69 195 102 0
1 -235 -234 0
-143 -287 59 0
-40 -274 -157 0
6 -98 -76 0
-271 -218 18 0
171 204 -284 0
-89 -58 254 0
118 62 212 0
-23 -246 178 0
-215 -27 -42 0
243 -234 -293 0
140 117 3 0
-174 88 -165 0
279 -2 211 0
-248 291 171 0
262 64 110 0
8 -34 118 0
94 -222 15 0
133 28 278 0
260 216 289 0
-180 -294 -108 0
197 170 165 0
-103 -36 185 0
179 79 -156 0
-191 277 -290 0
205 -87 -63 0
-151 -241 -43 0
249 88 -27 0
63 167 -127 0
228 20 -46 0
225 228 52 0
234 18 187 0
-98 -111 262 0
-234 -125 85 0
219 173 292 0
245 114 199 0
11 -263 -295 0
84 7 124 0
122 279 3 0
-63 -155 234 0
-297 -296 -295 0
-48 140 127 0
252 116 228 0
31 -80 91 0
-229 100 -190 0
256 286 151 0
-78 228 -128 0
26 8 100 0
-171 -264 -19 0
-151 176 -252 0
173 -268 -224 0
269 -221 -163 0
-110 -173 124 0
150 39 -104 0
-110 -277 85 0
-105 115 -50 0
-65 -115 30 0
284 -136 -19 0
-13 6 -11 0
175 -90 133 0
9 -112 162 0
288 29 -111 0
-53 264 -127 0
44 222 -11 0
284 249 56 0
-295 8 -276 0
-129 169 -65 0
-221 -10 159 0
-280 57 170 0
39 -84 96 0
-179 291 141 0
-180 134 -288 0
207 -288 -66 0
96 -80 149 0
259 39 -96 0
-243 104 258 0
-160 34 262 0
296 96 -150 0
-87 -1 20 0
-172 250 169 0
31 -38 167 0
33 95 1 0
-193 -221 -209 0
-190 52 -199 0
-296 175 298 0
-254 259 -32 0
263 -136 -191 0
35 60 -218 0
-34 214 -36 0
-189 -259 -132 0
174 -172 -93 0
-288 -239 129 0
245 37 -240 0
-188 -150 -149 0
43 75 -116 0
231 -88 -287 0
293 -125 13 0
97 111 206 0
42 82 -105 0
244 217 195 0
-187 -226 -233 0
266 -135 -82 0
-30 220 177 0
-158 -91 130 0
-49 -261 -111 0
162 -289 84 0
-215 140 -244 0
268 263 298 0
-161 -194 -65 0
-62 70 -214 0
-178 127 8 0
-124 -215 184 0
-82 -48 221 0
153 38 255 0
-219 57 215 0
207 -17 111 0
227 -112 -8 0
-200 -248 176 0
293 235 204 0
22 40 -56 0
225 245 -112 0
-62 -11 -297 0
-196 -174 268 0
213 -77 211 0
184 -168 -117 0
169 69 125 0
-269 -43 -211 0
45 -251 -83 0
-173 294 151 0
-91 -1 197 0
-77 107 128 0
-80 107 -105 0
60 -173 37 0
-283 -186 -237 0
-284 -77 -54 0
43 256 198 0
-235 -67 -75 0
-167 -139 10 0
-243 -195 25 0
196 269 -54 0
-73 -48 -269 0
112 -143 276 0
-179 -296 -264 0
-160 270 -96 0
92 -154 38 0
-102 8 220 0
225 265 239 0
78 114 129 0
-9 -53 202 0
238 236 243 0
151 70 -272 0
-117 143 286 0
-89 -63 288 0
-5 -191 -15 0
-159 -150 -9 0
-102 261 145 0
37 168 149 0
-191 128 -28 0
124 67 -39 0
267 208 -96 0
61 180 -87 0
118 260 -192 0
280 -117 -161 0
58 -182 173 0
247 48 171 0
-257 -253 -105 0
-201 84 -300 0
-169 -81 135 0
-150 193 -46 0
291 -213 243 0
-194 -294 -43 0
-82 162 93 0
213 34 -108 0
175 -109 -54 0
257 271 215 0
-178 -49 -25 0
-245 262 178 0
161 -23 -72 0
170 -72 -195 0
274 227 -293 0
-141 -144 -28 0
-54 -112 -209 0
-22 141 -276 0
-277 246 211 0
275 -189 27 0
-34 111 -118 0
-264 11 -148 0
-224 -88 -246 0
-122 72 -10 0
-226 205 67 0
-286 94 142 0
217 137 -75 0
-64 290 -215 0
177 183 -196 0
139 -31 -210 0
-106 -223 249 0
106 149 -263 0
106 162 -205 0
-12 239 287 0
-230 225 212 0
-244 276 12 0
-76 202 152 0
-299 -282 -205 0
-77 -51 277 0
261 -98 186 0
-18 230 86 0
158 159 120 0
-162 -154 -20 0
235 48 -261 0
193 216 214 0
278 -44 -34 0
-145 185 33 0
51 -140 39 0
5 -192 283 0
-300 -39 257 0
122 204 207 0
296 278 37 0
167 -185 -9 0
-107 -209 230 0
215 -46 -167 0
-231 -271 79 0
-26 -276 -190 0
-160 169 -4 0
80 -279 -79 0
-83 52 -155 0
-80 94 261 0
-86 76 21 0
70 197 -179 0
-119 130 82 0
-164 198 -58 0
87 -293 -32 0
69 -184 142 0
-285 -136 -123 0
25 13 -288 0
-244 263 164 0
-174 -204 -234 0
92 52 -101 0
107 138 119 0
85 -128 46 0
47 35 18 0
76 272 -38 0
-170 4 -276 0
-186 200 2 0
194 -110 106 0
239 -297 -161 0
161 -242 119 0
272 -45 -123 0
72 -10 128 0
51 15 31 0
-286 -158 -195 0
56 -266 5 0
-94 16 150 0
57 106 -30 0
136 -141 -235 0
-51 264 -109 0
171 136 120 0
-139 273 -166 0
6 -119 276 0
-286 143 205 0
253 -45 128 0
129 -75 198 0
-53 -198 -288 0
-139 268 187 0
153 -218 -143 0
-100 -98 -145 0
40 -32 -226 0
6 -298 120 0
17 -145 -262 0
-128 -189 -131 0
-56 -225 -17 0
-267 -164 229 0
-102 -135 268 0
-81 -127 -106 0
107 281 -21 0
-294 -117 76 0
166 175 -46 0
100 155 98 0
138 96 -72 0
264 -192 -162 0
219 -38 110 0
40 -144 190 0
205 85 242 0
297 -198 -44 0
-300 -231 -74 0
46 14 272 0
-292 63 -258 0
-123 -267 -205 0
-219 -285 265 0
-260 -271 139 0
135 -139 227 0
-134 -17 156 0
197 -38 -48 0
-41 242 -191 0
-52 27 57 0
-187 -129 143 0
-217 -62 98 0
157 37 244 0
-217 -219 60 0
122 144 -230 0
30 250 -290 0
-51 -96 208 0
225 162 282 0
