p cnf 300 1278
-194 -43 -105 0
251 -39 -65 0
9 -295 -113 0
-179 201 45 0
-81 -164 -268 0
-142 -155 -90 0
-222 -107 -72 0
172 215 217 0
160 -71 136 0
-91 -159 63 0
139 -279 -278 0
67 -115 -26 0
-255 -91 282 0
2 -134 -116 0
-65 79 21 0
55 15 -26 0
-284 -79 41 0
-156 128 236 0
280 106 -271 0
238 237 48 0
-191 -93 -300 0
13 -262 -93 0
101 82 115 0
-122 -101 16 0
-254 -59 -199 0
-97 -55 -53 0
269 248 -210 0
-257 -70 -74 0
-212 -199 -255 0
151 231 99 0
-121 -170 46 0
22 214 234 0
-117 -20 -270 0
1 -39 231 0
-34 -78 290 0
270 -77 253 0
-291 -12 -238 0
-219 -173 -119 0
-131 -10 262 0
257 -140 -80 0
193 59 68 0
-141 -221 -148 0
274 -300 191 0
202 -265 -227 0
292 -64 104 0
-46 -266 -70 0
129 266 34 0
247 75 -105 0
72 48 55 0
-124 200 -83 0
-222 101 -196 0
140 277 -229 0
-281 -259 -118 0
-16 -176 227 0
-262 -281 -47 0
-286 -298 20 0
106 9 -11 0
-160 -208 -23 0
-215 128 182 0
-50 -180 193 0
279 -219 -181 0
-146 150 -59 0
227 176 64 0
105 110 -51 0
-270 -15 -28 0
178 256 -63 0
242 136 -259 0
-6 233 180 0
-207 231 274 0
-123 24 -162 0
198 139 -217 0
-47 -233 82 0
-83 -118 -129 0
-10 294 139 0
-33 -223 -99 0
171 91 106 0
-5 -213 212 0
-154 202 -267 0
-250 -290 -130 0
-138 -281 117 0
-279 -201 153 0
-186 90 187 0
56 32 -221 0
30 -96 78 0
146 -268 -58 0
-23 129 -283 0
-44 -8 -269 0
133 -174 161 0
-124 -92 292 0
242 -36 207 0
29 -293 -38 0
179 -30 151 0
207 -249 -100 0
-265 238 188 0
-107 43 16 0
-257 -174 141 0
267 272 -5 0
-130 92 -91 0
-89 -216 144 0
241 160 74 0
-19 -116 139 0
-167 227 164 0
-295 248 148 0
179 220 -255 0
139 92 -182 0
157 242 250 0
-123 -1 -216 0
167 44 -272 0
149 274 182 0
267 36 -174 0
-216 181 150 0
105 -14 -177 0
-66 21 172 0
-174 -18 -20 0
257 221 -160 0
168 -130 -45 0
80 -34 -222 0
-152 -8 -269 0
-200 107 112 0
-209 -23 -31 0
-176 -31 26 0
279 214 93 0
-117 -225 240 0
279 277 162 0
-214 -138 -266 0
291 -170 -277 0
51 109 -237 0
-236 92 -261 0
11 267 -4 0
165 -272 94 0
-32 200 268 0
-50 251 -53 0
-23 -73 61 0
-94 167 -181 0
160 -36 134 0
288 66 134 0
-170 -256 296 0
38 -11 -249 0
-103 209 -184 0
98 -260 -56 0
231 -66 264 0
-275 -106 -210 0
-20 -169 109 0
79 -261 -197 0
252 -185 119 0
-245 268 -110 0
-70 -176 -50 0
-292 -244 -45 0
-135 -17 -284 0
-138 -125 -160 0
-210 -271 -184 0
-299 241 141 0
139 -126 182 0
-213 120 -126 0
163 2 -161 0
74 -259 11 0
90 96 -158 0
-161 48 247 0
-153 -173 187 0
-21 -130 220 0
289 -239 24 0
-218 53 176 0
21 264 -268 0
57 -220 -165 0
-25 -88 150 0
-251 244 156 0
155 -152 -281 0
-155 -200 -255 0
-264 42 282 0
-119 -275 -85 0
142 -246 -240 0
221 -43 -258 0
147 -247 -37 0
-183 -220 162 0
111 -23 212 0
79 168 35 0
-292 -129 229 0
70 110 -288 0
155 -1 48 0
-82 -68 76 0
247 -95 -194 0
153 215 -177 0
-129 298 149 0
159 -225 -289 0
83 289 -240 0
-18 172 212 0
102 134 191 0
-115 30 257 0
18 -99 283 0
89 282 -208 0
273 294 -184 0
123 -173 -287 0
66 249 -267 0
-212 -229 104 0
182 -33 -225 0
-38 -264 -9 0
-85 295 -82 0
-98 84 285 0
26 -35 -237 0
-51 49 -64 0
-29 109 -280 0
137 -94 299 0
284 270 173 0
-277 159 -142 0
222 -294 183 0
59 293 206 0
-107 215 22 0
-119 124 81 0
299 16 90 0
-210 -124 70 0
-226 -109 216 0
89 -250 18 0
150 -252 -4 0
249 -192 62 0
-289 296 253 0
-186 -159 57 0
226 260 115 0
190 -266 -102 0
-104 -216 81 0
-121 -203 -26 0
-139 64 -270 0
164 -1 -47 0
-279 122 -226 0
60 -147 151 0
201 246 -276 0
-115 179 206 0
249 -154 -4 0
-289 -201 -48 0
135 -113 259 0
-2 -93 -200 0
-44 241 279 0
138 79 59 0
-106 -169 -118 0
212 23 142 0
-7 75 -85 0
215 101 81 0
202 -34 235 0
-96 55 -255 0
36 -80 -141 0
-288 70 -53 0
-254 77 175 0
214 -59 -98 0
-21 -25 -204 0
-171 168 216 0
-115 -41 -258 0
96 236 69 0
190 -59 -242 0
143 40 -193 0
4 47 71 0
-110 -91 -187 0
-210 -137 274 0
11 13 -259 0
216 -221 -282 0
237 -257 -242 0
188 97 36 0
-120 251 238 0
-171 49 27 0
-284 -296 85 0
112 120 -272 0
-238 -106 -52 0
163 161 -73 0
299 147 140 0
222 -226 -74 0
-98 -100 72 0
-249 192 -54 0
-132 -190 -273 0
149 -93 48 0
-127 -124 77 0
149 96 -250 0
300 -241 -18 0
-201 -15 63 0
-138 261 -181 0
-125 124 -152 0
-119 -16 -50 0
170 177 -128 0
-186 -101 -34 0
-74 279 72 0
133 180 172 0
232 218 -214 0
-192 156 276 0
227 211 84 0
26 -151 -235 0
189 105 196 0
122 180 -80 0
-203 -40 173 0
-271 50 -228 0
252 -266 142 0
199 -122 243 0
27 -118 14 0
-231 296 86 0
184 117 140 0
9 -153 35 0
133 -162 171 0
217 -172 -255 0
-24 94 -262 0
159 164 88 0
-229 154 -276 0
-211 146 8 0
133 -282 -24 0
-86 278 -112 0
161 -80 -251 0
-242 -214 -272 0
137 -201 -165 0
225 248 29 0
-142 102 -196 0
-167 112 -20 0
-193 268 -26 0
118 -18 208 0
54 118 177 0
-214 234 -166 0
35 93 240 0
-171 116 257 0
-171 266 -4 0
195 -281 141 0
70 -114 -80 0
143 -42 -147 0
4 184 216 0
-155 83 4 0
-256 -272 -43 0
-144 -50 -78 0
253 -114 -24 0
163 244 139 0
-157 268 58 0
-265 -37 -90 0
-55 27 -50 0
-123 -53 -45 0
30 -38 -103 0
28 -215 205 0
-7 174 -108 0
41 -263 45 0
-222 135 225 0
177 -1 279 0
-233 -58 127 0
109 -46 -233 0
-150 141 -160 0
261 195 -183 0
-218 -2 6 0
250 -132 -230 0
68 273 -81 0
-158 -170 -136 0
-244 -239 12 0
-195 -68 244 0
104 270 43 0
-47 50 152 0
-153 -256 -112 0
3 279 -280 0
257 3 274 0
-220 -248 208 0
122 -190 101 0
-25 166 200 0
-15 -288 39 0
272 -116 172 0
-82 -91 167 0
-255 190 -211 0
-60 230 -199 0
218 -198 163 0
-203 -252 236 0
-48 264 -32 0
22 30 158 0
-240 260 -209 0
153 -127 -7 0
-214 -123 230 0
-185 164 223 0
-92 -205 268 0
91 -169 255 0
-137 -101 283 0
-18 -146 30 0
108 -166 -23 0
138 -132 163 0
15 -70 -270 0
287 -261 256 0
-119 -299 -287 0
289 -86 194 0
175 -285 -237 0
-15 -34 291 0
147 -87 146 0
-217 150 -235 0
288 -67 150 0
-32 -152 37 0
-239 295 -102 0
-184 40 -113 0
268 -229 -195 0
175 199 157 0
206 -195 41 0
51 117 86 0
-63 -109 50 0
-228 114 292 0
103 263 126 0
207 248 -24 0
-57 150 154 0
-103 261 155 0
-292 -205 61 0
-138 118 -192 0
-146 300 -20 0
-159 -118 129 0
-40 16 78 0
-256 62 131 0
259 135 67 0
186 -204 -30 0
-53 -1 -291 0
137 -235 -207 0
87 54 28 0
165 -295 150 0
108 24 84 0
-214 186 -11 0
-281 -2 24 0
26 -196 -173 0
55 197 245 0
65 -227 -232 0
256 100 -59 0
262 78 -175 0
195 175 -141 0
-222 183 116 0
-203 -114 299 0
-217 51 201 0
61 -286 -77 0
246 169 51 0
164 -184 -267 0
-51 -154 -158 0
178 98 245 0
123 109 44 0
142 -137 -204 0
-125 -167 -113 0
-167 7 -3 0
-128 -68 -97 0
246 122 -83 0
300 48 -63 0
259 41 -180 0
-184 -89 274 0
260 142 92 0
133 157 -292 0
21 101 -148 0
-285 261 151 0
2 48 222 0
152 142 -66 0
-86 -78 298 0
-108 -71 262 0
-224 -102 -77 0
23 247 131 0
115 219 91 0
-115 -162 -222 0
167 82 260 0
-73 212 8 0
-189 249 -3 0
66 55 235 0
177 -36 118 0
193 -47 -41 0
236 -245 293 0
-27 113 -98 0
171 216 132 0
-63 -180 -148 0
-107 -31 -40 0
31 -40 256 0
149 -235 -97 0
124 -127 -40 0
-224 -186 -166 0
67 -180 -295 0
103 234 -212 0
-65 -229 -66 0
296 -82 100 0
126 120 193 0
2 -241 1 0
-198 -17 -152 0
245 128 -41 0
-25 -78 -189 0
-77 238 68 0
-298 -93 102 0
-90 -244 172 0
297 -271 204 0
71 195 -241 0
284 -243 141 0
254 -96 -27 0
129 -286 -222 0
187 244 192 0
230 -279 264 0
100 91 -14 0
-239 279 168 0
168 -243 -209 0
43 -28 272 0
103 -218 273 0
222 264 295 0
-50 -156 101 0
172 204 149 0
-12 151 275 0
-241 216 -229 0
198 70 -67 0
-193 115 136 0
299 252 152 0
-91 -27 -238 0
-270 285 -42 0
-24 274 277 0
-22 -134 -220 0
-12 76 -189 0
19 -68 -188 0
249 250 229 0
158 205 -253 0
167 -173 179 0
256 225 -231 0
-161 147 -270 0
271 -191 75 0
-222 293 -237 0
-231 74 -91 0
271 -191 276 0
-90 125 -118 0
-56 102 187 0
112 62 -126 0
-149 -267 -297 0
-91 228 -281 0
-146 -62 -111 0
30 -236 171 0
255 222 -236 0
-170 -175 -28 0
215 119 -296 0
230 -214 -242 0
-274 182 -258 0
-160 291 8 0
92 125 -250 0
11 -129 130 0
287 208 -291 0
194 150 37 0
143 157 -179 0
38 -52 -170 0
-150 -197 27 0
-285 118 -48 0
-174 -141 -47 0
-20 124 199 0
-181 175 267 0
259 -178 -31 0
12 -92 -186 0
26 264 163 0
147 -249 -45 0
86 279 -164 0
-37 172 -148 0
-225 -18 -209 0
148 298 192 0
-295 -68 -1 0
-149 -56 282 0
201 136 287 0
211 -198 139 0
-113 -151 190 0
258 -261 8 0
168 232 -245 0
-82 -156 294 0
89 -161 169 0
-39 -45 -86 0
-184 -252 -70 0
106 -60 -14 0
-270 -122 -199 0
175 -64 75 0
-142 281 235 0
217 63 -104 0
297 224 -300 0
-258 -74 -168 0
-103 58 -230 0
27 -246 187 0
-171 216 234 0
125 -201 -290 0
131 138 -203 0
-119 -132 -158 0
235 71 241 0
76 -75 -6 0
-287 19 195 0
-38 -79 69 0
-1 216 18 0
-122 221 183 0
-225 169 -208 0
18 -3 -58 0
295 259 107 0
193 18 227 0
201 -169 -27 0
299 -117 224 0
-49 191 121 0
273 -242 42 0
-258 291 -279 0
-19 -253 227 0
233 -64 25 0
19 -194 -183 0
300 180 49 0
-8 108 -284 0
-54 -60 296 0
-241 265 35 0
177 180 -56 0
-58 237 -148 0
65 11 157 0
269 250 -182 0
79 -7 36 0
137 161 64 0
-28 -190 37 0
-184 -79 20 0
34 184 -281 0
-107 -140 29 0
-217 -146 -75 0
-62 -261 161 0
147 66 -157 0
225 223 164 0
130 72 122 0
-279 105 -183 0
137 -125 228 0
-140 -9 -104 0
-49 -47 -218 0
-263 -163 35 0
-209 -225 -6 0
-124 93 -212 0
80 -135 266 0
233 -155 52 0
232 89 -294 0
168 273 109 0
-235 -216 163 0
-110 133 -274 0
187 86 -47 0
158 -33 -25 0
-236 -221 -71 0
-224 -61 -36 0
135 46 -226 0
-94 4 12 0
-44 -253 117 0
272 266 -132 0
158 216 33 0
-113 17 -273 0
-87 267 -21 0
-62 -115 15 0
188 204 -261 0
-296 -147 -98 0
195 -21 267 0
-46 162 -105 0
191 -80 219 0
-236 -120 -213 0
189 135 204 0
254 -210 212 0
120 159 139 0
-84 114 34 0
13 253 -224 0
272 137 164 0
-9 140 37 0
132 -123 169 0
106 -139 195 0
47 -265 247 0
255 266 172 0
112 -269 102 0
210 253 -164 0
239 133 -3 0
146 -144 234 0
82 13 101 0
-298 -258 7 0
-204 -263 265 0
270 -296 188 0
189 180 161 0
-52 -270 257 0
-214 -57 -56 0
-272 -294 -102 0
283 105 -100 0
89 92 -231 0
158 -108 293 0
244 49 -10 0
38 68 264 0
-71 -233 179 0
183 245 167 0
138 233 -87 0
210 81 162 0
120 172 222 0
283 -246 183 0
-260 97 173 0
120 -76 123 0
60 283 -297 0
274 -9 231 0
201 170 257 0
290 -85 128 0
95 82 26 0
-95 -72 -184 0
-173 125 24 0
208 -190 177 0
-207 -224 -135 0
286 -222 190 0
265 -131 -139 0
-120 -7 -195 0
27 -215 52 0
-212 -70 154 0
-125 250 -280 0
-95 141 -195 0
43 -18 26 0
-227 122 5 0
187 -211 -96 0
236 224 267 0
114 259 263 0
-170 -61 142 0
-204 -117 55 0
-282 -146 -114 0
-286 -216 203 0
114 24 87 0
-29 -250 -161 0
56 277 -293 0
23 79 114 0
-265 -274 -13 0
-176 -27 236 0
-198 -64 197 0
-52 26 199 0
69 -198 -75 0
275 285 145 0
-30 -39 294 0
-54 -148 -240 0
-175 -260 -28 0
300 -59 -74 0
-146 -187 -94 0
-44 109 236 0
138 297 -164 0
-268 247 -257 0
286 282 -31 0
-198 -136 11 0
-261 299 298 0
-21 227 -188 0
-59 1 253 0
-118 -65 -288 0
-167 258 -255 0
-44 187 109 0
-142 -268 213 0
-251 -56 158 0
-223 199 245 0
231 -63 -244 0
-76 -5 16 0
-225 255 -149 0
9 -66 204 0
-35 -206 128 0
30 57 -274 0
-74 -19 -9 0
-184 -20 -135 0
287 -254 243 0
-142 -54 -77 0
-177 216 -6 0
158 -127 -117 0
64 -274 109 0
-41 -190 -263 0
-195 -281 198 0
254 -234 -20 0
35 -152 -158 0
296 189 184 0
252 -159 203 0
142 219 -232 0
-92 149 -274 0
57 -221 216 0
-123 29 37 0
-95 27 210 0
193 -284 -251 0
-51 -167 163 0
99 194 204 0
-155 -294 84 0
299 9 -67 0
109 -172 -258 0
98 228 -242 0
93 287 262 0
-115 89 -14 0
-278 -248 150 0
-163 76 199 0
251 -287 118 0
-142 214 16 0
275 -55 242 0
30 -119 1 0
275 -299 121 0
-113 159 249 0
-166 141 3 0
-290 -222 -128 0
182 -197 -48 0
61 -235 20 0
-214 143 -83 0
-69 -205 85 0
-93 -121 -99 0
89 109 -273 0
55 -95 -260 0
51 197 -234 0
-199 -181 -86 0
162 11 258 0
-133 267 232 0
-248 105 -266 0
-110 -77 294 0
-173 -259 -278 0
119 268 136 0
4 -75 -240 0
262 -24 71 0
123 192 133 0
172 295 -20 0
-297 24 -70 0
107 198 -267 0
169 -261 241 0
287 -187 -260 0
41 -29 67 0
-218 61 41 0
-120 -169 155 0
46 -60 -72 0
-205 -186 296 0
-231 -215 239 0
68 189 220 0
-32 293 251 0
295 259 -76 0
-79 216 -207 0
-56 11 154 0
294 -128 -278 0
87 -124 -233 0
-11 179 58 0
-65 73 -260 0
-174 -170 122 0
272 -13 234 0
261 187 -256 0
-226 -36 274 0
-38 172 -285 0
-234 -291 -165 0
244 111 -183 0
178 -269 -115 0
55 121 61 0
-159 -100 240 0
2 -172 242 0
229 143 196 0
-64 -165 -179 0
-137 180 -162 0
-280 -207 -173 0
232 261 262 0
89 49 51 0
204 220 -99 0
-166 272 -192 0
-45 -65 -248 0
-148 194 -123 0
-273 254 -227 0
-100 282 -216 0
-212 277 289 0
236 194 47 0
-82 -156 -101 0
-236 243 -50 0
-37 143 228 0
-262 -93 -185 0
-145 6 -199 0
-105 76 -47 0
290 -127 -282 0
-55 -49 210 0
-158 115 -51 0
81 25 -41 0
9 -268 -55 0
68 8 -91 0
-139 -48 -142 0
-157 -275 188 0
129 -134 -6 0
9 258 -4 0
300 155 -267 0
-62 285 120 0
-67 -122 -73 0
155 67 -20 0
-284 -211 -242 0
138 60 -190 0
-146 278 -114 0
170 34 72 0
-267 -120 -287 0
231 -72 219 0
-197 281 -175 0
254 80 -157 0
-36 119 -173 0
-20 -184 71 0
93 150 103 0
4 151 -55 0
-297 -44 288 0
184 192 -135 0
237 -201 -85 0
-53 267 145 0
-197 217 -90 0
-83 -94 68 0
138 203 -219 0
84 275 -140 0
-217 115 203 0
174 239 243 0
282 -92 -69 0
-246 53 -159 0
-278 -123 105 0
-46 -98 172 0
-258 73 49 0
-50 -281 60 0
101 -248 -76 0
-229 68 -79 0
50 20 -277 0
29 110 167 0
66 109 -81 0
253 36 -217 0
239 -275 -106 0
29 300 -165 0
158 -223 151 0
106 -208 298 0
-28 160 95 0
-37 -156 -273 0
67 139 -219 0
-204 -57 152 0
-264 186 -79 0
-228 93 105 0
118 73 -238 0
-265 135 -207 0
7 90 137 0
190 2 -165 0
-7 -236 -185 0
-222 -84 114 0
225 -222 -40 0
252 299 128 0
-253 195 158 0
186 -249 -81 0
-255 115 282 0
-175 -139 97 0
40 -243 89 0
298 45 245 0
-21 171 219 0
210 198 -273 0
-137 187 -246 0
82 119 1 0
48 222 -104 0
-226 53 243 0
-32 289 -211 0
-300 4 -35 0
133 5 -293 0
203 117 5 0
-268 -250 6 0
-3 295 59 0
-75 -194 -100 0
222 84 -77 0
-81 -209 260 0
77 63 -262 0
65 196 269 0
140 -21 -271 0
126 163 -278 0
-173 -230 233 0
-253 -223 31 0
111 300 237 0
89 51 -221 0
116 -293 119 0
297 -277 19 0
-190 43 177 0
-213 28 98 0
-283 -262 -32 0
-177 -235 203 0
242 -248 -105 0
170 190 -16 0
-241 -174 273 0
117 -105 -171 0
140 -45 -10 0
252 -288 -112 0
-68 -299 270 0
83 -252 -104 0
251 -127 -64 0
-258 -127 -86 0
-237 269 -91 0
118 55 203 0
-45 -56 130 0
4 -245 141 0
-54 170 -171 0
-244 152 235 0
47 -222 -134 0
-64 181 -27 0
244 193 168 0
171 -124 -48 0
-231 299 91 0
-159 -126 -215 0
-218 123 -66 0
-54 40 264 0
39 -141 -187 0
-175 -150 177 0
164 -111 -179 0
266 -180 -131 0
-276 -135 62 0
129 -91 -292 0
102 -107 162 0
109 159 -162 0
11 -155 -80 0
-243 -127 78 0
60 -185 -17 0
-110 146 173 0
-47 245 281 0
83 179 7 0
-187 48 174 0
-74 102 -298 0
62 -265 -277 0
6 -34 11 0
-15 236 -234 0
-78 111 59 0
-236 -12 -156 0
112 155 186 0
30 219 32 0
-239 256 -117 0
244 8 101 0
-124 87 230 0
-92 -207 117 0
-82 -221 256 0
-34 -99 121 0
174 -46 7 0
30 -73 -183 0
-176 36 -226 0
91 256 23 0
104 -140 291 0
-31 -57 -236 0
-215 -53 -17 0
-118 77 261 0
223 298 128 0
-214 224 288 0
194 41 89 0
175 -189 -50 0
-34 108 -85 0
9 -82 212 0
167 -125 -260 0
-140 -121 -70 0
-8 -111 273 0
-52 -229 -228 0
93 -227 61 0
-64 -239 -97 0
-142 -209 64 0
19 258 -253 0
-252 -13 106 0
-261 -118 268 0
108 -91 100 0
-117 258 -176 0
-183 -166 -24 0
-148 99 -238 0
246 286 -104 0
-263 261 2 0
107 -269 291 0
74 -104 141 0
-218 3 -52 0
87 -195 259 0
-109 7 96 0
-8 -184 -134 0
-174 -60 -300 0
-102 279 -298 0
60 -82 154 0
-162 -141 -64 0
-143 -225 275 0
-205 144 -210 0
156 -17 -24 0
123 220 177 0
70 -138 -265 0
-88 192 -127 0
-183 83 -261 0
29 57 -212 0
277 172 -53 0
-117 -242 -102 0
-80 143 13 0
55 -192 49 0
-264 -2 245 0
-30 -143 -244 0
161 237 261 0
183 -180 -151 0
-248 -272 -66 0
-179 281 280 0
196 90 300 0
177 -296 114 0
100 195 242 0
-109 166 -273 0
273 103 -135 0
212 28 -227 0
-182 -38 -37 0
128 257 -167 0
238 -43 -250 0
-24 -135 10 0
59 221 -292 0
-259 243 209 0
188 285 -57 0
-283 13 -25 0
76 -31 -151 0
124 -108 175 0
220 136 235 0
288 191 -93 0
276 -98 215 0
191 50 -109 0
-258 -227 -140 0
-23 184 103 0
-290 19 21 0
-235 30 140 0
-162 -245 240 0
32 40 -134 0
193 156 -214 0
-199 -263 -220 0
-233 -241 20 0
-220 -147 134 0
-112 -236 21 0
243 111 220 0
-37 182 -165 0
135 99 -73 0
223 87 122 0
180 -85 -179 0
-164 287 81 0
-140 91 238 0
163 -294 99 0
171 89 -40 0
216 -119 139 0
-132 -256 218 0
-58 -196 -188 0
-143 -170 -87 0
223 -222 86 0
109 98 -259 0
-95 250 -253 0
210 -188 -219 0
293 -123 164 0
10 -30 60 0
176 -205 -295 0
-40 128 -52 0
269 -65 94 0
-105 -281 -104 0
-201 57 -96 0
-97 166 -76 0
-213 284 80 0
27 -61 -239 0
-298 -72 -112 0
-6 283 176 0
168 -92 251 0
38 24 -104 0
256 163 10 0
-144 67 -202 0
-187 -244 -161 0
-59 -97 -191 0
-265 -247 33 0
193 -246 155 0
19 44 -202 0
238 218 -244 0
18 5 83 0
229 48 -172 0
187 171 -180 0
-121 -40 -260 0
107 211 -246 0
227 -75 -129 0
114 270 25 0
-238 -106 74 0
154 83 263 0
116 -22 -241 0
144 -184 -135 0
109 172 -49 0
252 279 -289 0
102 -101 -209 0
146 -31 -287 0
104 -134 186 0
55 287 -17 0
3 -84 244 0
-262 -84 274 0
269 -184 -228 0
184 -114 181 0
158 -46 265 0
25 -65 209 0
36 -200 -210 0
-13 -59 118 0
299 61 -93 0
-241 -211 -63 0
204 -242 -128 0
-279 129 291 0
32 -168 60 0
-224 18 -298 0
-172 -231 143 0
-224 279 85 0
-233 267 39 0
-10 26 22 0
-93 92 34 0
35 -102 -158 0
-67 221 152 0
-63 202 182 0
-18 290 196 0
-30 224 169 0
180 144 74 0
215 257 -145 0
273 150 -77 0
-91 131 273 0
-81 251 -281 0
96 -184 -87 0
106 90 81 0
-178 230 85 0
-300 -218 -174 0
166 88 241 0
-270 297 35 0
-242 -7 61 0
-222 -104 -123 0
109 33 -3 0
-247 62 202 0
-104 -128 49 0
90 -96 -27 0
-105 -26 37 0
-189 174 -272 0
-90 -283 62 0
74 -28 82 0
-105 153 -299 0
-276 298 112 0
135 242 267 0
-138 -121 226 0
-91 -81 36 0
29 19 149 0
-232 -138 -263 0
268 -177 -181 0
34 42 -17 0
-32 175 231 0
255 148 -181 0
20 47 -19 0
102 168 -220 0
91 -44 -290 0
96 -290 112 0
146 204 -283 0
-54 -195 -164 0
228 243 -221 0
147 -278 -83 0
251 191 -196 0
-152 -59 -184 0
-11 215 38 0
29 295 115 0
28 -227 -298 0
-111 -66 256 0
-200 -123 -130 0
127 123 107 0
-73 -246 -290 0
268 149 204 0
-106 257 -280 0
-142 -242 -19 0
-56 -292 -25 0
134 -244 222 0
-233 -28 -172 0
-87 -5 293 0
283 -155 134 0
266 95 -117 0
152 182 102 0
29 -294 143 0
106 279 37 0
-113 215 -138 0
-105 -58 -111 0
-145 235 54 0
11 -124 156 0
248 10 176 0
102 21 -122 0
-199 80 193 0
9 30 -180 0
263 214 -238 0
-12 -36 68 0
25 -42 58 0
246 220 94 0
-215 77 -41 0
218 106 58 0
-187 -28 207 0
227 -270 -154 0
88 -214 -272 0
-155 -86 274 0
-84 -55 110 0
195 163 -96 0
190 47 241 0
-201 172 -109 0
49 -101 38 0
-71 245 -234 0
-101 203 3 0
173 81 294 0
140 -127 82 0
213 246 -130 0
-94 -138 -256 0
93 -147 254 0
-240 -156 -111 0
-130 173 75 0
-271 -285 -287 0
49 -71 264 0
208 -55 64 0
165 93 -271 0
-117 -212 -295 0
79 190 -218 0
-234 284 -170 0
107 -31 39 0
-284 118 227 0
83 17 256 0
-245 -119 39 0
195 236 109 0
50 161 -101 0
42 37 70 0
-277 -212 84 0
-222 -121 212 0
236 -162 -5 0
150 290 -64 0
-3 41 150 0
185 100 107 0
-282 -110 -38 0
-34 167 49 0
-60 -146 -148 0
195 -31 276 0
203 -187 86 0
-1 241 -279 0
-38 -178 215 0
29 201 5 0
279 196 -25 0
-29 266 -78 0
284 -174 -260 0
-57 -295 61 0
202 278 -37 0
