p cnf 300 1278
-116 147 229 0
-254 -86 136 0
-134 272 -286 0
76 -233 -34 0
-23 -230 -129 0
76 224 -87 0
37 65 133 0
-206 253 216 0
-6 275 117 0
32 294 99 0
-288 40 -246 0
213 222 -9 0
217 296 54 0
7 148 -157 0
-187 112 210 0
98 -258 198 0
259 276 20 0
-61 -263 199 0
-77 133 -15 0
-29 -203 -210 0
-164 -188 70 0
284 283 13 0
-229 -252 -11 0
-279 -251 -50 0
148 -140 269 0
253 168 95 0
-264 273 -69 0
135 -222 241 0
-65 -236 190 0
-187 -178 -79 0
232 -230 -276 0
37 79 -255 0
203 -28 67 0
149 -7 -178 0
-211 -38 88 0
-220 -148 105 0
198 167 217 0
-228 -182 217 0
-123 100 -272 0
75 154 245 0
105 200 -251 0
-131 96 71 0
292 76 178 0
-243 -193 220 0
-1 11 -218 0
-55 -27 259 0
-224 -200 96 0
207 129 -75 0
246 202 -142 0
-210 176 -296 0
106 -280 -219 0
-23 -205 172 0
44 237 -236 0
-294 3 242 0
-118 -277 -206 0
-72 -25 240 0
-260 201 -90 0
-180 249 -224 0
295 -237 280 0
193 -83 276 0
-79 -295 215 0
179 -140 -46 0
272 15 -175 0
211 141 -196 0
87 79 -179 0
-265 -260 267 0
-129 -23 -100 0
-92 184 -250 0
148 -284 -220 0
-35 203 25 0
238 -105 260 0
-137 37 63 0
-198 -2 -248 0
-31 77 163 0
-282 -206 -243 0
86 -5 27 0
175 -234 -63 0
188 128 -162 0
188 -244 -193 0
160 168 -23 0
2 -112 -121 0
-11 123 215 0
-204 -198 278 0
-160 277 49 0
136 -206 182 0
133 -12 -235 0
150 -233 -171 0
159 251 -97 0
-244 222 31 0
-6 -193 113 0
-7 216 19 0
-265 -55 66 0
149 152 -75 0
258 32 129 0
-184 -230 -212 0
-95 -174 87 0
-247 277 217 0
120 -233 -48 0
-265 239 -106 0
-119 -29 215 0
293 -105 61 0
183 19 -163 0
-84 -209 -253 0
84 157 -232 0
248 237 149 0
-134 131 -143 0
142 283 56 0
294 243 -148 0
-192 -58 179 0
-262 78 71 0
-197 25 169 0
105 270 -190 0
34 -68 -207 0
231 -266 -149 0
-170 191 -17 0
-206 -123 -203 0
-76 -211 233 0
215 -288 -232 0
-41 231 -69 0
278 -197 61 0
131 98 -178 0
38 37 -109 0
-74 282 64 0
-62 -155 26 0
-43 76 150 0
-79 -62 166 0
-62 45 4 0
298 -42 166 0
36 137 -98 0
-213 -43 105 0
-114 -87 141 0
84 185 -190 0
-183 141 137 0
106 -279 205 0
206 29 -110 0
46 257 -115 0
33 -149 10 0
77 -168 272 0
-158 -112 -176 0
-243 -248 -126 0
-123 184 260 0
33 42 47 0
197 -170 61 0
202 -195 204 0
115 -124 -69 0
95 69 150 0
13 -76 101 0
189 199 -236 0
-100 -266 4 0
-55 112 -252 0
-191 231 -222 0
-293 -91 -13 0
-224 -242 221 0
241 261 -150 0
273 21 -296 0
270 -242 -15 0
-232 9 15 0
-41 285 138 0
102 -164 -93 0
-39 105 -88 0
-12 -108 -137 0
87 42 29 0
226 293 -133 0
-28 -205 104 0
265 264 -62 0
-8 243 -98 0
8 -297 -91 0
156 -118 -116 0
179 -285 -176 0
212 251 -300 0
236 178 17 0
-271 -154 -81 0
-225 -275 -128 0
116 14 178 0
264 -278 -101 0
227 -102 282 0
-140 -227 207 0
-1 -4 -250 0
-92 79 -80 0
-133 90 -104 0
15 -125 240 0
-290 161 -112 0
-51 36 -96 0
-16 -105 292 0
-70 9 -245 0
-268 258 -162 0
79 -238 111 0
39 66 -29 0
12 -157 297 0
235 -287 190 0
199 99 -101 0
92 -197 24 0
-198 96 -63 0
144 105 -203 0
-289 250 -2 0
-275 -152 -178 0
-222 -135 201 0
171 -217 -176 0
-133 -18 264 0
27 -76 -123 0
-278 16 100 0
33 104 23 0
-280 273 107 0
157 -119 129 0
149 -104 10 0
-19 233 -187 0
-21 172 -205 0
101 117 -19 0
242 -247 149 0
-174 32 9 0
-224 -88 -245 0
72 -8 -265 0
167 -83 -201 0
73 -16 278 0
-242 -119 281 0
39 195 99 0
-258 -195 -274 0
-186 73 -229 0
239 139 -188 0
242 -124 -119 0
280 -160 -7 0
-110 -224 -12 0
258 240 5 0
259 110 106 0
180 9 214 0
150 -55 187 0
104 -210 226 0
299 -284 200 0
-130 -172 -294 0
109 -63 -233 0
271 -114 -204 0
-122 -275 -69 0
16 213 263 0
6 103 150 0
271 -1 -138 0
273 -265 -101 0
218 -170 80 0
237 -167 277 0
-131 -180 -263 0
-8 102 108 0
296 -151 281 0
257 -240 -179 0
44 -113 -285 0
-254 -52 -64 0
280 271 -299 0
111 161 -102 0
-170 201 36 0
-239 264 -275 0
156 -1 -20 0
267 196 93 0
-109 -293 52 0
-103 178 48 0
-276 121 38 0
92 168 -9 0
272 -127 296 0
-287 -227 122 0
-256 202 -200 0
-1 -23 -240 0
-284 -113 -299 0
-182 -271 175 0
132 185 -203 0
156 189 271 0
-38 -259 77 0
-257 -247 -226 0
-91 -4 141 0
-91 198 -93 0
6 -99 148 0
-2 120 -9 0
-138 229 -189 0
-265 237 169 0
-35 168 -69 0
54 -135 -170 0
-262 29 10 0
44 203 88 0
56 290 67 0
-222 193 75 0
94 240 -64 0
157 251 -125 0
294 -218 -131 0
-185 -289 -205 0
-122 -68 -269 0
-170 -212 -70 0
199 190 239 0
191 130 -11 0
54 -255 38 0
-228 -297 -220 0
-70 240 -69 0
294 -149 284 0
294 9 -277 0
6 -142 -103 0
284 30 -15 0
19 205 -14 0
237 -213 16 0
-188 -214 96 0
238 -151 -300 0
13 245 114 0
183 56 86 0
87 -222 45 0
49 -186 -298 0
276 270 -1 0
-42 107 25 0
-276 -273 -25 0
3 -155 28 0
17 162 -197 0
-73 225 160 0
283 -279 49 0
-53 281 290 0
-129 128 76 0
234 89 -23 0
298 -82 -156 0
-153 -289 37 0
7 125 -20 0
84 -260 125 0
-253 198 -133 0
-243 -299 5 0
-135 -174 1 0
-85 292 21 0
260 -112 82 0
134 -175 -197 0
-62 208 122 0
252 -70 -197 0
99 32 -84 0
-49 -64 72 0
36 150 -272 0
-15 237 -131 0
-101 204 -239 0
252 6 -118 0
299 -182 187 0
-252 -230 -209 0
-33 -167 -73 0
-300 -123 182 0
257 126 -57 0
56 132 -225 0
-128 -62 208 0
-64 -199 -187 0
24 -211 185 0
183 -101 127 0
-69 -294 -249 0
-206 -29 -67 0
264 -76 239 0
49 139 -151 0
65 -171 17 0
282 15 109 0
9 -295 145 0
236 283 -29 0
-227 -14 -82 0
146 291 71 0
-264 -99 -246 0
-210 87 75 0
-196 -154 132 0
250 -2 295 0
-67 -254 -36 0
-102 3 197 0
225 164 138 0
-188 226 133 0
65 -278 19 0
-227 -100 195 0
113 72 162 0
-221 -47 -86 0
-183 -220 87 0
268 -210 138 0
-57 157 159 0
255 -8 16 0
-37 -289 121 0
-227 -276 -215 0
-138 37 263 0
-6 224 -88 0
274 -182 -93 0
-167 125 267 0
158 -289 -76 0
33 -223 -107 0
-242 -236 148 0
-15 140 257 0
110 209 -292 0
-282 -146 -288 0
-198 180 -107 0
-19 -57 260 0
42 -243 -137 0
64 -177 -281 0
227 110 185 0
-207 -210 244 0
-10 9 189 0
-219 -129 295 0
-34 -103 120 0
269 5 -103 0
-43 279 277 0
44 -266 281 0
-204 -143 250 0
173 -215 54 0
5 135 -195 0
-92 -137 28 0
30 -84 6 0
233 108 265 0
225 149 37 0
-69 77 -267 0
-72 264 163 0
-122 230 56 0
-149 -119 180 0
-246 26 -150 0
-213 93 296 0
-107 -44 117 0
-237 -232 79 0
215 -167 272 0
-96 -63 -125 0
-93 -70 225 0
-216 101 -112 0
74 -15 257 0
267 163 -252 0
-186 292 127 0
254 -90 247 0
-74 233 -249 0
-155 60 166 0
-193 87 -25 0
251 216 153 0
-211 28 82 0
89 -62 -222 0
-203 256 73 0
-150 -138 -270 0
235 92 -123 0
-216 -244 53 0
106 -237 -56 0
-64 -77 -49 0
53 42 -63 0
40 210 14 0
155 153 257 0
-93 187 -51 0
-232 141 -124 0
38 147 111 0
294 245 170 0
-194 -217 -178 0
-285 281 -200 0
-128 -197 -32 0
266 151 -205 0
-99 -272 31 0
96 -23 91 0
-227 -54 95 0
-175 -39 298 0
79 34 151 0
-106 217 -130 0
280 193 -261 0
-220 -185 -160 0
276 -121 -197 0
169 287 -127 0
-129 -281 -211 0
-222 10 255 0
277 -188 244 0
71 -243 -25 0
1 299 164 0
-189 209 157 0
132 -175 255 0
21 233 236 0
76 16 -281 0
-44 -140 -70 0
252 102 16 0
54 188 218 0
210 164 293 0
-272 -55 274 0
257 25 -101 0
192 -155 6 0
97 -258 223 0
23 115 -191 0
-109 276 133 0
207 -94 40 0
-291 -153 194 0
88 -194 156 0
139 -83 -157 0
-202 -260 -106 0
-244 221 -297 0
-66 -21 -263 0
195 -128 -282 0
-264 -288 183 0
24 -227 71 0
-66 225 202 0
196 -105 265 0
95 -196 -194 0
58 217 -122 0
-25 -224 136 0
70 -203 17 0
112 -37 -189 0
-171 289 -34 0
50 -242 293 0
281 -169 221 0
259 -53 -57 0
-82 -206 58 0
53 -144 -206 0
18 7 -12 0
-272 123 -245 0
128 241 -112 0
144 240 -242 0
-228 192 293 0
-20 -141 -115 0
-16 -44 127 0
-27 -22 -154 0
3 285 -221 0
61 -227 65 0
-95 273 218 0
-168 158 -179 0
177 228 181 0
91 -68 100 0
89 -17 -219 0
159 -148 259 0
236 -212 43 0
4 -17 24 0
173 -211 300 0
103 117 -110 0
-5 -282 -146 0
25 -16 -276 0
-4 217 173 0
36 52 -32 0
-107 275 143 0
-74 -82 -18 0
73 -23 43 0
107 291 -20 0
11 221 -193 0
-238 -110 -181 0
150 272 63 0
-96 30 28 0
-103 212 -293 0
211 -236 -107 0
-76 269 -292 0
108 -289 -48 0
-221 236 183 0
-77 192 40 0
134 -5 213 0
-184 -273 103 0
-282 149 -29 0
139 -223 6 0
3 237 -177 0
183 193 166 0
222 27 23 0
17 239 -95 0
-217 -31 239 0
75 286 -206 0
193 19 -172 0
-120 231 200 0
-211 -113 28 0
-182 60 33 0
300 291 190 0
182 -20 -70 0
56 -187 -234 0
-8 -255 23 0
74 6 280 0
256 155 -118 0
-67 -255 131 0
-49 169 238 0
-248 -229 -225 0
277 60 -200 0
-20 -278 116 0
-38 266 -97 0
-238 -266 71 0
-91 -144 -175 0
28 -23 -182 0
147 -162 98 0
-251 -128 136 0
-264 148 191 0
43 -250 -51 0
-254 -152 -236 0
129 52 116 0
77 178 47 0
-236 72 151 0
270 -98 84 0
-47 -111 -30 0
-12 -127 -63 0
153 169 -51 0
-256 257 222 0
-130 -268 288 0
-107 -255 -258 0
211 254 243 0
255 -26 -185 0
-45 248 -83 0
63 -179 115 0
-22 -195 -227 0
152 215 -195 0
-167 -176 -214 0
235 228 288 0
-134 259 28 0
184 -262 61 0
-88 68 -9 0
-232 -9 -44 0
-217 215 300 0
-218 -234 47 0
41 121 -282 0
240 -149 229 0
-226 152 -68 0
-16 -298 -75 0
60 117 38 0
88 242 288 0
154 -246 -73 0
164 207 93 0
143 138 -295 0
-222 144 -141 0
289 270 -173 0
2 -157 186 0
-296 -230 217 0
-12 -44 56 0
100 105 -180 0
157 -25 -136 0
278 -46 41 0
-90 -248 15 0
-75 -174 -20 0
-162 254 43 0
-276 63 -189 0
-143 -290 96 0
-223 -210 137 0
64 -129 130 0
41 -5 241 0
80 -255 247 0
-189 -37 -146 0
238 220 123 0
34 237 -3 0
-144 -156 152 0
-60 181 120 0
-126 -245 92 0
27 -255 -64 0
79 -175 -126 0
47 -42 268 0
89 214 -155 0
-182 23 46 0
-71 -246 -232 0
159 -200 191 0
-186 -104 -284 0
-208 -73 11 0
45 -123 -135 0
-153 -287 -148 0
-143 -151 -235 0
-96 -260 200 0
68 -214 -169 0
37 221 237 0
-269 -182 32 0
-157 -261 -47 0
158 254 -91 0
217 126 -220 0
-262 -94 -63 0
-55 192 -289 0
203 285 -240 0
23 103 -280 0
-89 -235 237 0
246 104 42 0
252 144 -253 0
-155 287 81 0
239 -291 -256 0
47 88 -101 0
142 -246 186 0
-111 4 52 0
-55 78 64 0
194 86 14 0
-209 248 -95 0
-65 284 111 0
188 -84 -58 0
-162 92 -287 0
-143 -256 -165 0
-34 -205 186 0
132 -171 -165 0
37 115 87 0
227 -204 -32 0
132 209 -259 0
247 -112 157 0
-279 -56 246 0
-80 -237 158 0
166 12 141 0
1 -6 -262 0
-10 146 194 0
-46 -237 -87 0
-214 215 -270 0
35 51 -146 0
271 -241 -123 0
271 -263 116 0
255 -172 132 0
-263 224 -11 0
244 181 241 0
213 -69 -220 0
296 226 -101 0
182 -113 32 0
-69 -103 231 0
83 -166 -16 0
-130 104 -7 0
19 -167 15 0
289 52 -62 0
225 -96 52 0
281 -104 274 0
233 34 -259 0
181 -9 146 0
-127 81 71 0
24 221 -233 0
-274 -163 147 0
-97 -273 61 0
-82 213 108 0
-273 65 -14 0
18 -242 -36 0
44 17 -76 0
242 125 -38 0
-96 61 256 0
-56 55 -87 0
-145 34 -91 0
-117 -271 93 0
-194 -281 -237 0
-247 -68 -229 0
40 42 -46 0
-203 71 -73 0
-27 -65 127 0
95 -134 38 0
15 252 238 0
-240 -37 -242 0
245 13 -298 0
-199 7 78 0
209 -259 -249 0
59 95 -132 0
-154 94 71 0
-240 69 54 0
-258 -91 268 0
-57 -284 71 0
126 -237 -165 0
174 241 277 0
287 -134 83 0
-114 286 -159 0
10 151 233 0
229 215 281 0
23 50 69 0
187 234 4 0
215 -198 186 0
-150 179 -263 0
167 -283 76 0
117 -280 170 0
20 277 -195 0
25 112 -252 0
-150 -203 -139 0
-113 149 -229 0
146 -173 254 0
234 -30 -132 0
-246 -106 32 0
157 53 -100 0
96 273 123 0
7 -169 -196 0
-242 202 -89 0
-202 22 148 0
-229 123 198 0
181 290 248 0
-257 236 -169 0
72 -28 -97 0
215 268 -78 0
-48 -198 -240 0
52 -204 161 0
-14 -269 -90 0
-107 -35 -297 0
-296 -28 217 0
144 -122 39 0
-107 236 118 0
42 -26 282 0
204 -289 -260 0
80 -222 -233 0
-123 -119 -193 0
176 144 139 0
260 39 141 0
205 -27 139 0
100 62 -200 0
-65 249 -3 0
226 211 74 0
79 -8 -190 0
142 -269 97 0
130 -207 166 0
-88 279 -38 0
202 2 -134 0
89 74 28 0
-245 158 -34 0
-283 -180 -257 0
-267 -258 32 0
140 -248 -238 0
150 260 132 0
46 246 170 0
-214 270 -195 0
-145 -8 6 0
-69 27 156 0
204 284 256 0
-33 130 -177 0
27 -227 54 0
-296 72 -42 0
-222 240 299 0
-74 -212 29 0
196 138 181 0
212 -154 273 0
-259 -78 -229 0
227 -33 -37 0
-206 106 229 0
-138 191 258 0
298 210 -13 0
-273 -122 -147 0
-133 -40 144 0
-111 272 -169 0
-41 140 -60 0
-1 229 244 0
-126 -189 225 0
71 138 276 0
246 17 -264 0
181 103 -101 0
62 -11 -48 0
8 255 158 0
-277 -235 286 0
-256 -53 287 0
196 209 15 0
236 -122 184 0
153 125 -45 0
240 -99 -244 0
-147 -253 -167 0
-273 44 -155 0
125 -196 273 0
-126 46 -196 0
257 -84 273 0
-196 -13 -58 0
253 -110 22 0
-270 163 166 0
160 63 -214 0
19 192 252 0
99 77 164 0
203 102 -107 0
-199 28 -160 0
77 -213 28 0
-61 130 -296 0
-122 -87 -161 0
43 -46 -142 0
194 -6 -160 0
97 -13 -54 0
-201 -71 173 0
-254 -39 20 0
-215 -86 -143 0
-40 119 95 0
-268 11 207 0
-216 -83 -225 0
175 149 -140 0
93 -138 -229 0
290 288 -27 0
-191 1 154 0
256 12 -178 0
-147 -10 -222 0
-139 -259 -117 0
57 95 -141 0
281 61 74 0
197 -212 142 0
88 83 -4 0
-171 -191 -245 0
-262 -6 -275 0
-155 -207 264 0
56 -87 -24 0
-120 28 77 0
135 249 30 0
115 -230 -61 0
262 -118 -98 0
149 -56 251 0
-37 198 81 0
53 88 209 0
269 -79 36 0
175 -2 -85 0
-54 -211 -21 0
103 -151 22 0
213 -234 111 0
33 -238 -2 0
76 -222 289 0
-140 251 285 0
277 40 -225 0
98 178 89 0
-235 142 230 0
62 -241 -230 0
205 -147 -2 0
-265 233 -175 0
-3 269 -296 0
212 -247 95 0
-113 -62 -197 0
144 248 -47 0
-280 123 -225 0
-104 -101 -147 0
-278 -259 -180 0
22 -167 -15 0
-272 -174 282 0
184 -80 -119 0
295 -63 -119 0
26 33 149 0
-51 89 32 0
271 300 -242 0
296 152 128 0
191 67 154 0
131 16 266 0
32 45 -164 0
-89 -47 -198 0
214 -71 97 0
-149 216 68 0
-92 -193 50 0
-87 300 -292 0
-226 179 123 0
286 -208 -236 0
76 181 249 0
265 -71 -45 0
110 -168 -188 0
-76 212 -140 0
-253 -113 -86 0
151 149 42 0
108 111 -210 0
181 -258 257 0
-262 -71 268 0
81 -294 25 0
-9 -75 24 0
150 -247 -11 0
175 -294 242 0
124 90 -265 0
-110 300 -207 0
-80 170 -14 0
-264 30 232 0
49 -131 121 0
-233 27 -36 0
116 121 -77 0
33 -42 9 0
29 -257 202 0
239 -73 -116 0
-136 -52 -67 0
-200 16 189 0
-121 -129 261 0
161 131 -201 0
-72 -228 131 0
-12 -14 171 0
29 -299 163 0
252 -62 -2 0
-6 -182 203 0
-200 -10 135 0
-213 276 267 0
253 -174 -96 0
-216 277 -288 0
220 87 -63 0
-202 73 -112 0
189 -255 104 0
153 222 272 0
173 -39 81 0
137 -204 -266 0
-238 -136 -280 0
91 -67 -220 0
85 218 112 0
-296 241 27 0
210 -98 221 0
65 234 -195 0
192 46 -157 0
240 -83 -136 0
-178 215 -158 0
180 61 192 0
-44 157 133 0
-39 8 232 0
-282 -125 -146 0
-291 -89 149 0
140 26 -114 0
-17 184 -69 0
-13 -178 18 0
152 -233 145 0
-187 -13 -154 0
223 -1 -100 0
-189 -5 291 0
-132 190 -213 0
-254 -288 -260 0
-261 197 125 0
-263 210 275 0
-261 2 -81 0
201 -139 -11 0
8 -40 50 0
-247 125 75 0
-24 -120 -58 0
-53 -131 -239 0
32 -127 -51 0
-90 -79 -201 0
33 16 225 0
-133 17 -92 0
-181 41 154 0
-175 36 -152 0
146 -130 -164 0
248 157 131 0
-260 -15 -154 0
145 -153 -47 0
-182 65 -206 0
9 -91 -99 0
11 -35 -127 0
97 224 -26 0
-239 197 -159 0
-192 101 202 0
-276 128 -97 0
-86 287 -273 0
-289 -79 -82 0
135 243 126 0
97 -46 128 0
126 212 -216 0
-127 208 -173 0
130 -103 124 0
197 184 87 0
276 206 265 0
55 -231 -36 0
-298 -214 -236 0
-252 -279 -70 0
-121 193 -18 0
-198 -62 -153 0
43 -187 -275 0
140 31 -257 0
-264 -69 183 0
-132 -178 -20 0
82 220 294 0
-273 259 -258 0
-184 186 -296 0
-11 117 -34 0
-53 299 -8 0
191 -189 128 0
-223 94 33 0
-100 -208 -51 0
23 111 241 0
-31 -220 297 0
-74 116 147 0
4 248 -39 0
-164 -36 7 0
-182 74 -237 0
149 -128 272 0
-243 -269 -228 0
29 -61 -164 0
-3 212 224 0
-221 -272 -277 0
-163 -152 -173 0
192 251 165 0
154 148 -200 0
289 42 221 0
279 -15 -291 0
28 84 117 0
69 10 -46 0
-226 233 213 0
-178 -232 -82 0
-202 -67 -68 0
-21 190 -44 0
25 133 -112 0
-270 135 200 0
243 20 210 0
-166 -75 235 0
213 272 104 0
58 69 97 0
131 -255 -105 0
-91 -287 68 0
117 120 -134 0
-297 -296 -38 0
-278 83 87 0
-295 279 -167 0
37 81 -142 0
88 278 159 0
230 -219 -74 0
-110 216 -220 0
-131 179 -4 0
281 -44 14 0
205 -150 267 0
148 -253 -292 0
180 194 145 0
266 -156 79 0
14 -140 -237 0
119 268 280 0
220 -224 124 0
200 -295 -198 0
154 92 -70 0
186 -53 289 0
-181 292 221 0
13 -122 205 0
222 -184 17 0
-76 111 -17 0
38 -274 -57 0
268 -181 -33 0
216 -259 -279 0
-147 -294 -269 0
-213 -60 -278 0
232 122 -209 0
253 -102 188 0
-29 227 -201 0
-216 26 242 0
47 132 -299 0
211 -184 -131 0
288 -243 -163 0
233 215 -76 0
218 -274 41 0
-164 -77 230 0
224 -292 139 0
147 50 181 0
158 -193 -292 0
101 -162 -99 0
45 -203 -266 0
-266 -154 -139 0
-23 -45 193 0
117 105 68 0
-166 -253 -230 0
123 198 -99 0
-212 97 -91 0
25 116 -124 0
171 229 40 0
-117 -3 -251 0
-130 -168 -91 0
-55 127 -77 0
82 -238 -147 0
166 -91 132 0
52 286 47 0
64 195 125 0
-34 81 176 0
240 133 89 0
248 269 59 0
-5 222 225 0
270 -51 -98 0
126 -26 -112 0
27 249 -226 0
2 6 -44 0
-221 -181 282 0
230 88 34 0
6 63 -248 0
-190 -278 286 0
298 -218 -44 0
272 174 147 0
-12 -57 -140 0
106 -74 49 0
20 -172 162 0
7 -42 -193 0
-53 -203 41 0
298 115 30 0
-144 60 193 0
277 226 -223 0
171 83 216 0
-254 91 202 0
299 26 -46 0
199 6 191 0
280 -285 -247 0
36 256 -208 0
-211 -149 -293 0
-39 206 -81 0
164 288 -73 0
179 -56 -257 0
122 -85 190 0
2 -23 292 0
-69 76 -58 0
-3 -86 92 0
16 143 229 0
61 40 -58 0
-51 -83 289 0
26 -247 166 0
119 -269 -50 0
41 -23 275 0
137 -23 165 0
-109 -291 -209 0
-48 286 291 0
-152 -281 -254 0
293 265 94 0
-225 -296 -280 0
-256 -82 -65 0
-267 -237 264 0
12 51 -276 0
121 -160 -42 0
-91 247 2 0
48 79 -172 0
-22 -283 139 0
183 260 143 0
226 280 -123 0
-174 -18 160 0
189 244 -160 0
-230 -143 30 0
-3 -273 112 0
142 -195 41 0
-66 -126 252 0
139 62 149 0
-182 185 57 0
50 -258 -170 0
-10 -136 126 0
-19 -187 -47 0
194 -214 82 0
-19 -180 91 0
-146 79 205 0
268 247 -37 0
-279 -248 102 0
-260 -216 60 0
-34 230 -109 0
259 -47 -150 0
298 60 -78 0
271 -289 -282 0
-78 294 -200 0
182 168 -230 0
195 179 212 0
11 130 -19 0
-269 208 258 0
-277 151 -33 0
105 -158 139 0
-226 -74 208 0
126 -65 -229 0
170 -109 -82 0
-182 -6 176 0
-39 122 -165 0
-74 218 -97 0
-64 -139 -229 0
74 -120 177 0
134 58 -102 0
73 -223 -230 0
-205 148 217 0
7 -72 -105 0
-87 72 -48 0
188 73 175 0
154 169 132 0
-88 127 130 0
38 91 167 0
217 113 293 0
-244 -15 261 0
-127 -142 81 0
293 -113 27 0
291 47 -13 0
-18 269 -121 0
275 -127 13 0
230 191 74 0
-27 110 15 0
-217 -152 299 0
-195 259 -269 0
208 -143 -271 0
177 169 273 0
-227 267 166 0
282 109 10 0
258 215 -194 0
62 73 -119 0
271 106 69 0
-144 -127 222 0
12 -262 -148 0
286 104 187 0
-161 231 -76 0
15 62 142 0
-85 12 285 0
-45 -97 -273 0
-76 47 -77 0
-68 -105 2 0
-208 -205 256 0
-62 57 -239 0
277 157 -168 0
278 -140 92 0
18 -212 -108 0
-203 37 30 0
149 213 231 0
125 180 250 0
-140 -226 -51 0
-120 -35 75 0
-236 183 -67 0
-52 240 258 0
-130 -26 149 0
17 -42 -199 0
-129 69 -168 0
-55 60 -241 0
72 245 -297 0
17 -262 220 0
137 3 94 0
-166 -10 192 0
278 -3 249 0
-87 47 127 0
58 -39 138 0
196 221 294 0
-240 218 71 0
64 281 88 0
-284 -209 144 0
282 150 -215 0
-298 -176 136 0
-12 -70 187 0
-206 -96 223 0
265 -292 -119 0
248 254 -69 0
-62 -193 -282 0
-22 -15 64 0
-32 -194 -247 0
-153 238 -292 0
96 90 -65 0
153 -298 -123 0
-102 -300 -208 0
185 -282 -158 0
-24 129 -125 0
-77 115 -274 0
44 221 -6 0
177 69 -298 0
-147 -54 -193 0
-198 -187 -3 0
244 297 35 0
-263 211 -249 0
210 -53 87 0
73 -139 29 0
-194 133 -188 0
281 -109 -209 0
173 254 71 0
-232 -102 -50 0
83 86 25 0
