p cnf 300 1278
292 -257 189 0
-35 -2 -96 0
-225 223 -207 0
-222 -37 136 0
170 -84 285 0
232 262 -261 0
90 -45 -213 0
73 -213 33 0
-229 130 -224 0
227 -182 152 0
-254 146 249 0
76 285 -111 0
-168 -41 -219 0
-270 -112 78 0
237 300 -211 0
52 43 103 0
-23 -25 45 0
198 -295 76 0
-37 -287 -153 0
114 -1 -9 0
-16 -258 256 0
106 63 156 0
19 105 -85 0
-51 -257 127 0
198 184 -86 0
222 23 -179 0
60 165 266 0
95 -113 -90 0
-14 -131 -123 0
-46 9 -11 0
85 290 100 0
99 -270 -167 0
-181 73 -262 0
263 160 74 0
14 229 -191 0
-48 46 264 0
296 -217 9 0
-75 -130 254 0
-166 -66 -76 0
-278 96 -199 0
12 -4 89 0
45 -93 294 0
-164 159 -4 0
98 207 8 0
57 170 112 0
102 236 -260 0
-86 163 265 0
105 -133 -189 0
78 185 -221 0
140 53 -195 0
-298 -270 99 0
-29 -241 115 0
42 243 205 0
12 220 281 0
-288 20 -208 0
109 182 -67 0
155 114 245 0
-256 152 224 0
176 -98 224 0
20 -23 85 0
-276 173 30 0
245 -180 9 0
42 191 82 0
183 -261 249 0
11 -252 213 0
-99 80 -165 0
-54 -288 -237 0
52 271 20 0
162 247 -250 0
-41 -10 -232 0
-147 40 128 0
-63 22 203 0
-5 -238 8 0
29 -103 -84 0
154 230 26 0
167 40 -9 0
-99 95 1 0
-141 154 -120 0
188 -83 -264 0
134 -225 253 0
266 96 -267 0
177 234 -40 0
-238 231 -265 0
78 -162 -121 0
-54 237 -192 0
-5 -220 8 0
-213 -25 -30 0
123 -77 -286 0
72 43 263 0
-44 277 -21 0
61 -291 92 0
170 -264 -238 0
-156 -4 210 0
175 -237 275 0
-30 4 -219 0
-175 -130 226 0
291 -31 28 0
249 -254 -81 0
-273 160 -18 0
-57 110 -224 0
-71 -251 170 0
101 16 8 0
212 238 219 0
-287 200 28 0
-128 -97 -278 0
-259 272 250 0
104 41 187 0
275 69 53 0
-297 -276 84 0
-77 -286 10 0
-19 289 256 0
-257 105 159 0
-269 -238 115 0
-95 25 250 0
22 -103 -234 0
183 -230 -19 0
-185 32 -226 0
21 271 11 0
295 197 -43 0
-250 -160 118 0
-212 192 238 0
-101 166 -88 0
-89 -237 106 0
71 -22 -134 0
-148 -31 285 0
-55 -290 145 0
-283 -188 213 0
-195 223 -167 0
-243 -289 290 0
-245 88 -117 0
-113 -243 -36 0
-160 95 189 0
217 281 219 0
-6 -99 -206 0
-184 -30 53 0
277 -258 -28 0
239 54 57 0
150 159 -233 0
49 -133 169 0
-275 -51 285 0
282 267 -55 0
296 -90 -235 0
49 169 -248 0
-186 -192 -217 0
121 165 -221 0
135 143 82 0
222 233 74 0
59 -29 293 0
227 -77 -59 0
-226 155 25 0
211 -163 -61 0
178 14 -49 0
257 57 -290 0
-26 -167 -113 0
97 -257 -59 0
234 248 -276 0
196 200 115 0
289 -68 -258 0
-93 -31 211 0
-297 172 -268 0
-233 -167 223 0
-265 209 -107 0
239 270 227 0
-232 -274 -116 0
198 -76 48 0
211 -128 34 0
296 171 -41 0
153 251 -155 0
42 114 -183 0
223 -189 -143 0
-141 -300 123 0
-192 -66 -232 0
-116 -214 79 0
196 -253 251 0
181 189 -280 0
-238 195 -219 0
146 174 239 0
192 20 -46 0
-91 63 -251 0
-257 209 -88 0
52 252 95 0
-144 -221 -190 0
-176 -243 -289 0
-231 -79 293 0
-109 246 -192 0
118 -14 38 0
236 233 -299 0
-112 223 78 0
-145 -229 -278 0
-108 -103 26 0
280 -214 -72 0
239 95 179 0
248 -138 140 0
-286 -172 -41 0
-146 26 254 0
185 188 -232 0
-235 -196 203 0
-293 -6 -283 0
-46 -31 -266 0
163 -80 33 0
-33 -119 18 0
182 -36 -18 0
275 -159 -199 0
-232 -115 -99 0
-3 267 160 0
-72 153 115 0
-88 44 114 0
135 -20 -40 0
17 -241 178 0
95 91 -160 0
-172 135 -80 0
-41 81 -275 0
200 192 -106 0
295 -159 -218 0
79 125 -183 0
172 232 122 0
45 -103 214 0
-254 18 231 0
266 110 10 0
-24 251 237 0
-209 -51 -296 0
-191 28 273 0
50 67 -135 0
-107 184 114 0
-172 235 -286 0
-8 49 24 0
-285 -295 -60 0
139 -56 -36 0
-266 282 19 0
264 139 -57 0
-100 -52 -257 0
257 -233 157 0
-67 9 -280 0
-173 -80 -232 0
-45 39 -6 0
104 -32 295 0
211 93 -169 0
241 -84 -169 0
-21 -33 195 0
-242 137 274 0
-68 -154 -9 0
-171 260 -35 0
224 177 181 0
-268 79 -245 0
4 69 7 0
-279 180 -60 0
-85 -197 -103 0
54 115 -139 0
106 -24 -127 0
280 -233 256 0
255 178 -100 0
184 53 69 0
-99 240 -153 0
-238 51 149 0
122 -201 219 0
278 -204 39 0
-38 46 -265 0
-46 140 154 0
118 281 10 0
93 -267 -82 0
171 -80 28 0
18 -93 250 0
-286 1 11 0
201 225 278 0
-223 32 -256 0
-38 214 96 0
155 79 81 0
-164 35 -18 0
193 -231 180 0
278 -6 -93 0
42 123 18 0
-183 272 -201 0
63 -66 226 0
232 3 231 0
233 295 -42 0
73 134 10 0
159 -276 -201 0
-192 -193 202 0
155 -226 63 0
229 -242 -286 0
-228 -147 183 0
254 -276 -242 0
247 79 123 0
-226 -240 22 0
47 139 59 0
129 -194 -11 0
274 -18 -8 0
8 -265 -150 0
74 -141 -37 0
297 135 -190 0
190 16 -297 0
-105 -160 189 0
-111 -168 239 0
259 17 181 0
279 226 85 0
-77 300 -203 0
147 142 -291 0
209 -160 -248 0
234 247 -97 0
286 27 -120 0
44 198 214 0
124 -294 -205 0
-150 -200 79 0
-285 -107 235 0
264 -11 -53 0
208 4 103 0
-56 194 -89 0
-32 164 -270 0
-5 90 -142 0
57 -93 -36 0
58 240 -150 0
217 -277 -269 0
-152 60 -142 0
-294 25 198 0
289 164 152 0
-132 -227 137 0
299 168 -101 0
146 181 260 0
141 -176 204 0
-42 269 120 0
77 19 -253 0
-198 82 133 0
25 58 -79 0
120 -160 -170 0
-189 130 125 0
107 -101 255 0
87 178 285 0
-256 144 -16 0
-126 -58 -264 0
40 255 62 0
-150 133 -21 0
-248 -100 -239 0
189 -102 31 0
248 -85 -253 0
152 92 116 0
204 -208 94 0
-252 10 182 0
65 89 -255 0
297 -238 -225 0
-87 95 -154 0
125 -109 -58 0
-182 162 -15 0
190 126 -70 0
139 -113 -92 0
-80 86 299 0
-34 177 -136 0
-195 -33 -81 0
277 243 100 0
-154 288 -28 0
248 -210 -193 0
-291 63 -139 0
205 -130 -21 0
-84 -7 -136 0
-228 14 -50 0
-233 -175 264 0
-35 -41 191 0
240 -267 101 0
10 134 3 0
-65 -116 155 0
190 212 111 0
-248 -242 -157 0
-293 66 -263 0
67 -225 190 0
279 -264 -36 0
189 272 -27 0
49 -209 11 0
195 205 -111 0
217 -75 77 0
-201 -264 -101 0
-227 180 -44 0
-129 130 -92 0
18 152 -273 0
50 148 -181 0
172 170 30 0
-300 289 -172 0
268 152 -146 0
83 216 243 0
-261 -254 258 0
-243 28 -35 0
-202 196 -74 0
163 18 216 0
97 -80 79 0
-76 -102 -195 0
-255 -151 -31 0
208 278 287 0
-200 290 153 0
204 41 -182 0
-6 206 -227 0
-91 -112 59 0
-13 172 -130 0
-89 73 241 0
-98 226 -17 0
-255 20 -6 0
-160 -23 -114 0
-144 -178 -170 0
-129 -255 148 0
54 -124 -95 0
74 71 -186 0
68 14 284 0
-203 -263 -223 0
255 131 -285 0
153 137 -15 0
289 268 77 0
54 -187 174 0
268 183 -144 0
-78 -222 -174 0
246 -197 82 0
-262 66 178 0
226 -29 -262 0
-27 32 -77 0
-251 140 22 0
-286 -82 245 0
30 143 59 0
-148 227 178 0
-49 -165 40 0
57 -40 187 0
-262 62 58 0
-169 199 179 0
-18 229 -46 0
101 210 -118 0
35 -81 42 0
62 6 273 0
-33 -224 -263 0
-247 86 -34 0
-126 -191 -83 0
293 -139 177 0
-163 232 23 0
288 -129 33 0
-156 -86 210 0
-4 135 40 0
-165 182 63 0
78 235 -104 0
3 80 -40 0
-129 47 -177 0
49 -291 294 0
-21 -62 239 0
-139 -121 -238 0
-119 -166 -274 0
-213 -197 -210 0
124 -136 -236 0
-77 -245 117 0
108 -210 -120 0
113 -107 -271 0
78 99 -163 0
-52 47 -298 0
226 -272 -215 0
18 -67 -64 0
269 -106 198 0
298 236 -16 0
149 242 -43 0
-194 56 66 0
-293 -93 251 0
56 202 -269 0
-289 101 144 0
44 -229 29 0
136 -100 -16 0
-191 -72 -184 0
293 -25 267 0
269 -279 -207 0
269 18 193 0
179 300 218 0
127 -280 160 0
-267 69 -255 0
5 119 295 0
137 298 290 0
38 -47 53 0
108 -150 4 0
-131 -273 -10 0
231 134 -32 0
-98 -136 -221 0
-240 -69 -163 0
65 -284 70 0
33 -63 104 0
28 224 168 0
-221 -146 -296 0
167 -9 -156 0
-65 -64 121 0
-120 -219 -193 0
-223 46 159 0
27 -2 -63 0
-82 -84 245 0
-111 44 -130 0
31 -295 -20 0
77 227 -110 0
64 -81 -212 0
190 30 103 0
225 -174 -146 0
278 22 184 0
-1 -157 258 0
-188 185 -222 0
194 102 -236 0
-32 60 184 0
-262 100 251 0
-78 97 -22 0
-277 -162 -181 0
85 -58 185 0
288 -231 239 0
-238 183 -262 0
133 -57 -154 0
181 -57 200 0
236 214 -152 0
88 -28 271 0
-3 -27 145 0
242 -23 245 0
279 -40 -235 0
-292 207 184 0
74 -204 -123 0
105 -28 -254 0
-284 -243 -114 0
-107 -279 -57 0
291 139 -13 0
87 -45 -292 0
99 -216 -211 0
208 -211 -197 0
188 -45 -297 0
-25 262 -224 0
131 191 -29 0
-32 -215 153 0
-122 -1 253 0
-83 -9 126 0
-58 111 -245 0
133 -219 241 0
293 -104 -99 0
279 -206 187 0
256 169 -230 0
200 -167 -13 0
285 -117 225 0
-299 -71 278 0
150 -81 267 0
55 -49 -88 0
265 -29 36 0
298 -73 -210 0
296 -282 -280 0
227 -40 -97 0
-235 147 -46 0
164 -26 -112 0
44 28 237 0
-177 242 -156 0
166 219 235 0
-170 147 63 0
200 82 -228 0
198 147 -209 0
-183 -177 273 0
55 273 -128 0
70 227 -103 0
-109 190 -25 0
-16 -284 -109 0
-195 236 -29 0
71 42 -212 0
-11 -276 107 0
-111 -227 -282 0
-122 -212 9 0
25 -69 -119 0
290 259 193 0
-93 297 220 0
235 113 -232 0
155 184 -208 0
-29 -45 -206 0
49 284 298 0
22 138 -73 0
-183 230 223 0
-127 188 -175 0
-205 67 -284 0
-300 -151 -244 0
-267 -230 155 0
226 -158 -238 0
-33 109 167 0
-171 221 -238 0
207 268 -55 0
186 237 284 0
289 140 272 0
-214 63 -148 0
-84 10 -50 0
-19 -191 257 0
109 -139 150 0
-8 204 -47 0
34 -202 28 0
-140 218 -189 0
-19 192 146 0
56 -196 4 0
15 148 -297 0
-146 -140 257 0
-168 -13 73 0
5 294 257 0
-154 271 -260 0
-198 219 223 0
-46 30 196 0
170 59 -163 0
82 -190 -250 0
-193 -211 -276 0
26 -174 5 0
-50 -221 -91 0
-29 48 -158 0
262 55 132 0
130 -260 -133 0
60 -296 -123 0
139 201 -34 0
-126 -223 92 0
-254 141 -204 0
47 292 149 0
-176 201 -241 0
115 166 213 0
274 202 -168 0
195 -221 -33 0
-8 -263 239 0
24 238 -23 0
231 -160 -131 0
12 76 69 0
94 -293 -115 0
84 45 246 0
48 206 241 0
-291 250 111 0
-150 -46 135 0
-75 -81 172 0
-294 22 243 0
-240 33 267 0
170 -74 207 0
245 -281 -65 0
-8 241 101 0
-174 249 216 0
106 286 -191 0
78 123 47 0
-228 88 -275 0
63 -67 234 0
-261 -18 135 0
100 -252 61 0
2 65 -186 0
17 176 -222 0
211 -102 32 0
97 -230 295 0
162 50 -103 0
-294 -282 37 0
-157 -286 -138 0
52 -209 -91 0
85 3 127 0
20 194 -62 0
-290 156 -216 0
231 20 250 0
-275 65 -295 0
-236 -77 -1 0
258 172 299 0
280 -148 -13 0
-32 99 -189 0
-175 -271 -199 0
135 66 117 0
-49 127 257 0
-74 -164 228 0
126 171 177 0
267 188 -31 0
-121 159 205 0
-96 140 16 0
-95 212 96 0
55 188 163 0
-292 -108 -159 0
202 161 -131 0
127 -299 -56 0
72 45 165 0
-289 217 -200 0
-20 192 168 0
239 76 94 0
-290 76 115 0
202 -254 -113 0
214 -52 280 0
-254 26 -228 0
282 -242 -19 0
154 -80 285 0
292 214 -107 0
221 223 -54 0
235 267 -97 0
-106 -28 117 0
-279 -262 115 0
266 31 3 0
-119 -225 -255 0
58 122 244 0
152 50 -200 0
-252 -292 -124 0
185 -192 -54 0
202 181 -191 0
-145 -8 -130 0
-23 -122 287 0
34 -247 -277 0
8 264 282 0
-76 271 128 0
-101 -296 51 0
131 -69 -44 0
-41 120 -201 0
192 -229 91 0
17 -241 79 0
168 -20 -61 0
-129 -51 -225 0
-298 85 -204 0
247 225 91 0
102 -127 -272 0
278 -202 -51 0
173 -146 59 0
210 193 267 0
-272 9 68 0
-167 79 -9 0
202 -145 -48 0
-218 -238 250 0
12 279 -4 0
229 87 -130 0
300 56 -31 0
237 154 105 0
49 211 -224 0
-14 -227 -113 0
-145 81 95 0
-63 -72 -283 0
97 -56 260 0
-75 110 60 0
-220 -99 65 0
235 8 -149 0
-114 -17 295 0
-96 -297 66 0
-273 210 -137 0
176 102 180 0
59 190 189 0
-72 -19 -102 0
-179 140 -186 0
105 107 71 0
30 133 119 0
87 -235 -100 0
-3 -73 295 0
-23 -91 -279 0
-281 -28 -4 0
-2 92 -4 0
-51 89 -159 0
93 182 224 0
234 107 239 0
86 230 -139 0
-233 -78 -43 0
39 -55 -107 0
261 142 17 0
69 -227 200 0
-212 -188 33 0
261 -184 -111 0
-130 192 134 0
-52 244 -221 0
213 -150 161 0
-218 -216 -105 0
-20 -89 -65 0
71 257 17 0
-229 -244 -55 0
-246 211 282 0
-11 -219 112 0
-265 -8 -181 0
-37 137 -174 0
194 -4 -279 0
-241 194 -132 0
-7 -170 91 0
101 164 56 0
-279 -212 -275 0
289 -34 -257 0
148 7 118 0
-170 180 -192 0
-54 -174 -30 0
-14 46 -101 0
-45 -298 -41 0
-32 46 -43 0
-288 -146 -79 0
2 -147 -120 0
-102 251 -169 0
-8 -206 97 0
132 162 -67 0
-16 -74 241 0
-178 -219 -221 0
-2 -108 4 0
202 -220 45 0
113 -72 9 0
-143 19 -1 0
24 -238 -236 0
49 299 -52 0
276 -97 15 0
291 228 58 0
88 -78 218 0
233 264 -227 0
38 -90 -146 0
79 -23 -71 0
-132 -172 -104 0
-172 248 120 0
-49 299 -192 0
47 -190 -96 0
-90 121 -232 0
-150 -193 238 0
-261 -27 -185 0
122 205 115 0
114 255 -155 0
-155 98 269 0
-59 203 -274 0
145 294 -92 0
-13 -1 262 0
-85 -69 -64 0
-124 -187 248 0
255 -98 162 0
43 -270 -134 0
118 -20 261 0
162 -227 -101 0
-155 220 133 0
13 -55 124 0
127 177 46 0
232 215 102 0
-134 -169 -142 0
-57 -23 -299 0
236 234 182 0
-88 291 194 0
162 -256 179 0
-123 -178 -14 0
-238 -292 -130 0
60 -279 -2 0
295 -242 171 0
-129 -94 121 0
203 104 -122 0
3 294 -55 0
-173 50 240 0
78 68 -9 0
107 -117 -225 0
234 -70 220 0
-165 -134 -217 0
-100 95 -87 0
251 192 119 0
-137 216 -144 0
98 283 232 0
-259 -61 10 0
-154 -68 -127 0
-205 -49 -247 0
179 -39 159 0
115 171 263 0
-291 -261 16 0
133 -200 -62 0
175 220 -13 0
-182 -110 -138 0
252 -99 -165 0
-110 -215 193 0
215 24 -80 0
225 -111 175 0
58 -139 -50 0
-84 -113 157 0
-67 -216 106 0
152 -227 -196 0
-213 -13 166 0
-266 -268 -19 0
-17 198 -19 0
-123 -246 -198 0
-233 115 -105 0
-75 -16 -148 0
104 58 89 0
-35 -21 -9 0
-96 40 200 0
-232 -273 171 0
162 175 134 0
91 190 156 0
184 -212 220 0
250 -63 39 0
-230 247 -170 0
-259 -183 -276 0
-201 233 -50 0
-70 36 -74 0
163 -187 283 0
84 158 257 0
-160 -15 -96 0
-81 29 -163 0
182 119 -83 0
-85 -195 86 0
258 191 197 0
-156 -196 211 0
120 -215 -191 0
-39 -138 -153 0
-172 256 287 0
-110 202 268 0
86 -148 233 0
123 234 -264 0
-161 -10 262 0
-169 -26 -286 0
227 66 225 0
-93 42 261 0
250 -39 -296 0
235 -197 -58 0
171 -46 149 0
87 -197 293 0
-201 -60 5 0
111 138 -277 0
229 -158 -150 0
201 299 -162 0
-173 -90 240 0
201 -97 116 0
58 -114 266 0
-140 -58 -51 0
120 268 -43 0
270 158 272 0
179 -28 -57 0
-30 252 296 0
-190 257 82 0
-207 -153 -45 0
-176 88 -121 0
-43 4 -88 0
107 -126 -192 0
-175 -240 59 0
297 -223 -86 0
66 -262 285 0
154 -75 -274 0
71 197 -76 0
116 4 283 0
-208 108 -51 0
-164 193 -265 0
-42 270 85 0
40 -239 47 0
268 -132 -157 0
68 -93 37 0
19 -55 53 0
-261 60 -143 0
231 -249 -25 0
-45 115 186 0
-204 203 1 0
87 83 -212 0
242 -15 33 0
-221 297 -3 0
161 -285 -203 0
260 69 23 0
-254 77 206 0
82 -258 -23 0
29 145 -119 0
107 -188 -40 0
-66 -179 -177 0
271 -96 58 0
69 192 247 0
299 -78 39 0
-276 113 -137 0
-104 -226 -271 0
205 -227 55 0
-10 -230 -256 0
-75 -246 101 0
57 -45 -184 0
168 -204 164 0
-206 -100 -117 0
-155 -193 28 0
-213 -20 -127 0
182 292 294 0
119 -251 23 0
-232 -137 93 0
66 173 245 0
-291 35 -172 0
131 -278 179 0
-215 -163 -115 0
105 138 -20 0
-65 -48 116 0
-112 -129 -298 0
-147 142 -244 0
86 55 -102 0
-13 173 -95 0
-222 221 -112 0
84 140 156 0
-3 192 -234 0
113 -151 -209 0
-296 -174 202 0
-10 294 -211 0
-226 275 -129 0
-285 -232 -276 0
252 219 265 0
22 211 -300 0
-88 -296 -266 0
132 -165 293 0
-153 298 31 0
-77 29 46 0
61 156 186 0
-57 191 -285 0
-237 290 -176 0
48 241 -64 0
-172 182 139 0
169 281 31 0
93 52 94 0
-77 283 -289 0
208 -178 -232 0
-115 -231 -78 0
-173 71 -26 0
291 -199 -160 0
-285 278 148 0
217 279 -45 0
96 -183 -162 0
288 -291 34 0
104 72 -62 0
-149 -111 288 0
-95 71 -185 0
219 45 217 0
277 -230 198 0
-266 -47 260 0
86 190 166 0
-144 9 234 0
256 137 -136 0
-236 -214 268 0
3 -233 213 0
-285 239 -42 0
34 300 -88 0
-42 -106 -95 0
-59 -33 255 0
-21 -111 -48 0
154 -258 -69 0
-231 244 -24 0
-270 58 57 0
191 165 -183 0
121 -40 -275 0
32 22 -278 0
184 256 253 0
245 -228 180 0
249 48 126 0
7 -105 277 0
-263 82 -189 0
24 -116 3 0
165 -115 238 0
-150 -57 -292 0
-211 128 215 0
140 -143 -219 0
-43 -80 -23 0
-136 -215 -207 0
-255 -149 -41 0
-245 -6 67 0
169 206 88 0
-146 24 83 0
118 -59 -182 0
-15 -272 -111 0
-102 40 -211 0
233 -77 177 0
199 -13 -194 0
-63 -72 291 0
-141 -20 252 0
-291 -97 -23 0
-245 37 121 0
53 214 -292 0
-222 -279 146 0
124 112 -39 0
170 -277 -197 0
157 147 -153 0
-169 196 138 0
-161 -257 155 0
117 -88 -175 0
102 284 110 0
-147 186 211 0
-270 -38 -294 0
-2 153 -62 0
-19 139 -196 0
251 124 245 0
-145 -19 191 0
-255 136 109 0
-39 67 -154 0
-173 -195 -194 0
60 233 254 0
-114 -84 -291 0
182 130 79 0
77 -100 -220 0
8 -236 282 0
-153 222 250 0
-233 -73 -4 0
114 41 212 0
-118 297 4 0
296 -144 276 0
-199 218 13 0
275 -229 -21 0
-245 -113 193 0
156 -70 12 0
225 129 253 0
145 56 -13 0
-55 291 216 0
52 198 54 0
-146 147 -259 0
67 -141 -80 0
258 60 -203 0
255 -181 -296 0
11 -285 -221 0
-178 -84 -214 0
5 265 275 0
-63 -218 -261 0
267 -137 -117 0
-155 -86 -161 0
-192 217 -52 0
50 -237 129 0
-28 84 -107 0
-207 138 -89 0
227 245 3 0
235 -189 -157 0
153 92 -269 0
263 1 39 0
276 -261 -219 0
129 -112 -238 0
-192 61 -229 0
-172 156 188 0
47 13 62 0
163 146 265 0
-58 51 263 0
107 -226 -86 0
170 164 213 0
-253 207 202 0
238 246 -92 0
181 156 290 0
-275 265 68 0
-26 -276 274 0
-81 177 -99 0
133 -131 276 0
124 220 -132 0
181 191 -59 0
242 43 96 0
294 -29 -292 0
-14 -208 153 0
146 -220 39 0
260 -203 181 0
-83 -134 -144 0
116 -288 -51 0
-208 174 -116 0
-33 222 -165 0
161 154 -52 0
236 60 84 0
282 -173 -11 0
205 -6 -238 0
-165 118 120 0
-219 185 -193 0
-226 69 145 0
105 194 -146 0
-83 -201 -238 0
91 28 -255 0
285 -151 -78 0
-117 -208 88 0
-101 -89 226 0
-153 287 -102 0
-24 146 136 0
166 -281 -250 0
45 -49 -140 0
-167 299 282 0
-113 -224 -140 0
268 -203 137 0
158 -297 4 0
139 28 204 0
79 80 243 0
-286 238 -265 0
211 126 116 0
93 222 116 0
195 -271 288 0
135 -274 129 0
235 202 157 0
-296 -249 -55 0
195 163 -199 0
-169 -201 -219 0
187 32 -28 0
170 -237 293 0
208 -65 170 0
285 19 -196 0
-25 279 -274 0
-19 277 299 0
34 -104 94 0
65 255 -118 0
-167 -264 -225 0
-172 -199 227 0
-59 -64 25 0
-155 72 -137 0
-198 290 -105 0
206 212 20 0
-46 193 -49 0
238 33 99 0
-52 89 174 0
-163 136 84 0
172 256 -17 0
-226 -179 -40 0
-94 -225 78 0
-48 -138 107 0
245 -124 -300 0
-277 -44 166 0
276 -190 -151 0
214 -61 -37 0
-216 -254 146 0
57 297 -140 0
-225 260 27 0
-57 -52 -10 0
197 261 103 0
-252 -209 235 0
-262 -60 205 0
-90 284 56 0
115 180 -91 0
-28 -46 160 0
49 -288 142 0
220 -214 259 0
262 135 111 0
115 -265 -257 0
64 166 -31 0
173 -291 78 0
290 -30 82 0
78 293 -171 0
253 -240 15 0
-77 112 -265 0
283 182 169 0
-57 -241 196 0
163 168 -30 0
-229 255 274 0
-241 249 233 0
-54 94 -63 0
263 -262 -224 0
231 259 -170 0
154 19 83 0
-198 -140 -194 0
204 -75 71 0
22 71 43 0
120 275 43 0
-77 258 244 0
257 224 166 0
-73 -208 249 0
-195 295 37 0
17 -130 126 0
-64 -110 90 0
291 -203 299 0
-36 45 -190 0
9 -216 -110 0
22 -102 117 0
124 14 72 0
266 22 -35 0
299 65 137 0
-186 171 18 0
51 -30 189 0
102 -280 -144 0
-167 300 87 0
92 -296 259 0
-134 274 270 0
-219 180 -278 0
-32 -17 -177 0
-266 -88 -4 0
-123 -215 -293 0
155 149 286 0
-232 112 -101 0
-115 -211 283 0
239 -182 -184 0
293 87 -138 0
-127 -285 222 0
-253 -175 19 0
-226 -289 89 0
-1 4 222 0
257 -263 65 0
-286 73 -46 0
14 -190 123 0
36 115 134 0
-193 -181 79 0
-86 156 121 0
-18 -266 -102 0
265 297 164 0
295 29 40 0
-7 -228 33 0
-112 120 -75 0
-233 -257 -4 0
-253 215 -286 0
-282 -259 269 0
21 271 41 0
227 99 -153 0
96 -147 -49 0
230 -294 -47 0
-120 -217 -147 0
-270 228 -23 0
219 183 -270 0
175 -17 82 0
-52 210 -31 0
-265 -181 27 0
-74 -238 157 0
-25 -193 -106 0
-149 -293 -206 0
43 -40 33 0
-293 282 187 0
-72 -272 167 0
-252 -181 -112 0
-259 -23 -280 0
178 232 -191 0
190 54 -232 0
175 273 241 0
-254 22 71 0
286 95 168 0
231 202 -123 0
20 -171 115 0
215 -40 28 0
35 216 108 0
-115 250 279 0
-231 -278 265 0
123 42 -262 0
-174 96 171 0
285 -182 96 0
-292 144 94 0
-1 165 -284 0
