p cnf 300 1278
150 -128 -290 0
-263 -78 44 0
33 206 -273 0
220 140 180 0
269 200 -21 0
-21 -16 -225 0
-186 5 -110 0
-185 -113 -14 0
125 -124 -252 0
-257 -169 94 0
211 192 -260 0
-147 173 -285 0
259 -74 -27 0
-189 -159 -251 0
-37 -157 247 0
-67 32 134 0
-196 19 -84 0
-9 113 -53 0
-164 -281 251 0
47 8 -273 0
-223 -135 -292 0
-113 7 -219 0
86 257 -100 0
-162 279 -200 0
205 -4 175 0
-184 -36 -225 0
85 166 127 0
149 -58 -15 0
144 -155 -88 0
-52 -39 158 0
-59 44 6 0
-267 -32 10 0
-1 231 -143 0
208 66 1 0
275 188 -140 0
94 48 16 0
128 278 -122 0
123 -288 -104 0
194 -186 9 0
-150 -271 -226 0
59 4 261 0
27 -220 230 0
-172 -122 -216 0
-270 -268 223 0
-101 -23 36 0
208 23 193 0
292 -226 -179 0
-240 -101 110 0
-12 -180 -272 0
-279 -14 -79 0
-177 149 242 0
-117 259 -173 0
-205 206 -295 0
128 -29 -51 0
245 149 -98 0
-203 -71 166 0
-227 -14 -104 0
-177 -145 132 0
-110 65 -39 0
-62 176 -115 0
21 20 5 0
-94 178 152 0
-79 125 -40 0
-241 237 -83 0
-101 -225 -232 0
246 267 87 0
197 105 -173 0
59 -227 -247 0
217 294 293 0
181 -48 202 0
111 -276 176 0
-12 256 -244 0
27 187 164 0
-51 255 -31 0
-175 207 -229 0
129 76 -139 0
25 134 -277 0
-82 134 117 0
162 98 110 0
191 257 245 0
281 -295 168 0
-47 -300 -90 0
53 -216 232 0
39 -184 -105 0
229 232 -189 0
288 -117 71 0
72 -297 251 0
-30 -137 -136 0
237 -94 -204 0
273 -56 -143 0
266 20 -149 0
-83 -38 -28 0
-298 -116 -259 0
221 -203 -160 0
258 107 217 0
192 -113 19 0
241 178 -199 0
-28 -281 7 0
-265 176 168 0
256 282 -144 0
-158 -113 143 0
-180 -81 -209 0
-57 277 218 0
-108 -208 -260 0
264 150 243 0
-73 180 166 0
-152 -210 220 0
-259 230 64 0
243 -232 28 0
207 153 -36 0
-297 -48 110 0
-216 240 -99 0
-92 99 -5 0
-128 256 39 0
260 -156 -39 0
-19 -159 -71 0
-79 -5 -70 0
226 -194 143 0
131 36 -199 0
162 -161 58 0
10 -155 144 0
15 -14 265 0
98 -157 -266 0
220 -246 -195 0
-90 92 -173 0
-33 211 -88 0
244 269 -15 0
83 120 105 0
-27 -92 195 0
146 148 -297 0
-220 244 17 0
-80 -143 142 0
34 219 -76 0
-49 115 -265 0
-172 -274 -85 0
249 45 -2 0
-124 -177 19 0
57 -4 30 0
-97 96 -203 0
-145 -46 -195 0
111 157 202 0
126 164 82 0
-288 174 -95 0
144 193 -120 0
25 272 90 0
176 285 216 0
73 -123 89 0
290 -82 -295 0
-210 116 66 0
229 216 232 0
190 -238 239 0
-179 -60 -287 0
197 -296 -194 0
55 -72 -95 0
-297 244 300 0
91 -48 262 0
-157 -82 -270 0
242 25 128 0
-65 91 -166 0
-174 -264 -250 0
-295 -203 -82 0
283 218 112 0
137 -300 -261 0
42 23 148 0
-201 2 189 0
267 162 226 0
-266 -79 222 0
129 74 266 0
-158 181 -227 0
188 -220 -116 0
118 -85 249 0
-241 191 -115 0
-279 69 150 0
31 32 -96 0
-182 103 49 0
7 -294 -95 0
251 40 -25 0
123 -201 65 0
-107 132 283 0
-198 -296 65 0
-105 -299 -113 0
-170 -61 -47 0
-147 -143 -205 0
-35 46 -124 0
-242 -299 117 0
12 234 -112 0
245 295 299 0
267 -95 135 0
238 173 -269 0
-182 255 124 0
-197 47 133 0
-82 261 -255 0
290 240 -142 0
-282 -245 179 0
140 251 30 0
-30 183 208 0
13 61 287 0
198 -298 -150 0
-20 135 -194 0
221 149 234 0
-129 227 281 0
142 -246 -285 0
241 -151 -231 0
-37 47 -266 0
-19 207 296 0
53 15 -117 0
5 113 117 0
190 -131 -47 0
285 85 8 0
43 45 179 0
224 36 -210 0
-48 157 -19 0
-275 -263 204 0
77 -169 58 0
79 -119 -44 0
70 -21 118 0
260 34 285 0
199 -240 38 0
-270 151 -161 0
-153 -130 287 0
-259 217 188 0
-269 295 -10 0
-73 195 90 0
-128 -216 -211 0
146 248 -29 0
-40 204 -67 0
-52 32 -271 0
-280 -226 163 0
52 59 110 0
-202 279 198 0
-276 278 -73 0
-52 155 97 0
-58 25 -111 0
-2 113 46 0
89 286 58 0
-51 -277 -116 0
-175 63 -233 0
260 -230 -281 0
40 242 278 0
-205 112 4 0
254 -43 17 0
-218 174 -116 0
-130 223 40 0
-85 -265 58 0
-249 179 257 0
279 -196 -271 0
-211 294 244 0
-250 149 -275 0
233 -146 -170 0
-199 -123 240 0
-79 -235 266 0
172 129 -4 0
-40 -159 -273 0
64 -214 195 0
173 71 -288 0
34 -128 -155 0
-274 198 -261 0
-29 84 166 0
-90 -67 -40 0
271 -105 223 0
235 -38 5 0
34 45 213 0
-241 -140 209 0
-251 -132 297 0
212 -154 -51 0
245 -216 120 0
102 -242 -171 0
-22 272 -86 0
-254 236 -94 0
179 -17 244 0
129 236 -118 0
-213 11 -72 0
-297 -222 -108 0
-158 -132 -50 0
-290 111 -296 0
20 -21 146 0
-161 206 159 0
99 -40 -235 0
129 170 -160 0
-202 -47 213 0
-206 -273 -51 0
135 -187 247 0
-155 -159 267 0
-42 254 -275 0
215 -212 -104 0
-122 215 -65 0
107 -197 82 0
215 244 -225 0
195 -165 -115 0
175 -57 110 0
-67 -130 254 0
-184 -24 71 0
-72 13 -70 0
-235 -252 -234 0
224 -129 170 0
95 237 206 0
-58 -147 113 0
-65 72 295 0
182 -211 3 0
245 -179 -183 0
119 112 -237 0
-51 177 -125 0
40 195 86 0
-210 19 -47 0
62 40 173 0
-242 132 141 0
-217 61 110 0
73 136 -176 0
-295 -297 -19 0
91 234 43 0
-43 -144 73 0
77 160 -233 0
-158 -169 294 0
266 225 -264 0
-177 -72 -188 0
20 -51 86 0
152 65 173 0
195 -87 78 0
-277 -99 222 0
91 -14 -192 0
125 -58 -114 0
181 134 118 0
-6 70 -161 0
-143 -289 232 0
35 -259 -76 0
-14 220 -271 0
130 -254 288 0
-112 38 187 0
63 49 252 0
-22 -43 131 0
-276 -126 128 0
205 246 -20 0
46 197 -70 0
-126 -181 -85 0
-225 -95 176 0
-271 86 139 0
-269 258 84 0
-42 83 -211 0
-17 -270 167 0
109 9 -157 0
-33 15 148 0
-52 -31 265 0
-151 224 244 0
134 -184 -71 0
150 -15 -297 0
214 225 -270 0
-104 -249 -191 0
208 218 21 0
12 -211 -70 0
290 273 -224 0
122 -178 -251 0
41 215 23 0
291 -140 -42 0
-120 171 -281 0
294 -99 -131 0
-115 -118 -39 0
-71 113 -205 0
231 -232 287 0
19 69 -136 0
104 -122 26 0
234 73 61 0
176 188 -52 0
54 -92 -234 0
-123 269 80 0
70 15 253 0
-198 -250 -264 0
99 254 198 0
159 -57 -270 0
260 -237 98 0
-197 -279 8 0
-244 -176 286 0
-226 -95 -153 0
-58 -199 -10 0
227 -223 16 0
58 141 -154 0
248 -175 159 0
97 279 291 0
214 143 -92 0
52 -192 -33 0
-17 149 39 0
-297 -252 42 0
-289 -86 198 0
-63 -50 -88 0
-197 -172 132 0
-176 -83 214 0
84 258 2 0
-213 -176 38 0
98 -235 129 0
-235 -286 -131 0
-89 -37 -252 0
-245 -272 280 0
131 -69 263 0
-79 -250 -273 0
-244 295 296 0
267 82 -245 0
-201 197 221 0
35 -157 61 0
151 -163 69 0
-56 -274 289 0
-236 -262 145 0
-27 198 -197 0
-291 47 -10 0
146 250 -107 0
222 131 -134 0
-15 149 -106 0
-56 2 -197 0
206 -227 -46 0
-224 -265 -202 0
298 -260 119 0
-36 63 64 0
172 -122 156 0
-115 -140 -41 0
167 -183 268 0
-103 77 -215 0
-127 -88 -191 0
105 -226 -199 0
112 -191 227 0
-126 263 -198 0
-275 214 114 0
-111 80 231 0
282 -186 140 0
80 -268 157 0
-232 190 148 0
93 31 -263 0
184 -253 124 0
-70 49 -26 0
40 209 140 0
194 -256 271 0
117 134 -283 0
169 3 201 0
299 34 17 0
7 96 277 0
-165 -39 -41 0
208 -80 -150 0
-73 -218 198 0
-152 -224 251 0
282 263 -169 0
48 64 80 0
267 174 -291 0
-62 -213 13 0
289 178 133 0
-264 -247 209 0
-112 42 -75 0
140 270 45 0
-143 228 257 0
287 24 -236 0
162 72 49 0
-287 32 -19 0
-250 121 174 0
-293 92 284 0
81 231 -91 0
58 98 -201 0
-253 -42 240 0
-252 -258 283 0
240 155 -12 0
-19 -151 -63 0
-57 256 -163 0
119 174 -196 0
135 -236 215 0
-35 161 165 0
-42 -295 246 0
-120 270 -54 0
-158 -3 -159 0
-235 20 -250 0
38 93 -29 0
47 -152 -10 0
-108 3 -107 0
-174 100 -4 0
194 -85 -106 0
-223 -234 65 0
-217 -200 247 0
112 -136 275 0
-182 1 -192 0
-219 25 -31 0
296 -113 286 0
26 265 211 0
22 276 134 0
-127 208 -101 0
-240 37 -206 0
-101 -224 138 0
-264 57 267 0
77 -57 -262 0
-83 151 -276 0
19 -180 -300 0
-109 91 293 0
273 -164 82 0
285 68 -130 0
9 219 64 0
239 18 93 0
-91 -133 -273 0
-144 -235 149 0
56 -253 233 0
187 -241 -244 0
-180 -217 204 0
-94 -178 -240 0
-71 -36 -226 0
-100 -135 -66 0
282 102 -12 0
-141 -186 -225 0
244 107 207 0
163 47 159 0
58 233 -122 0
-133 134 -59 0
233 -210 -264 0
-42 220 111 0
89 -15 205 0
-266 -177 143 0
54 58 -50 0
-183 -252 -246 0
137 112 -208 0
184 82 34 0
36 -151 -53 0
-247 215 248 0
-192 3 266 0
-244 126 -87 0
76 -27 -40 0
-300 -220 194 0
-202 -25 -82 0
249 294 -210 0
192 -241 -269 0
-171 -91 -28 0
-160 241 158 0
-195 284 19 0
-193 -223 25 0
-160 -74 245 0
228 -4 -295 0
50 69 -203 0
-265 -217 -110 0
-171 -263 140 0
-8 -79 214 0
89 192 82 0
-286 181 -67 0
279 -243 -115 0
256 114 -25 0
-113 228 274 0
-292 -97 273 0
-105 -51 16 0
65 -2 -170 0
40 117 -28 0
-87 -107 -46 0
104 188 266 0
-212 235 -214 0
-102 -276 90 0
56 17 70 0
-280 -296 -42 0
-82 37 -229 0
127 248 -209 0
65 201 -159 0
-114 80 -158 0
213 -103 236 0
-153 83 -21 0
-262 -214 244 0
77 -296 -265 0
-60 -49 -91 0
177 93 -156 0
-290 25 137 0
-143 294 223 0
158 275 296 0
260 -132 1 0
-184 300 58 0
67 276 211 0
252 -93 193 0
37 -74 -15 0
104 28 -274 0
262 -185 -30 0
-23 92 9 0
192 177 270 0
91 278 -209 0
-61 11 22 0
214 -10 -147 0
21 -45 232 0
177 83 30 0
172 -196 273 0
54 32 -218 0
-236 -48 58 0
136 227 -23 0
-271 41 -68 0
71 42 -228 0
-108 156 81 0
255 291 -234 0
-194 131 -15 0
-106 9 -182 0
295 -160 -296 0
-246 207 131 0
-26 -151 -195 0
-1 -22 112 0
-59 -16 -119 0
288 -140 -255 0
-290 -183 122 0
171 8 18 0
-185 -260 -176 0
-163 -4 13 0
297 55 68 0
-268 -92 233 0
-6 180 -157 0
263 -138 -188 0
48 87 -21 0
241 218 111 0
98 221 275 0
-165 -251 -5 0
-123 -161 -284 0
-54 -92 -220 0
13 171 -111 0
-291 -87 -170 0
11 -26 -71 0
39 140 -284 0
-268 -69 -79 0
-173 144 274 0
85 -100 -79 0
-95 -131 -172 0
-96 158 226 0
276 174 234 0
-202 271 -187 0
-70 -207 260 0
274 -281 -173 0
169 58 135 0
-64 204 59 0
286 185 -105 0
-38 -36 -292 0
6 215 153 0
-230 283 35 0
-127 99 -265 0
240 32 -258 0
138 -74 -225 0
-145 -152 -87 0
8 -145 171 0
174 3 -45 0
-82 -189 -278 0
109 -167 78 0
68 -215 -172 0
250 162 210 0
-55 198 -252 0
-182 -40 214 0
175 -65 181 0
199 56 249 0
-260 -299 208 0
168 -163 145 0
-267 -21 51 0
-1 57 -188 0
145 62 -81 0
-153 231 99 0
102 -266 -66 0
213 -103 132 0
69 45 -21 0
161 -270 -241 0
56 -126 255 0
-145 -142 -265 0
-28 -57 249 0
-139 -43 -152 0
-179 -191 51 0
33 115 287 0
213 -135 154 0
84 -297 83 0
147 -136 -63 0
-196 -241 186 0
-170 191 -147 0
136 294 -155 0
253 -184 -123 0
-171 184 14 0
-229 271 -28 0
32 -172 -43 0
-227 -260 -20 0
-65 30 109 0
-185 -118 -232 0
-123 -22 156 0
137 124 -240 0
90 180 129 0
-113 105 162 0
242 48 -47 0
-263 -121 -92 0
-152 193 -272 0
195 10 26 0
-65 194 -217 0
-127 -179 112 0
61 141 190 0
-195 -89 -175 0
-127 15 297 0
-165 266 -36 0
-207 -145 -120 0
-12 -295 42 0
-12 152 -242 0
142 -36 -274 0
224 137 42 0
166 209 -187 0
-96 265 130 0
149 -57 -199 0
-284 -157 -287 0
280 -255 189 0
202 8 -280 0
-156 -198 205 0
17 -184 -54 0
22 297 88 0
288 -144 165 0
-195 -204 -108 0
35 -56 -130 0
176 -246 -96 0
156 -281 129 0
190 -27 -297 0
-18 -182 171 0
-116 -250 -281 0
-191 -43 105 0
-198 -224 220 0
-276 -123 -300 0
-180 228 -45 0
-267 -19 -196 0
-135 193 14 0
24 174 -9 0
-285 -287 -19 0
-214 137 291 0
-204 -9 223 0
128 -46 201 0
-264 123 243 0
250 -200 -46 0
-168 89 -50 0
42 222 -41 0
197 153 223 0
8 278 277 0
217 148 -100 0
-72 -261 182 0
239 119 -274 0
-78 174 181 0
268 211 -200 0
97 164 -180 0
47 -232 -240 0
283 -236 264 0
-14 -256 251 0
-235 132 -299 0
-143 84 25 0
-232 91 -295 0
169 254 4 0
16 208 -112 0
76 220 84 0
224 -49 -232 0
-167 -116 -176 0
-171 -25 -223 0
34 -90 -137 0
34 -116 299 0
-229 -240 181 0
-40 -274 176 0
18 208 90 0
-179 180 30 0
49 246 269 0
35 -135 274 0
88 201 -134 0
137 -201 79 0
-8 272 -113 0
-45 197 -32 0
-39 168 6 0
164 276 247 0
-43 -52 299 0
224 -159 -126 0
145 176 -289 0
-253 60 267 0
70 -75 278 0
224 -151 -188 0
-210 -87 -156 0
117 -295 193 0
4 274 85 0
-148 -155 168 0
60 46 -122 0
136 -239 244 0
78 92 -177 0
-101 -153 149 0
139 -133 234 0
234 -92 19 0
9 129 127 0
13 134 65 0
-129 250 146 0
-14 -268 -12 0
13 158 192 0
-199 213 -291 0
257 264 -156 0
146 -187 -235 0
40 149 186 0
39 -287 225 0
-183 -51 125 0
-8 245 -75 0
43 260 185 0
7 -152 -146 0
259 -256 -71 0
-209 -66 64 0
-168 253 -64 0
199 -213 2 0
-258 -25 -41 0
-91 -149 -2 0
92 -186 -238 0
272 -183 -192 0
60 -50 153 0
187 131 169 0
291 158 243 0
-138 -169 -4 0
-192 299 -233 0
113 47 75 0
-196 -159 164 0
-253 74 284 0
-98 -7 -45 0
-247 -264 -125 0
-133 -108 187 0
-260 268 80 0
188 -4 272 0
119 104 211 0
191 262 -104 0
-39 230 171 0
-219 129 61 0
137 46 -87 0
80 289 -103 0
-194 -76 133 0
-150 -287 -239 0
-266 -173 -209 0
239 157 70 0
-36 4 168 0
91 -279 271 0
-294 112 -33 0
148 -185 152 0
273 134 180 0
149 254 279 0
11 233 227 0
-280 101 -68 0
108 214 183 0
2 -197 283 0
-208 -265 269 0
130 75 299 0
-105 18 -296 0
283 28 142 0
-84 -10 -124 0
-287 -176 -58 0
260 97 -182 0
-280 -285 -273 0
148 190 189 0
27 205 72 0
84 -97 69 0
46 71 -153 0
-225 134 13 0
127 -25 165 0
-297 -131 197 0
-89 202 -277 0
231 -164 -127 0
-25 -105 -48 0
-143 -292 193 0
-261 50 11 0
-82 78 225 0
-256 -236 -215 0
-232 158 -123 0
-297 -294 -26 0
115 224 -10 0
149 212 -272 0
113 52 -77 0
-162 -1 104 0
284 -103 -45 0
-135 -99 127 0
297 -260 -298 0
136 -268 66 0
-36 -194 -250 0
-279 214 166 0
70 -10 -115 0
-163 -1 16 0
-53 155 41 0
235 -283 124 0
-264 -239 -281 0
-10 46 170 0
244 -1 -220 0
-80 212 -233 0
-91 -295 -286 0
-225 73 -58 0
66 109 -9 0
-260 64 -138 0
228 283 -100 0
271 292 113 0
294 269 40 0
-27 -184 218 0
147 174 -256 0
-139 83 193 0
-52 -39 283 0
-107 -300 -30 0
171 235 -232 0
-123 193 17 0
274 -258 67 0
282 186 84 0
-231 108 237 0
248 -275 92 0
213 -278 285 0
-68 -280 60 0
-71 242 224 0
47 -40 -281 0
171 183 -137 0
292 -208 237 0
62 44 -210 0
29 176 3 0
-94 -159 27 0
-214 -136 -160 0
277 48 224 0
114 -172 286 0
18 -241 -129 0
-174 26 193 0
81 -7 -218 0
280 116 37 0
-179 145 160 0
-244 89 176 0
-285 227 -204 0
-208 172 63 0
273 -253 239 0
-174 58 -229 0
-153 134 -126 0
144 55 145 0
207 299 77 0
-233 -248 -129 0
-277 -273 238 0
181 -196 -161 0
283 119 -240 0
-145 86 -14 0
-300 -279 -295 0
-204 -280 275 0
-106 149 147 0
251 171 -9 0
-236 -187 -32 0
-258 227 163 0
12 -275 235 0
35 5 300 0
-114 -147 258 0
103 46 -14 0
152 178 -145 0
110 -161 -99 0
-191 -242 164 0
134 106 225 0
25 137 -165 0
-116 -68 -46 0
243 -165 -163 0
-244 76 160 0
-42 59 195 0
171 -84 23 0
-194 157 61 0
-263 -79 -231 0
245 -298 60 0
239 -133 -142 0
93 35 40 0
239 -214 -178 0
-46 -92 -142 0
-194 278 246 0
86 35 -258 0
242 -202 35 0
-73 295 -174 0
-102 237 1 0
-240 259 -50 0
-1 262 -100 0
254 -38 -232 0
14 81 -134 0
1 -72 -168 0
140 166 -201 0
-148 -89 175 0
-271 -204 209 0
36 -275 -232 0
-268 66 117 0
-284 -233 168 0
86 111 -185 0
-162 80 -47 0
-66 55 220 0
-50 -49 -195 0
-66 -107 -54 0
-300 47 116 0
32 -158 -275 0
16 -144 166 0
31 -160 -173 0
-35 -169 210 0
76 -227 65 0
172 6 67 0
136 266 -184 0
55 -259 191 0
-299 -193 65 0
127 289 10 0
83 -183 -7 0
18 25 245 0
81 -114 93 0
-36 -162 131 0
-108 -32 -181 0
-44 206 49 0
126 -95 273 0
40 -31 -194 0
43 -113 135 0
283 -113 130 0
-46 -268 -105 0
-230 119 141 0
258 264 -234 0
-201 -83 287 0
112 258 31 0
-149 39 -271 0
-254 41 169 0
-92 -46 -232 0
85 -10 -65 0
-12 194 127 0
273 172 -200 0
111 86 167 0
212 68 -215 0
-24 202 92 0
218 110 -41 0
-42 130 -84 0
-157 11 175 0
73 -32 28 0
-272 215 -169 0
-87 78 -127 0
41 -102 -67 0
158 17 -162 0
-49 -54 77 0
-47 276 -63 0
-292 -261 -65 0
160 49 -174 0
-40 -232 -236 0
40 -143 11 0
-136 -63 22 0
257 -157 -58 0
-141 288 -1 0
-194 260 288 0
52 24 118 0
207 178 -187 0
-198 -202 -104 0
-45 -211 -150 0
271 -186 57 0
-94 -248 -284 0
263 101 151 0
-295 248 50 0
162 -222 53 0
47 35 283 0
288 -285 33 0
141 -28 -165 0
-227 -30 146 0
148 8 -101 0
-63 269 -154 0
11 -31 164 0
-277 -91 -61 0
-213 64 -288 0
262 140 289 0
283 -186 300 0
-212 109 48 0
-146 -156 -266 0
-184 6 85 0
-83 30 -101 0
-285 -223 180 0
188 137 76 0
-35 273 -58 0
201 268 -274 0
59 64 16 0
264 157 187 0
25 262 37 0
236 -153 -267 0
241 154 -92 0
258 219 148 0
-147 80 7 0
263 -151 55 0
92 272 262 0
28 282 165 0
-4 -119 -10 0
-78 127 -69 0
82 243 -26 0
-29 -245 79 0
-293 -297 -128 0
-131 -92 -201 0
68 273 -171 0
201 -110 -49 0
-79 -231 30 0
159 191 -118 0
199 51 124 0
-158 36 -214 0
245 198 -59 0
256 273 98 0
-137 -207 -233 0
-74 -193 -206 0
-38 -97 295 0
-185 291 108 0
-84 -297 38 0
-19 284 245 0
269 -53 -63 0
280 194 31 0
115 -148 -260 0
-294 150 -255 0
-34 -290 -55 0
34 216 118 0
-191 -167 247 0
-121 -230 93 0
-120 -100 -263 0
259 -201 210 0
188 -277 -257 0
-198 288 -43 0
-97 145 186 0
-44 -50 -77 0
-213 288 -176 0
172 -164 208 0
-85 -14 -123 0
-179 -74 130 0
152 -231 -60 0
115 -81 300 0
-26 -131 274 0
163 297 -36 0
-174 -255 -152 0
-224 -6 279 0
-52 -215 -270 0
-128 138 -294 0
128 -175 -102 0
-300 91 82 0
209 189 -297 0
-36 -5 157 0
-4 130 -230 0
-139 -59 -67 0
286 -144 154 0
-128 232 295 0
-85 -171 -276 0
-106 -211 -162 0
-126 -263 187 0
131 197 206 0
-49 122 202 0
-106 -90 -61 0
247 -38 -183 0
21 -257 -254 0
222 -181 -39 0
-84 101 157 0
143 -233 -231 0
-81 -31 -16 0
-285 -242 151 0
-268 -228 31 0
137 -138 60 0
-260 -214 -289 0
170 51 -121 0
-90 -144 107 0
280 -48 -242 0
202 -276 285 0
-26 -286 -201 0
292 -46 118 0
45 -227 -55 0
-211 -229 29 0
-77 70 -170 0
200 23 89 0
-250 -245 237 0
-103 -245 241 0
276 -117 128 0
-211 40 -186 0
-237 265 -227 0
-277 11 -212 0
-7 287 257 0
-1 262 139 0
261 274 177 0
-183 -155 -227 0
234 -138 10 0
103 -256 56 0
-232 237 -213 0
20 -28 45 0
136 118 -272 0
208 299 7 0
21 -256 137 0
84 187 -209 0
-174 171 -33 0
169 14 -198 0
-130 78 -219 0
-226 121 -251 0
-161 -18 -31 0
160 -161 40 0
-139 -185 156 0
-251 -3 -216 0
52 84 -117 0
244 61 -218 0
234 -55 -3 0
105 -162 -133 0
236 211 -117 0
-250 255 -154 0
-98 73 -41 0
287 -140 -64 0
-118 70 71 0
51 -273 193 0
21 242 138 0
-156 211 169 0
5 189 -60 0
-44 168 -56 0
40 224 -194 0
47 -149 -134 0
256 9 -10 0
237 -207 -94 0
-230 -76 -261 0
195 -1 -81 0
-24 -143 225 0
-206 -295 138 0
65 -207 31 0
54 192 106 0
185 4 193 0
177 -159 146 0
252 -148 -116 0
-236 -2 37 0
-36 -288 69 0
-205 -160 -211 0
286 256 4 0
195 -205 88 0
89 234 239 0
44 -274 266 0
-20 209 221 0
-153 -30 -69 0
30 277 177 0
-99 -187 -175 0
158 63 -148 0
-224 -143 -15 0
-255 -108 -36 0
25 -274 196 0
-96 -29 242 0
-179 244 -279 0
76 -265 186 0
111 -236 10 0
-74 32 -290 0
-7 155 119 0
-128 220 -226 0
58 33 273 0
-84 -98 -164 0
-194 41 31 0
288 258 -81 0
159 107 -187 0
-152 -26 -245 0
162 114 116 0
38 -152 291 0
-119 28 263 0
206 -69 89 0
130 -192 214 0
18 -129 161 0
-228 107 -56 0
-272 185 245 0
53 211 117 0
60 209 -211 0
-146 127 225 0
202 -259 116 0
-285 -62 -288 0
-216 201 192 0
190 5 237 0
-62 -193 169 0
186 -128 72 0
172 259 277 0
-198 -20 -43 0
-166 132 98 0
153 78 -252 0
-258 266 -282 0
259 141 224 0
-273 -141 79 0
-218 103 181 0
105 -94 -224 0
73 -220 76 0
6 278 146 0
62 254 92 0
-245 17 -128 0
51 5 -92 0
-51 268 129 0
94 -300 -246 0
73 -75 -102 0
7 -188 49 0
-37 122 -140 0
-259 -73 56 0
-128 236 163 0
294 220 66 0
85 153 -239 0
-59 153 24 0
275 123 -4 0
29 216 117 0
-153 266 -236 0
77 -148 -83 0
-12 198 -76 0
-238 -33 204 0
-291 -243 211 0
-204 163 45 0
-203 170 -265 0
-255 6 -143 0
16 -113 158 0
239 -196 -2 0
-145 225 -5 0
224 87 182 0
-213 -78 -43 0
235 -18 62 0
-111 232 -247 0
-273 -197 296 0
-279 144 14 0
199 -210 155 0
-286 -123 -11 0
22 -265 207 0
-37 115 -87 0
-98 273 115 0
273 -20 126 0
216 -149 77 0
-191 -212 -41 0
