p cnf 300 1278
-287 62 117 0
175 -41 -299 0
58 -198 -36 0
22 193 142 0
-87 -238 287 0
-276 133 47 0
-51 -104 284 0
164 24 19 0
114 -235 157 0
-252 226 218 0
-274 51 299 0
102 -221 122 0
63 -187 -4 0
268 -206 50 0
68 -140 260 0
112 -192 -294 0
168 48 -269 0
30 -93 -281 0
-137 61 218 0
-181 149 20 0
-226 106 274 0
-120 24 74 0
-139 125 218 0
-116 -54 -117 0
232 209 -37 0
-130 166 270 0
-14 202 109 0
181 204 -24 0
175 -43 158 0
272 -241 25 0
-207 49 71 0
181 22 172 0
-215 -189 53 0
126 -222 225 0
163 -173 -168 0
54 166 -131 0
125 234 -101 0
-259 167 -69 0
-141 -135 -236 0
-222 85 273 0
-252 -109 -17 0
-101 -251 -72 0
163 -165 -75 0
295 -237 -60 0
214 297 -267 0
95 155 264 0
-296 -123 -191 0
-43 273 -139 0
259 220 -43 0
202 -283 92 0
-97 245 -23 0
125 217 219 0
102 87 -189 0
158 149 -236 0
3 -103 245 0
-198 -260 191 0
25 196 133 0
-263 236 203 0
218 -52 162 0
298 -144 63 0
286 53 227 0
106 193 -206 0
-141 190 66 0
-269 -134 -220 0
113 100 -67 0
-285 87 265 0
85 -280 127 0
186 199 -217 0
297 208 -152 0
-130 -52 -6 0
47 235 -6 0
14 284 22 0
166 179 -164 0
-111 -62 -134 0
-81 40 171 0
171 -28 -161 0
-265 182 -150 0
169 -179 139 0
114 -151 -125 0
178 -63 155 0
-239 8 132 0
-38 -34 -77 0
-103 -202 -229 0
111 83 -290 0
-109 -286 -230 0
51 -163 176 0
104 214 94 0
-21 -194 17 0
-143 5 -82 0
-153 287 131 0
84 -114 -176 0
112 94 -191 0
-85 113 -263 0
-16 73 -110 0
164 124 -151 0
135 -69 -201 0
-145 -59 80 0
241 88 -172 0
-244 222 219 0
169 -130 -63 0
5 -132 215 0
-73 -161 279 0
-103 123 -259 0
-43 215 199 0
139 -253 -238 0
-2 -157 -225 0
172 -43 22 0
30 -136 -108 0
-79 -38 197 0
183 -1 15 0
120 278 -38 0
-18 -286 -140 0
248 -115 -128 0
87 203 -142 0
22 -12 102 0
234 54 49 0
-194 33 -94 0
190 21 -188 0
133 -258 98 0
87 -89 99 0
-235 -225 -63 0
219 -187 -99 0
58 -55 84 0
264 -173 171 0
-213 276 -233 0
184 295 151 0
198 -100 -215 0
-86 -120 -233 0
76 -65 125 0
148 287 -26 0
277 71 13 0
133 -284 29 0
-273 190 108 0
-142 176 207 0
-192 58 79 0
140 146 -288 0
289 -55 186 0
150 281 198 0
278 -260 -296 0
270 139 -1 0
195 -53 93 0
-184 153 -7 0
-192 -94 127 0
-92 6 -187 0
90 291 -212 0
266 -160 -137 0
229 184 259 0
156 -198 276 0
-32 -227 -257 0
-221 -143 -100 0
220 -148 186 0
54 168 -163 0
146 -30 101 0
252 -76 -75 0
-52 146 -103 0
58 -131 113 0
260 82 -54 0
223 -32 106 0
-181 -28 192 0
95 79 -63 0
19 20 -278 0
-276 51 -22 0
262 -51 64 0
-17 13 -108 0
-164 -221 -279 0
-68 -167 -211 0
41 49 120 0
226 21 -148 0
86 107 299 0
-226 -167 -166 0
-184 -50 159 0
-203 123 -145 0
-32 172 99 0
155 182 65 0
-268 187 -140 0
77 276 -295 0
229 -300 54 0
-193 -137 -296 0
-172 -34 92 0
283 -185 -242 0
-65 -170 -281 0
217 -170 -111 0
-112 109 -168 0
29 -126 -188 0
10 189 45 0
-276 -117 105 0
264 111 -269 0
136 230 163 0
-205 -125 -18 0
-58 -137 21 0
110 287 228 0
276 -70 224 0
-284 136 -16 0
-38 57 116 0
6 -224 -42 0
-287 -183 -290 0
-46 172 -134 0
-135 178 -169 0
-78 -200 -119 0
283 -201 284 0
-101 -149 -268 0
1 134 37 0
-219 -35 -234 0
40 -150 -169 0
122 -164 -262 0
-240 128 -266 0
-15 -129 76 0
-92 -219 145 0
-26 201 206 0
287 -149 -122 0
-141 67 47 0
12 -16 -62 0
44 -274 124 0
257 -102 -3 0
231 1 -117 0
-153 190 181 0
-39 124 -183 0
65 12 21 0
-215 -80 -74 0
34 54 -210 0
-195 77 12 0
236 -55 110 0
36 7 287 0
2 196 -60 0
45 225 163 0
-149 -257 -2 0
200 271 253 0
241 266 -220 0
-99 138 150 0
-70 -173 -200 0
225 149 -237 0
-54 216 -73 0
-288 89 -274 0
178 156 -70 0
228 -215 175 0
109 212 -162 0
41 172 -112 0
-43 -294 -275 0
-174 -119 260 0
-286 165 135 0
-28 296 188 0
293 -292 -193 0
289 -47 -101 0
-10 89 -130 0
265 -239 -261 0
-55 260 -71 0
-175 -270 -4 0
-222 -95 -81 0
-53 265 154 0
-241 128 188 0
-10 125 287 0
-56 -16 293 0
90 -83 -9 0
233 146 28 0
152 -38 -141 0
225 125 -61 0
123 133 3 0
156 36 27 0
-248 -26 76 0
22 145 -238 0
-284 115 -84 0
298 209 247 0
-248 -99 -92 0
-97 -168 -13 0
224 -216 209 0
285 206 -53 0
274 99 -101 0
106 -162 220 0
-156 -120 131 0
34 41 -157 0
-170 -159 205 0
92 -46 23 0
291 267 129 0
-230 -225 229 0
-26 113 -70 0
187 19 95 0
108 -145 -16 0
254 96 -22 0
-282 -120 272 0
-242 -9 19 0
95 168 -39 0
118 -26 -43 0
291 -128 -220 0
210 188 172 0
150 237 113 0
-50 -51 -299 0
224 -196 13 0
221 89 -61 0
162 217 -155 0
144 -125 -290 0
-139 -297 -162 0
239 283 217 0
29 -300 265 0
-1 19 197 0
-10 82 -20 0
-169 42 236 0
-138 16 -132 0
240 -21 -22 0
163 -287 -178 0
-58 197 -50 0
37 -171 242 0
-23 -175 -249 0
147 286 -143 0
167 155 25 0
216 -198 -226 0
-180 -220 -267 0
-280 242 19 0
184 -150 -160 0
-37 180 -196 0
-142 158 -226 0
110 280 261 0
269 54 258 0
-68 -152 180 0
-166 -41 227 0
279 -226 -49 0
-40 -187 -27 0
273 35 -244 0
-66 231 53 0
286 -246 23 0
150 -20 287 0
-73 -29 -6 0
-9 -122 119 0
-168 -30 99 0
296 -261 63 0
71 119 -111 0
261 164 -253 0
45 297 -183 0
111 -59 -55 0
-147 -4 252 0
151 -218 269 0
-20 289 28 0
234 185 -75 0
-230 80 -17 0
27 150 68 0
-117 -158 -167 0
237 241 -61 0
-246 -113 8 0
-76 121 -225 0
-285 -34 237 0
114 -93 31 0
109 159 17 0
-141 -68 -273 0
16 -265 26 0
262 -62 31 0
185 -282 155 0
106 -103 14 0
-241 216 -148 0
199 -24 -73 0
291 19 37 0
-143 167 -207 0
278 -35 -198 0
264 19 -138 0
125 -18 187 0
35 -85 26 0
-42 91 -59 0
-65 71 182 0
157 -163 -16 0
155 -261 140 0
46 233 85 0
-216 -60 -291 0
-224 116 296 0
216 -188 -5 0
163 -247 -191 0
273 -291 -58 0
13 -121 -90 0
236 207 -38 0
92 -84 -190 0
-152 -73 -247 0
-215 -80 63 0
82 99 183 0
-86 225 117 0
92 149 272 0
-227 233 243 0
248 91 -52 0
-212 140 236 0
-138 -204 228 0
283 -136 29 0
-210 104 -192 0
-147 -54 -50 0
-65 240 -41 0
-176 -184 -213 0
-17 -242 -15 0
-298 -214 223 0
246 -213 -87 0
90 -246 -57 0
-133 -187 234 0
-265 4 -62 0
138 -190 -37 0
-105 27 -47 0
-202 284 130 0
-267 149 268 0
-173 132 -290 0
150 -173 -258 0
139 -183 -207 0
-221 263 -255 0
-232 146 -34 0
52 -71 -142 0
-43 151 -258 0
117 269 -74 0
-199 -273 -206 0
-248 -95 49 0
278 -57 -247 0
197 -117 72 0
-293 -80 -54 0
126 9 -160 0
-21 8 -171 0
-174 -298 223 0
-136 277 130 0
-296 159 -26 0
212 -1 -30 0
-256 60 249 0
39 -209 -25 0
-272 19 -204 0
-116 87 211 0
-209 230 276 0
206 -185 201 0
231 7 99 0
-187 123 -141 0
224 179 76 0
5 -247 -258 0
-285 -117 92 0
111 123 266 0
5 250 -39 0
-32 69 -284 0
10 -116 -120 0
208 73 -99 0
-177 -270 -143 0
72 -232 59 0
-132 108 -51 0
-296 132 58 0
-38 19 170 0
-23 -95 -229 0
-267 6 -226 0
-77 180 150 0
-48 -87 109 0
-251 -31 129 0
34 260 206 0
199 15 177 0
68 -145 4 0
-148 -240 -152 0
34 -51 259 0
-100 150 -16 0
-116 -30 161 0
24 -23 -267 0
291 49 293 0
297 120 -129 0
79 -225 -158 0
266 211 210 0
-297 25 -11 0
238 -227 79 0
-58 52 -203 0
-58 -22 111 0
-209 110 165 0
-161 125 -133 0
18 -33 -232 0
284 52 25 0
-278 -108 190 0
23 256 -2 0
-297 -281 -156 0
-265 -105 144 0
106 -144 200 0
-282 -17 225 0
185 -288 -266 0
-247 -290 -41 0
40 54 76 0
211 155 156 0
265 -217 174 0
72 122 169 0
-75 -13 117 0
-40 -20 -288 0
106 -131 50 0
-247 281 226 0
199 -144 249 0
-204 152 -269 0
-175 107 -88 0
-42 76 -252 0
-150 205 267 0
24 -68 168 0
-11 -8 -73 0
38 -90 67 0
124 -105 -35 0
44 -23 197 0
121 -153 -9 0
-142 12 3 0
135 229 -259 0
-40 -252 -93 0
128 -83 -116 0
250 -198 -9 0
-85 94 -183 0
68 95 287 0
-162 -201 189 0
-69 -97 20 0
-13 253 162 0
-123 -230 -11 0
-43 -41 -229 0
-229 183 264 0
280 -74 -103 0
210 -11 -82 0
-110 -139 -29 0
-192 -154 -69 0
224 136 -104 0
232 41 124 0
-191 -92 214 0
198 260 183 0
-29 -276 163 0
23 -39 -190 0
157 46 -70 0
-121 -45 -262 0
216 -108 -63 0
263 -227 258 0
236 83 -54 0
196 251 4 0
-86 -61 151 0
-188 230 -71 0
-172 -271 69 0
-2 84 115 0
-199 83 78 0
-73 -57 191 0
-112 187 -81 0
-164 227 217 0
-127 -289 25 0
-184 85 174 0
-289 138 -277 0
56 -149 -49 0
233 -76 109 0
112 -7 -78 0
87 -297 147 0
88 192 -6 0
111 -68 -191 0
-200 45 -299 0
20 -116 234 0
171 -34 2 0
191 292 212 0
55 9 270 0
226 -267 57 0
-259 -152 -178 0
-180 259 4 0
-286 83 -151 0
-232 63 -54 0
164 144 28 0
122 -73 -263 0
32 -7 140 0
113 300 -288 0
-178 120 236 0
-37 -289 220 0
102 201 -278 0
256 -158 -46 0
103 -75 167 0
170 -109 -300 0
-36 18 -272 0
75 -13 -181 0
-146 -178 16 0
173 -136 95 0
-76 130 -293 0
-9 -195 298 0
116 -139 61 0
-278 -159 -223 0
-129 -89 190 0
-163 -244 44 0
23 -213 230 0
286 174 -296 0
94 -78 -122 0
-290 -124 -176 0
129 -126 177 0
-34 9 262 0
-285 50 -270 0
136 -161 237 0
169 -139 239 0
199 -259 -246 0
-122 -159 -293 0
-194 -244 121 0
-196 197 -164 0
-48 20 254 0
52 -76 261 0
-256 226 -64 0
289 76 -21 0
103 257 -246 0
2 -41 -63 0
53 -75 -25 0
80 -202 -235 0
-40 -138 31 0
-210 196 -29 0
-161 -66 -69 0
211 -251 -203 0
-271 39 -43 0
-267 298 252 0
272 77 -119 0
-74 -31 276 0
-36 264 -251 0
-107 -87 -178 0
118 123 257 0
295 -40 115 0
-174 156 133 0
145 239 -284 0
10 -124 -245 0
-49 -169 -101 0
-63 2 286 0
-218 -295 -62 0
-201 214 -266 0
17 -52 -35 0
-135 -291 -216 0
-83 217 -49 0
-1 115 72 0
286 -104 81 0
132 280 150 0
-170 199 3 0
-285 -88 118 0
-20 224 284 0
88 145 242 0
203 -256 -216 0
-83 -116 264 0
-68 -15 -162 0
-163 250 89 0
276 174 -82 0
-265 -90 -121 0
281 54 149 0
-170 272 -193 0
296 -49 -43 0
36 -21 -244 0
64 -198 -246 0
184 240 190 0
-169 220 -296 0
-148 57 -192 0
-62 -139 -206 0
93 22 -229 0
72 -155 23 0
130 174 -260 0
-193 28 -134 0
-251 226 298 0
-72 -111 -268 0
71 184 -142 0
-285 54 -36 0
206 200 -165 0
-32 -295 -212 0
-91 -54 233 0
-245 234 129 0
-140 225 138 0
270 -143 -253 0
23 282 -12 0
-255 21 211 0
-233 86 281 0
230 -236 146 0
-6 202 144 0
292 171 121 0
275 266 209 0
-28 -172 82 0
191 -27 -134 0
-206 2 -298 0
-226 -29 -269 0
182 -32 248 0
-205 -125 156 0
85 -87 -61 0
229 -204 -169 0
133 -179 122 0
208 122 27 0
-50 -67 -21 0
-7 101 -82 0
15 205 -167 0
-30 295 -132 0
-56 252 62 0
16 223 50 0
46 -133 -30 0
-22 -57 181 0
140 78 88 0
-143 79 -116 0
218 70 36 0
128 150 73 0
207 188 68 0
219 54 -204 0
199 -28 -87 0
129 -268 77 0
246 -48 146 0
-239 132 -167 0
-132 -123 -286 0
241 -111 276 0
195 281 -266 0
-266 26 -298 0
124 -1 299 0
-92 -220 74 0
-231 115 -39 0
218 77 -299 0
-130 35 11 0
20 -7 92 0
-122 25 -162 0
-98 215 33 0
-277 -128 182 0
-260 -210 -189 0
-134 -272 35 0
226 90 86 0
260 -73 212 0
-135 246 -222 0
285 -24 -278 0
-38 216 -121 0
-207 -184 76 0
-256 290 249 0
120 1 285 0
62 160 -133 0
17 23 119 0
-174 -6 -91 0
-83 170 -178 0
-104 -233 256 0
-38 43 -45 0
161 -82 -272 0
161 -231 267 0
-179 258 108 0
-195 -187 -35 0
-20 -140 272 0
-242 -132 -223 0
-257 -22 91 0
-157 83 24 0
-46 132 -153 0
-215 199 200 0
-122 30 -265 0
-86 -77 257 0
-285 278 -212 0
80 -72 -57 0
-214 223 164 0
215 -270 -59 0
-168 30 151 0
-79 -81 -52 0
-48 59 51 0
-6 -157 -35 0
284 -228 -59 0
-247 -48 238 0
-238 -213 -95 0
-104 74 103 0
-118 -268 40 0
148 -200 134 0
-119 164 224 0
254 28 -292 0
-270 4 248 0
-30 27 -29 0
-298 -91 57 0
172 6 -200 0
147 10 -156 0
281 -15 -164 0
238 267 -96 0
-36 247 187 0
126 -5 88 0
146 202 -196 0
125 -193 -205 0
-168 -83 7 0
193 116 -147 0
-238 181 -296 0
-5 -65 -73 0
-205 281 216 0
-288 -191 197 0
-63 -78 -292 0
-22 160 234 0
100 -50 117 0
-223 -198 -22 0
54 -133 19 0
-285 -233 -143 0
255 240 -12 0
-233 5 246 0
-3 -121 175 0
109 95 -254 0
144 -95 -146 0
-66 -133 49 0
171 252 -136 0
-14 -259 -281 0
222 -29 -68 0
-262 -125 -159 0
-266 109 -15 0
234 136 43 0
-32 11 266 0
-64 -151 -173 0
-268 -15 172 0
99 225 147 0
-234 -26 208 0
-62 299 -43 0
-166 -209 36 0
18 -285 38 0
-168 290 -268 0
-33 67 62 0
93 179 -161 0
-217 43 -109 0
70 16 32 0
95 197 -183 0
-6 95 -234 0
171 131 -88 0
256 -163 22 0
125 -224 115 0
-147 60 88 0
195 51 269 0
268 20 53 0
46 226 11 0
265 23 -121 0
82 241 -116 0
191 -199 135 0
-69 288 -16 0
-232 46 87 0
-237 38 148 0
258 199 49 0
-270 173 48 0
-19 277 174 0
-10 26 263 0
197 182 259 0
-152 -293 -267 0
-39 -249 -159 0
-82 159 5 0
-76 49 -78 0
-215 -63 234 0
-262 -82 23 0
-278 -31 62 0
-158 -208 197 0
-159 -228 63 0
15 -289 -52 0
-259 105 237 0
-161 227 -80 0
173 -259 228 0
55 285 -242 0
267 -214 56 0
188 -224 59 0
-270 -102 -43 0
211 -32 -295 0
-251 79 -224 0
-81 204 95 0
-89 -154 -299 0
164 198 256 0
150 -81 62 0
-25 281 -112 0
-82 146 -197 0
-202 36 -182 0
73 266 -83 0
65 14 -214 0
156 271 -129 0
110 -20 1 0
281 -219 151 0
258 185 -8 0
40 108 120 0
276 -267 15 0
-107 74 236 0
47 -69 151 0
256 -78 -39 0
-176 -88 158 0
122 -170 215 0
-243 70 -285 0
-8 -112 -71 0
-267 164 -215 0
115 -196 -99 0
7 256 -2 0
166 36 275 0
-266 152 -127 0
231 -32 290 0
36 -90 -23 0
-208 214 284 0
83 105 -118 0
-35 -184 -257 0
94 82 -153 0
-139 -176 -245 0
-276 -294 -46 0
-33 -225 -41 0
205 -126 -204 0
100 183 -69 0
274 -207 23 0
-124 96 261 0
-143 103 -164 0
-49 185 -202 0
-64 294 95 0
-99 -61 299 0
-150 29 234 0
-48 -250 -80 0
-140 -54 -73 0
43 136 174 0
-1 -74 72 0
42 156 68 0
113 280 -97 0
-77 -147 -100 0
220 -150 156 0
257 -289 66 0
-293 4 240 0
-235 296 7 0
-2 95 227 0
-263 135 143 0
-26 -57 -5 0
-10 154 208 0
-292 -177 -293 0
-89 259 -223 0
263 -297 149 0
-295 218 -226 0
-28 117 83 0
78 232 175 0
-51 -190 172 0
-207 -214 55 0
164 75 -276 0
65 -38 111 0
-290 -275 -300 0
-193 93 -284 0
-281 183 -144 0
131 140 -18 0
41 276 -76 0
86 -105 -82 0
-3 46 207 0
-281 262 264 0
172 84 197 0
278 -93 -221 0
11 -266 72 0
272 -54 219 0
184 -122 -279 0
-30 -229 2 0
-300 -240 -241 0
-178 1 215 0
-287 237 -238 0
3 109 170 0
-199 -155 226 0
-261 -277 -252 0
98 -154 73 0
-161 -184 285 0
17 289 -4 0
21 157 -103 0
-68 -282 -270 0
-63 -93 91 0
-72 -213 244 0
-298 224 -130 0
229 -266 196 0
-107 -211 -189 0
-99 -157 -10 0
-47 -76 -28 0
-22 246 -10 0
255 -276 -23 0
-205 -140 116 0
-256 -243 -137 0
178 -109 -125 0
151 112 -85 0
274 -60 -184 0
-238 -217 103 0
-202 -4 -237 0
92 48 164 0
175 108 239 0
290 -205 260 0
85 -269 22 0
-165 -34 184 0
93 161 57 0
76 253 -140 0
-190 -290 -64 0
-69 -234 87 0
-32 -206 -258 0
185 -86 -134 0
-209 -59 -206 0
265 -264 255 0
11 4 -90 0
73 -64 188 0
-294 289 282 0
-20 238 50 0
-105 -39 -59 0
-44 -203 -260 0
-153 -177 -132 0
2 -26 -12 0
232 115 2 0
-32 -250 -58 0
210 -204 -116 0
291 -121 221 0
152 234 -178 0
178 -81 -125 0
-66 218 -234 0
235 77 -263 0
-269 -225 130 0
-188 81 184 0
-114 79 238 0
275 -65 -110 0
-238 125 -149 0
-218 -39 -290 0
92 151 86 0
-17 -163 144 0
24 -22 -188 0
-102 -128 37 0
-221 -255 2 0
-202 -3 -218 0
239 151 226 0
-196 -294 204 0
-182 83 -254 0
-206 -240 -248 0
-41 -281 -151 0
-105 -294 -28 0
-298 268 32 0
134 246 -174 0
-199 -286 232 0
205 253 176 0
220 63 285 0
-51 286 -110 0
108 -40 -280 0
289 -140 -109 0
-288 30 268 0
-143 -132 47 0
-248 105 191 0
111 -252 206 0
-171 -94 -227 0
-198 -227 78 0
75 -167 237 0
-1 199 17 0
185 -166 -7 0
126 -78 133 0
-212 -293 -124 0
-162 87 -229 0
3 -266 -281 0
-237 92 186 0
229 172 209 0
192 128 -97 0
-81 -89 -285 0
281 -113 -147 0
-78 300 238 0
-22 -53 131 0
239 -21 262 0
158 9 147 0
135 -16 269 0
219 -252 -107 0
-43 75 39 0
93 181 134 0
287 -257 199 0
123 217 172 0
119 -267 -116 0
-88 271 159 0
-77 263 -117 0
120 -151 74 0
60 -29 238 0
-201 7 -73 0
215 -34 -69 0
180 -66 -44 0
-30 -84 104 0
58 277 -17 0
276 -192 -144 0
-74 -111 79 0
40 71 -136 0
-290 -256 -226 0
188 256 -94 0
-212 140 31 0
-272 -36 -89 0
-156 215 130 0
36 67 -206 0
-137 10 271 0
142 -281 -149 0
-245 218 -201 0
151 196 95 0
-111 -169 277 0
207 -111 -261 0
197 26 -114 0
-286 -104 -256 0
-216 99 102 0
-259 107 -57 0
150 -50 -127 0
182 -294 -167 0
111 300 146 0
278 287 119 0
-255 -282 -37 0
-208 -171 106 0
-114 -160 19 0
-282 265 89 0
163 -183 276 0
79 -266 -251 0
-225 -139 -34 0
-193 188 -109 0
-81 177 -150 0
-186 56 -81 0
249 153 -10 0
263 139 74 0
-11 71 178 0
-141 -57 131 0
250 127 33 0
177 -46 27 0
159 -212 -156 0
64 -159 -180 0
183 219 -30 0
173 297 -222 0
74 -157 -10 0
120 -82 -207 0
-279 -50 -101 0
-37 293 261 0
174 -204 79 0
226 -246 60 0
23 -192 207 0
-191 -43 -58 0
69 48 253 0
-147 -83 -268 0
-56 26 -263 0
-37 -126 -184 0
-46 264 -268 0
184 200 286 0
-256 68 38 0
296 86 -85 0
-184 1 239 0
210 -265 6 0
1 -268 181 0
-7 -221 273 0
203 -61 -282 0
158 -146 238 0
-44 2 -147 0
-300 -151 63 0
55 -203 99 0
-93 -204 -189 0
-270 2 -288 0
-28 171 48 0
-274 -237 266 0
265 136 212 0
-182 -51 -25 0
-12 -122 88 0
150 -220 -47 0
33 -71 92 0
128 119 -49 0
286 -50 -278 0
242 18 -55 0
182 112 135 0
171 -111 219 0
-162 -226 72 0
-157 284 254 0
-30 241 -176 0
137 -108 -3 0
-127 -195 202 0
-94 -290 249 0
59 283 147 0
-79 279 213 0
-104 -174 203 0
-211 167 -191 0
-297 -36 61 0
38 233 141 0
-260 49 186 0
-183 -44 161 0
-164 94 -296 0
-7 -56 210 0
-46 267 -115 0
-256 191 14 0
-191 -222 -174 0
-152 -61 29 0
104 264 -249 0
-225 168 44 0
-38 300 78 0
-82 164 -139 0
126 232 -1 0
254 -217 215 0
-291 -68 -37 0
-8 64 142 0
-207 -178 76 0
-124 91 -181 0
-137 -7 -240 0
-246 53 108 0
-117 -36 264 0
-284 -191 -65 0
272 -284 -100 0
-47 -80 15 0
274 -113 -198 0
59 105 -94 0
284 -260 -33 0
243 -228 -6 0
154 145 -176 0
7 -260 -279 0
267 137 -139 0
4 -247 147 0
-261 45 122 0
103 101 -44 0
-191 192 -188 0
-261 -91 176 0
-110 -46 -69 0
-72 40 -213 0
-94 -21 278 0
-238 -226 27 0
211 152 101 0
-107 -120 210 0
-28 34 166 0
-298 -277 -70 0
-80 16 -132 0
48 196 -142 0
-8 -161 142 0
-18 -103 -247 0
-288 215 -76 0
-96 -180 -188 0
181 54 35 0
191 -294 71 0
283 136 49 0
283 39 71 0
-6 218 -164 0
-21 115 -39 0
25 261 208 0
-58 247 -230 0
32 155 -102 0
-246 129 96 0
22 -97 -188 0
-12 -224 187 0
-87 -187 206 0
66 128 -12 0
-133 -91 -205 0
-160 -124 272 0
-264 -290 -60 0
-196 -257 119 0
-182 -70 -200 0
214 -145 -46 0
-249 -162 148 0
272 175 80 0
-121 -67 -128 0
3 -217 37 0
-59 252 -176 0
39 -157 -216 0
-136 -80 26 0
-48 -275 216 0
204 -234 148 0
97 -244 -299 0
90 207 95 0
171 -3 -146 0
-108 -228 25 0
93 -159 200 0
-243 264 181 0
209 204 -250 0
28 89 -21 0
-79 -230 261 0
100 207 -110 0
87 -115 -230 0
-278 244 265 0
-61 -52 -112 0
-162 -240 -110 0
60 -196 150 0
-296 -283 -110 0
174 -4 239 0
63 -69 -37 0
-57 -142 -119 0
-258 -100 -111 0
8 80 -119 0
-146 -271 56 0
-206 -112 276 0
-33 254 -122 0
-275 -29 79 0
12 226 237 0
137 85 -130 0
-171 145 220 0
199 -126 19 0
-115 133 -117 0
-70 -95 -270 0
-81 -125 164 0
224 -284 80 0
-148 -51 -79 0
103 185 239 0
-266 -200 289 0
-19 -158 -254 0
244 49 -60 0
-32 -90 194 0
20 201 -54 0
182 -60 157 0
28 -104 -84 0
230 107 -13 0
-149 73 27 0
-203 265 -169 0
-277 125 -133 0
5 190 -171 0
-81 -187 -89 0
37 220 104 0
-277 39 142 0
69 -152 33 0
-256 178 -144 0
264 17 113 0
-23 -127 196 0
-132 72 265 0
-160 188 262 0
-48 -243 164 0
110 -123 -138 0
-102 85 86 0
29 -111 -225 0
-281 171 -165 0
187 -158 264 0
-125 79 -299 0
129 -154 -94 0
-222 81 198 0
-262 -128 191 0
97 184 -282 0
186 -9 169 0
83 -241 -270 0
73 296 279 0
-96 17 -271 0
86 130 73 0
-276 -13 4 0
2 118 256 0
-158 272 256 0
-148 175 92 0
259 50 103 0
-193 -118 -26 0
37 39 84 0
-68 -209 99 0
-151 -96 253 0
-76 -183 55 0
-210 227 -143 0
-99 95 -113 0
