p cnf 300 1278
-199 137 127 0
274 285 -219 0
-25 -260 -217 0
137 256 2 0
-63 79 102 0
-58 51 255 0
-98 163 -288 0
-280 -93 -153 0
263 180 190 0
100 -70 -231 0
167 154 -111 0
-65 232 -178 0
-7 156 -37 0
59 279 254 0
152 -183 13 0
-213 -198 -52 0
-85 -37 -216 0
-139 -113 76 0
-77 -87 214 0
-82 -124 83 0
-68 -62 297 0
-160 -201 -63 0
-288 -289 127 0
47 -156 -164 0
75 293 -111 0
134 -255 136 0
-68 -173 55 0
64 160 13 0
-148 197 244 0
61 -15 -272 0
-153 186 199 0
-148 39 169 0
-253 166 105 0
-180 55 59 0
-179 -298 -160 0
176 -103 -243 0
-227 271 4 0
269 -245 71 0
7 -154 254 0
-32 104 166 0
15 -174 24 0
-192 -84 245 0
151 -180 -263 0
-118 291 -19 0
11 55 -79 0
258 -48 285 0
-84 152 -203 0
-291 -34 261 0
90 -14 270 0
245 165 224 0
-44 104 227 0
211 44 77 0
-136 118 163 0
189 133 -184 0
-105 262 -290 0
18 256 61 0
86 116 -14 0
14 -300 214 0
-168 -37 80 0
84 -20 -283 0
-176 -62 -81 0
-34 -243 -19 0
-177 106 -155 0
-247 -52 195 0
-128 -136 172 0
220 -104 -197 0
-7 210 195 0
-132 228 -185 0
-79 168 70 0
122 100 -76 0
265 -153 -248 0
171 -65 124 0
265 269 97 0
231 -137 -290 0
-166 195 258 0
134 109 172 0
-184 -70 -216 0
-154 -78 -290 0
-212 -169 107 0
-181 59 66 0
-291 55 50 0
-121 40 -246 0
173 -45 197 0
274 268 -115 0
-38 -137 -3 0
138 -147 -29 0
-161 -164 224 0
11 140 212 0
-32 15 -208 0
281 -91 293 0
-171 264 -160 0
44 169 86 0
-300 -272 182 0
-171 281 6 0
-287 81 -58 0
-213 140 113 0
4 116 236 0
93 -133 220 0
-105 -76 -135 0
-76 -266 -205 0
62 209 -219 0
11 -196 1 0
4 75 59 0
-230 -231 2 0
-154 -9 -72 0
266 -286 -198 0
-218 -268 9 0
-119 -2 -213 0
35 4 -252 0
-46 176 -147 0
154 -56 122 0
-293 -80 250 0
-109 -217 106 0
208 -197 119 0
-75 -212 224 0
-41 -117 -166 0
-256 181 -132 0
25 146 264 0
137 188 -70 0
294 169 -276 0
206 266 77 0
-178 99 274 0
-229 276 -34 0
143 278 -167 0
201 -300 240 0
69 -66 193 0
-268 237 72 0
-108 -235 243 0
14 140 -145 0
-98 -191 22 0
-199 -196 -279 0
-139 295 114 0
-212 -98 -288 0
215 132 -26 0
-115 137 252 0
-201 -225 160 0
79 -103 -169 0
121 -93 167 0
-133 -60 127 0
-250 -163 132 0
-24 33 251 0
117 142 50 0
81 -277 143 0
151 206 240 0
-45 -178 248 0
-180 226 34 0
-234 -267 -44 0
-295 -244 -54 0
250 277 -255 0
80 -272 -127 0
-40 -66 126 0
131 -296 -211 0
-8 -195 152 0
4 41 37 0
-289 132 21 0
-192 94 -120 0
-193 -277 108 0
-30 -134 2 0
208 -83 114 0
43 156 227 0
168 225 254 0
-46 133 -44 0
280 -186 10 0
3 -250 -266 0
137 -300 -182 0
234 -283 207 0
170 -102 -88 0
125 -289 -286 0
-250 156 285 0
206 239 288 0
146 -196 -113 0
-11 -48 85 0
-96 61 -216 0
15 38 215 0
-161 -108 -185 0
-52 -192 -69 0
-205 41 37 0
-257 -228 120 0
147 115 269 0
225 -77 -280 0
83 291 -202 0
260 173 -282 0
294 36 -231 0
-243 -167 -13 0
-142 -117 -44 0
150 200 -89 0
-130 -241 78 0
-81 180 -93 0
-289 199 261 0
-148 42 -99 0
184 137 8 0
-228 -165 -56 0
-107 257 -3 0
108 283 71 0
188 165 -5 0
-114 -91 2 0
-148 64 -275 0
80 23 -8 0
-20 71 246 0
157 -22 180 0
19 -281 -46 0
-197 -207 -242 0
-297 -86 -100 0
-254 76 -235 0
64 104 108 0
56 -91 -170 0
49 298 16 0
-26 256 15 0
84 -53 -225 0
-133 -281 -139 0
-111 -28 -33 0
201 85 220 0
-79 -53 -270 0
-8 -63 -197 0
-211 90 -107 0
-189 -171 -18 0
-126 -255 -83 0
146 157 211 0
-75 140 -297 0
-109 91 -1 0
-138 186 -55 0
-212 -189 96 0
293 -45 214 0
-205 -13 -38 0
173 -225 240 0
-14 178 100 0
-70 18 -238 0
1 -39 -14 0
-273 142 145 0
296 -71 146 0
-210 172 256 0
-109 194 -99 0
-117 -140 -114 0
-91 253 -54 0
-111 -209 270 0
158 -137 242 0
262 219 118 0
245 -296 95 0
85 97 -198 0
-140 178 272 0
-13 140 209 0
218 -200 248 0
140 -33 -13 0
186 -111 289 0
-199 73 103 0
-298 221 -257 0
-161 -285 -98 0
132 279 -263 0
37 -129 149 0
201 241 204 0
162 238 119 0
-74 60 -3 0
-277 -250 -260 0
-130 -290 -293 0
97 135 193 0
-51 -263 28 0
214 84 15 0
294 76 45 0
245 101 -270 0
100 287 -92 0
-142 84 -229 0
296 123 -4 0
184 -14 -104 0
-197 275 298 0
-117 204 120 0
-79 268 17 0
-204 60 19 0
201 274 -199 0
-207 -16 -282 0
9 158 51 0
286 -269 150 0
258 56 24 0
276 96 122 0
118 -168 29 0
-89 242 176 0
-125 -154 -9 0
194 -37 -159 0
-5 -289 120 0
-68 169 -161 0
-299 -67 89 0
-66 -163 183 0
74 -206 -281 0
-256 190 -226 0
101 104 114 0
-74 38 -148 0
271 -296 43 0
-235 159 -240 0
170 239 -131 0
-179 -75 -244 0
-241 184 -268 0
-209 -16 178 0
-44 -242 87 0
98 -269 -65 0
-63 61 -46 0
-104 254 -76 0
282 93 -116 0
141 -280 -197 0
-273 137 -235 0
-287 207 -75 0
-201 287 -256 0
283 300 125 0
268 11 -265 0
-259 -219 266 0
121 -286 -69 0
189 -236 209 0
-160 271 164 0
-209 57 208 0
274 243 70 0
-275 156 195 0
-285 -32 98 0
176 230 -298 0
62 -61 -194 0
66 202 235 0
23 -295 -100 0
255 148 235 0
193 -284 -53 0
290 -100 -99 0
-4 130 -261 0
-250 82 -290 0
-233 -35 -33 0
250 -188 -176 0
-233 75 -131 0
100 1 220 0
106 -193 -185 0
197 93 69 0
161 219 90 0
91 216 9 0
-278 243 55 0
-190 -294 -224 0
67 -191 135 0
159 -82 198 0
243 -277 202 0
75 70 -43 0
-126 243 276 0
-110 -277 144 0
-198 160 -70 0
-274 -6 299 0
-5 -183 -17 0
247 -261 249 0
270 33 -120 0
191 49 -201 0
-39 274 -52 0
-130 54 47 0
208 -41 145 0
-220 -132 -86 0
-182 -158 36 0
-66 -67 23 0
-47 -9 235 0
277 -171 268 0
215 255 -130 0
109 -96 191 0
-235 -176 -4 0
196 -70 -243 0
-38 -125 64 0
221 119 11 0
-220 219 249 0
137 -276 -240 0
-245 264 -73 0
6 250 -299 0
269 -156 -77 0
-113 298 227 0
-15 286 149 0
-260 -194 38 0
-209 -112 -286 0
-249 62 150 0
-51 -267 -191 0
285 70 97 0
5 191 32 0
-53 46 237 0
-179 -206 -289 0
-194 205 -115 0
-236 131 -74 0
-100 158 2 0
-48 69 -118 0
62 -65 110 0
28 29 174 0
59 253 -265 0
-41 120 71 0
-145 -208 109 0
-78 184 161 0
115 -118 -80 0
180 -211 88 0
-166 45 -231 0
185 -85 195 0
86 -138 -55 0
106 -100 -120 0
148 49 -249 0
49 224 -34 0
267 -248 -148 0
-297 -132 -92 0
296 28 1 0
51 296 282 0
43 248 294 0
-238 -206 -165 0
133 73 -177 0
124 -81 144 0
76 -44 92 0
261 122 -139 0
-143 -100 284 0
212 274 -117 0
240 136 62 0
35 227 -264 0
-90 35 38 0
-139 42 88 0
146 -292 254 0
24 295 -156 0
78 131 32 0
207 -30 -19 0
225 -214 -232 0
-24 -40 188 0
-95 119 -1 0
30 -73 281 0
-205 -123 -156 0
-222 265 48 0
91 32 -159 0
10 -36 61 0
-206 175 168 0
-121 112 156 0
-241 -90 203 0
194 154 -29 0
173 -246 236 0
84 259 66 0
-296 -216 -119 0
-91 236 229 0
-260 79 -20 0
135 -237 9 0
53 205 -186 0
232 242 -69 0
178 -239 -88 0
10 -130 223 0
-9 169 187 0
39 -42 -134 0
47 -133 -228 0
28 -89 -121 0
95 -198 -230 0
-149 -2 227 0
-202 -216 -72 0
173 -123 -53 0
182 -188 159 0
115 -83 -268 0
-31 -172 -25 0
-254 -109 -166 0
-209 -62 -239 0
186 -183 -211 0
94 -56 292 0
-124 119 -154 0
-71 108 22 0
-257 59 -139 0
-183 -23 179 0
-141 100 14 0
-150 50 -75 0
242 254 -243 0
286 -168 -83 0
75 -254 -127 0
-271 -238 256 0
130 -52 80 0
-157 61 238 0
-264 -193 -278 0
-199 -283 -187 0
-129 231 275 0
-286 -224 -241 0
-68 -203 239 0
-268 -14 -75 0
-131 278 -155 0
-49 46 242 0
-206 -230 -159 0
-155 175 -283 0
134 -74 232 0
-107 137 -15 0
3 -202 299 0
-287 104 -192 0
-210 49 -209 0
-108 -269 -263 0
223 -165 148 0
-83 253 288 0
120 92 -131 0
-154 -73 260 0
77 140 -145 0
209 237 -1 0
-108 -87 298 0
-176 78 -271 0
259 -286 280 0
-223 -287 104 0
28 -236 -161 0
-280 -267 -228 0
-153 90 170 0
-265 -278 244 0
172 -89 173 0
-172 15 -203 0
35 129 283 0
-52 -183 -77 0
104 277 -262 0
13 12 -149 0
-1 -241 29 0
-51 -72 167 0
-164 7 -214 0
95 -123 257 0
36 186 -133 0
198 163 39 0
-291 -110 142 0
81 194 90 0
-36 -79 267 0
-21 82 -195 0
155 16 54 0
120 -7 -249 0
248 -130 -209 0
-154 294 -280 0
-12 94 298 0
-216 2 -131 0
87 268 -217 0
-220 9 197 0
252 -164 227 0
241 52 222 0
-148 -169 -128 0
-18 60 -220 0
295 136 -58 0
133 -191 -60 0
-142 267 38 0
-24 192 -5 0
-222 -43 84 0
-136 31 238 0
20 -49 -174 0
158 -151 209 0
120 237 -182 0
-195 234 -175 0
-194 227 90 0
-277 -110 26 0
-240 -243 -235 0
-62 8 -87 0
204 298 4 0
-108 -200 220 0
-45 -61 -144 0
203 -283 121 0
272 164 -214 0
195 281 -288 0
247 -275 54 0
165 128 154 0
26 249 -163 0
-262 288 5 0
92 -262 210 0
263 134 259 0
156 -184 221 0
288 79 -164 0
78 -231 58 0
-159 55 -91 0
-179 262 222 0
-122 268 -276 0
109 -220 -288 0
-296 -255 -180 0
222 240 -299 0
146 141 -235 0
-115 117 -89 0
216 -257 189 0
145 -174 76 0
-50 40 -172 0
231 -99 -32 0
-145 -288 155 0
43 -104 263 0
-282 128 -89 0
-227 -276 50 0
-134 53 16 0
-61 81 -212 0
-191 185 30 0
-234 150 224 0
-293 113 -23 0
-274 -193 10 0
239 -272 -206 0
-20 -112 132 0
-115 -7 -264 0
-184 -252 -156 0
-57 -273 -11 0
145 -293 235 0
239 15 87 0
129 -202 115 0
-182 -300 -111 0
-40 245 -92 0
-61 149 62 0
-184 135 229 0
-280 -68 172 0
106 -109 193 0
85 -63 167 0
-144 132 -4 0
231 -70 205 0
-133 -154 -28 0
-52 -201 -64 0
216 83 -90 0
237 -92 114 0
-1 -214 -273 0
-172 145 204 0
243 -158 -47 0
227 44 90 0
151 137 -139 0
-72 140 -58 0
91 -253 221 0
-286 126 45 0
135 -72 -276 0
-100 80 132 0
-246 -2 190 0
-215 177 -34 0
182 65 295 0
-231 -93 -171 0
-225 -46 253 0
255 -245 -252 0
194 -251 -22 0
64 -98 67 0
174 -122 -199 0
185 283 -286 0
278 -90 58 0
-252 29 232 0
-72 181 -33 0
283 48 -22 0
-8 -211 -237 0
-148 -289 172 0
61 270 -261 0
62 234 -293 0
267 125 62 0
164 258 -189 0
154 274 159 0
77 -23 22 0
-49 163 64 0
60 33 -287 0
90 175 -154 0
-148 95 -70 0
-184 16 261 0
68 139 266 0
-205 -215 119 0
-113 -187 -33 0
148 258 246 0
-189 -130 -147 0
226 275 -168 0
-39 70 -166 0
-113 288 146 0
-62 -99 133 0
65 -55 207 0
223 262 -139 0
69 -231 -107 0
-172 69 35 0
-247 117 -229 0
-290 116 -139 0
12 300 -203 0
-50 -170 -281 0
141 17 -197 0
-6 256 -214 0
-4 -224 -198 0
-176 4 17 0
-172 -173 -279 0
-247 -33 189 0
220 173 126 0
72 24 79 0
-187 -128 -74 0
-266 -245 195 0
45 -38 48 0
193 -276 -182 0
216 -205 -116 0
-270 -104 93 0
1 240 265 0
-293 -60 40 0
-268 -274 -270 0
-66 -117 287 0
76 173 14 0
-156 264 277 0
62 -174 -154 0
-55 -76 275 0
-225 -175 -168 0
-51 255 -262 0
125 -235 -227 0
-139 -170 168 0
49 285 -145 0
244 -212 -162 0
166 -96 234 0
200 -162 35 0
77 147 126 0
174 236 -206 0
-229 247 -37 0
98 -101 -100 0
82 -278 -246 0
-237 102 -143 0
71 -110 -17 0
-46 -238 -128 0
72 -168 -107 0
289 -232 -86 0
-126 199 139 0
165 111 297 0
271 93 113 0
-156 -279 -52 0
30 -11 126 0
-42 179 86 0
189 28 27 0
-77 -245 -111 0
-54 -119 84 0
-242 -24 293 0
-196 -191 -284 0
-156 173 71 0
-18 -145 151 0
-146 295 7 0
223 88 -165 0
122 104 -73 0
-245 99 155 0
173 -131 -201 0
276 247 226 0
-14 -16 -161 0
-50 -159 -242 0
-125 -185 5 0
-32 -224 285 0
222 -252 -66 0
-18 -281 -245 0
55 -22 -25 0
-294 77 266 0
-300 -231 197 0
5 -56 82 0
213 -113 56 0
224 117 77 0
220 123 -182 0
-121 -43 126 0
-119 31 -121 0
-33 45 210 0
-280 -46 157 0
101 282 280 0
278 54 -110 0
-180 -34 -59 0
-70 -74 133 0
153 -238 196 0
-218 256 276 0
147 -213 -191 0
235 -191 -190 0
139 150 279 0
-166 -47 -141 0
105 -138 126 0
-131 -160 -208 0
-117 226 109 0
-195 -197 169 0
-22 -1 -295 0
51 179 101 0
-111 -81 286 0
-151 152 84 0
-275 98 180 0
115 230 191 0
-98 254 183 0
146 177 52 0
-256 9 -293 0
114 177 -80 0
271 154 80 0
251 -102 -138 0
-154 -112 -215 0
-252 17 74 0
-59 34 -191 0
159 -38 241 0
121 217 269 0
165 -263 -199 0
-170 262 268 0
-21 4 106 0
12 66 -52 0
-219 -296 87 0
8 119 271 0
-285 184 232 0
102 126 -11 0
295 115 156 0
-138 -53 150 0
-6 -291 -26 0
-108 87 131 0
-114 -214 -98 0
-148 -64 198 0
46 24 14 0
8 -169 29 0
299 -13 83 0
259 107 -50 0
283 -207 36 0
-174 214 171 0
63 -15 50 0
201 153 37 0
-180 -131 189 0
297 -183 -72 0
-235 -221 146 0
-119 -95 73 0
60 -21 291 0
58 -196 129 0
-149 145 228 0
186 162 -74 0
-212 -59 -122 0
-144 -142 -151 0
213 -66 -2 0
-129 -293 36 0
133 281 161 0
-293 -284 127 0
215 24 137 0
3 283 156 0
-12 -8 -44 0
6 112 236 0
-56 -246 -278 0
-180 -237 182 0
137 -114 -165 0
66 37 -29 0
77 156 -182 0
-205 -66 -171 0
-65 -202 295 0
294 -4 51 0
-81 163 -168 0
121 14 299 0
291 88 80 0
190 100 -261 0
92 33 256 0
10 -103 208 0
55 -275 6 0
77 -241 -71 0
98 -137 126 0
112 -166 182 0
-229 -200 283 0
-194 -254 -33 0
75 14 -270 0
-56 -5 87 0
-283 292 25 0
-200 -91 -68 0
-43 37 -268 0
14 35 -253 0
-224 -45 -205 0
285 236 -232 0
276 -135 109 0
-216 193 239 0
-265 210 208 0
-143 210 -61 0
-256 224 -144 0
298 145 -227 0
-2 85 -14 0
-297 -217 -190 0
-195 -194 -5 0
-142 -174 38 0
-265 216 -37 0
205 -204 -112 0
289 218 7 0
43 -285 152 0
218 -82 111 0
-223 -237 146 0
299 61 202 0
81 207 -284 0
-240 112 13 0
251 -132 179 0
-87 245 -27 0
234 146 38 0
-266 95 -238 0
109 293 62 0
106 -221 -195 0
281 264 -196 0
-85 -217 -284 0
202 -243 -277 0
192 210 18 0
267 -62 30 0
-65 143 -109 0
-235 -238 180 0
248 -113 236 0
209 -9 100 0
209 -165 -147 0
224 213 100 0
33 -96 -50 0
89 80 122 0
18 -250 235 0
236 -3 252 0
-162 43 -150 0
-122 -10 105 0
-148 -81 -49 0
29 107 -229 0
-120 -108 -81 0
-180 89 -147 0
-129 -13 -266 0
173 199 -205 0
22 -145 -220 0
-91 120 176 0
79 -157 20 0
-15 223 118 0
217 269 -62 0
-141 -39 78 0
-137 -179 154 0
230 111 -265 0
2 -250 39 0
167 267 297 0
-47 -100 116 0
7 141 112 0
133 143 236 0
270 -179 -122 0
-52 241 177 0
-15 238 24 0
-38 -114 -51 0
108 -185 21 0
-290 241 176 0
-66 -192 -229 0
223 -280 178 0
-288 209 -289 0
163 -26 -77 0
-196 -193 225 0
-127 139 -146 0
-154 25 192 0
-198 126 -140 0
283 42 252 0
-268 237 296 0
181 129 99 0
197 286 -34 0
-1 -109 -144 0
-104 -92 -42 0
-46 -18 -139 0
-162 300 70 0
160 81 41 0
181 143 121 0
136 -138 282 0
-121 -151 21 0
271 -184 233 0
-33 112 -225 0
126 -104 39 0
101 194 -240 0
-121 -117 100 0
145 -254 -231 0
-158 -267 197 0
-77 -1 166 0
-281 13 -46 0
-294 57 -10 0
209 -47 -190 0
130 300 -151 0
-28 287 -94 0
-267 -150 -39 0
-178 177 -8 0
204 54 -206 0
251 240 -78 0
127 286 108 0
27 262 -58 0
-226 268 -15 0
246 231 292 0
-276 -266 -153 0
-141 156 15 0
292 -159 194 0
-187 260 -203 0
187 250 -28 0
-97 -208 42 0
-262 27 -78 0
-30 -15 179 0
-255 -19 -123 0
229 293 185 0
34 -148 35 0
-153 -201 -134 0
-237 -171 -299 0
-73 -204 207 0
116 178 50 0
276 204 185 0
5 242 -60 0
129 252 -85 0
110 -291 118 0
-38 -153 -128 0
-159 -286 -32 0
239 -265 221 0
-148 -190 266 0
159 -206 -192 0
144 46 -62 0
47 17 -200 0
-287 98 232 0
-86 -103 98 0
-278 270 164 0
267 -139 -181 0
-20 93 78 0
123 161 -240 0
93 -184 23 0
-297 51 -201 0
-243 244 248 0
222 272 230 0
163 -2 -47 0
36 278 -25 0
220 144 -81 0
-141 -43 148 0
246 -225 -197 0
123 -150 285 0
-4 -62 -118 0
263 -211 200 0
89 -157 266 0
-196 -221 -239 0
-10 290 -69 0
-16 -117 62 0
-191 -217 160 0
-63 209 -290 0
-136 -283 -23 0
-91 135 -50 0
-111 -98 16 0
-41 -49 -170 0
-258 288 -298 0
-72 124 199 0
-257 259 88 0
-6 232 -221 0
293 -158 281 0
-41 184 -47 0
-177 7 -183 0
-144 92 161 0
-211 -187 251 0
182 -168 -4 0
-84 -78 165 0
-285 222 198 0
34 179 -175 0
47 78 245 0
251 21 20 0
-222 -178 46 0
113 -217 -99 0
-160 151 143 0
295 3 -266 0
217 -237 105 0
55 -193 -66 0
41 -99 -237 0
-55 177 -243 0
-48 -83 99 0
-63 112 -191 0
-274 35 -219 0
-269 -233 287 0
296 50 211 0
-193 277 229 0
115 274 -91 0
220 31 -246 0
261 -195 237 0
-75 21 -28 0
-137 202 -156 0
283 34 -239 0
102 -257 23 0
163 -94 -218 0
-200 -284 206 0
68 -136 -150 0
69 -53 75 0
-225 -220 255 0
-162 -278 -219 0
-290 -174 106 0
-172 -53 -66 0
-244 -4 -264 0
-22 -280 -204 0
209 31 -288 0
-47 -146 169 0
181 143 206 0
212 226 -192 0
-54 -108 167 0
263 177 -249 0
58 76 120 0
23 300 126 0
186 113 -102 0
186 249 -180 0
-86 225 -33 0
-294 -214 233 0
82 159 -219 0
177 254 -32 0
-300 179 59 0
21 167 -188 0
-105 -109 -224 0
-20 -136 -23 0
-269 184 1 0
-103 -136 155 0
162 -85 107 0
-137 156 256 0
282 6 -273 0
158 -124 -66 0
112 -146 -242 0
12 -113 -99 0
57 252 46 0
167 -218 -47 0
-287 132 -149 0
191 61 268 0
-137 160 111 0
279 192 9 0
104 249 156 0
260 -180 202 0
-291 153 -251 0
43 218 92 0
-198 -155 -162 0
116 138 -35 0
-49 193 258 0
-20 -103 -287 0
291 -155 -231 0
72 177 -57 0
-148 121 -49 0
-39 -12 -55 0
-5 -146 -203 0
79 -54 275 0
-129 -248 190 0
229 -49 -22 0
229 59 4 0
133 223 -262 0
-156 -294 -56 0
-146 -253 -188 0
-13 112 -138 0
146 -214 297 0
-179 261 153 0
72 -29 -32 0
183 147 72 0
-180 101 -64 0
257 132 -192 0
-68 101 -24 0
-47 -218 161 0
-65 260 -103 0
-176 184 163 0
106 173 213 0
200 -91 178 0
33 -283 90 0
-186 204 -270 0
288 141 280 0
154 164 -273 0
201 -196 -28 0
294 62 94 0
-203 206 -256 0
256 -183 294 0
-92 272 -108 0
85 -142 213 0
142 -27 -202 0
209 277 -214 0
-178 254 -294 0
273 -222 -93 0
-115 138 177 0
100 -260 263 0
-281 75 176 0
-173 -47 196 0
-22 193 -11 0
67 295 10 0
264 151 3 0
-38 -229 225 0
105 -237 -74 0
-11 133 -84 0
-43 281 209 0
169 150 -73 0
221 -294 44 0
-212 -158 293 0
139 -245 64 0
-121 18 223 0
93 -134 -289 0
104 -85 123 0
-120 123 -162 0
291 30 -251 0
-91 -235 7 0
184 -110 24 0
118 -274 86 0
63 245 -71 0
-125 -190 164 0
-90 279 -179 0
179 146 257 0
-199 -37 69 0
56 44 194 0
94 -167 -192 0
35 -121 113 0
7 151 298 0
280 -153 221 0
246 244 -238 0
88 -137 -173 0
-88 33 -106 0
-243 228 -88 0
-300 -281 121 0
271 157 22 0
90 -1 199 0
-25 188 -264 0
-74 -22 -86 0
-190 -189 -35 0
88 -78 207 0
22 -136 -213 0
249 273 -61 0
55 261 -209 0
261 -58 -172 0
227 219 97 0
278 -82 -177 0
-18 286 186 0
-166 161 -210 0
-78 220 112 0
50 248 -15 0
202 -293 143 0
165 -11 200 0
230 234 -295 0
-38 138 -13 0
129 45 -186 0
80 -91 35 0
150 -2 -100 0
-25 39 -88 0
280 25 -31 0
271 -140 -251 0
-264 -90 -166 0
121 -133 246 0
95 67 -228 0
249 -210 -294 0
238 -67 -82 0
280 -287 260 0
127 -285 -207 0
136 256 -288 0
-229 -125 293 0
-299 -297 -124 0
159 158 87 0
-300 139 97 0
-58 -73 -106 0
-231 -241 -126 0
29 -288 205 0
-126 55 50 0
-90 -196 -195 0
202 258 -184 0
7 2 -19 0
143 38 -299 0
203 -42 -244 0
219 -32 -266 0
30 -251 -68 0
-25 -277 113 0
28 -109 219 0
281 19 299 0
-193 -298 22 0
116 72 -9 0
166 -154 -160 0
-297 102 -28 0
-205 238 -176 0
29 163 199 0
183 -58 -121 0
-93 -296 65 0
-191 231 246 0
67 -268 -78 0
170 -234 194 0
92 -110 27 0
-128 -272 90 0
92 -237 128 0
280 -194 -289 0
-199 -191 19 0
-231 -251 -220 0
107 -84 -191 0
130 -289 -160 0
-63 -90 40 0
235 29 -206 0
45 147 210 0
79 -35 -113 0
-35 -220 -300 0
246 1 262 0
202 -185 -54 0
225 -228 191 0
-296 123 -51 0
213 266 -253 0
54 200 -61 0
-50 -145 -168 0
-195 154 -240 0
172 -64 -95 0
-54 -112 208 0
-238 -195 210 0
214 32 -57 0
177 -226 96 0
-268 19 279 0
5 141 194 0
-83 -117 235 0
-88 3 285 0
-188 280 -192 0
-185 -9 199 0
-200 268 4 0
9 15 -204 0
-179 61 -140 0
237 62 -168 0
-69 -80 -23 0
187 -179 160 0
217 -291 -28 0
154 -176 78 0
-49 -260 89 0
-299 -256 246 0
-163 -195 156 0
153 -7 62 0
180 -154 48 0
-143 -170 -139 0
-211 229 -128 0
71 -57 169 0
199 -247 142 0
-250 -222 227 0
-139 -118 109 0
36 -231 23 0
146 111 175 0
-217 102 149 0
133 59 -293 0
-227 44 -19 0
-124 -135 -61 0
68 292 -129 0
88 -85 196 0
-198 159 194 0
172 -143 -166 0
209 -176 -283 0
-28 -141 186 0
-62 -225 86 0
51 -63 104 0
139 29 131 0
-174 152 -31 0
-46 162 -217 0
130 138 48 0
298 19 134 0
-158 190 109 0
120 -210 109 0
8 -23 186 0
65 118 300 0
