p cnf 300 1278
-248 298 205 0
-53 94 -116 0
-102 -139 -4 0
-44 -287 -216 0
-63 -166 -263 0
-285 89 211 0
65 -281 267 0
216 -53 -260 0
237 241 -265 0
-29 -122 -273 0
188 19 -6 0
-64 218 196 0
176 210 -138 0
-51 -276 27 0
160 -288 -298 0
-206 -112 281 0
-186 3 150 0
-175 -35 265 0
49 187 138 0
-268 230 -7 0
39 84 10 0
-174 281 16 0
-76 157 254 0
-296 -264 -189 0
145 64 -290 0
-125 282 -161 0
-112 180 195 0
-229 -268 116 0
157 -281 250 0
124 -17 -259 0
-91 226 -111 0
284 -234 45 0
145 44 -112 0
85 -17 138 0
-104 64 15 0
-259 -217 54 0
275 280 -70 0
238 -223 -206 0
100 -85 -294 0
-219 100 169 0
47 192 -288 0
131 109 147 0
10 -230 105 0
-19 140 173 0
79 -60 203 0
57 38 110 0
112 -131 -273 0
70 -78 -65 0
37 -116 261 0
-290 178 -231 0
213 -176 -27 0
-188 -228 -256 0
71 256 -34 0
85 -28 -167 0
150 -147 -145 0
182 -261 42 0
226 -91 202 0
275 237 -234 0
-121 252 -137 0
159 86 -53 0
-54 -184 188 0
246 -148 -105 0
289 278 128 0
269 279 203 0
77 -80 246 0
-264 44 -180 0
-135 253 -124 0
-1 42 -227 0
293 -160 -70 0
275 241 -109 0
158 -177 264 0
131 -238 235 0
-67 114 29 0
155 -271 -111 0
277 20 -260 0
46 206 -21 0
199 113 -262 0
98 -228 -82 0
271 -73 -205 0
-238 -226 145 0
41 65 -110 0
171 -287 281 0
187 -239 276 0
-244 280 -219 0
280 33 113 0
49 -44 297 0
163 -258 -45 0
207 25 -21 0
193 -86 -14 0
234 -28 -198 0
140 47 -256 0
124 -20 -188 0
-261 -92 135 0
-44 -294 112 0
218 -44 125 0
178 -19 173 0
-53 245 299 0
-296 291 -62 0
158 -133 -230 0
154 -146 -251 0
161 17 181 0
110 176 -214 0
-224 -227 -34 0
-281 130 -122 0
2 -141 -249 0
-67 -225 -1 0
59 -257 50 0
-129 240 60 0
-294 -297 -244 0
101 -4 269 0
-18 5 -65 0
299 -282 -85 0
63 -276 48 0
23 252 -231 0
-172 183 -151 0
-51 -4 269 0
11 -154 33 0
-232 155 -276 0
34 131 -38 0
142 -2 -224 0
166 -281 67 0
58 169 -98 0
-121 -84 116 0
-186 -245 -89 0
-201 -285 40 0
-294 -177 122 0
-21 -186 -275 0
-202 20 -243 0
110 -297 121 0
159 -109 19 0
-136 8 242 0
-190 144 79 0
155 -65 -228 0
-287 276 267 0
212 231 -235 0
257 -290 -175 0
-193 -96 -45 0
-288 -115 -239 0
-124 -18 -145 0
114 -274 295 0
193 -199 -67 0
-231 154 -158 0
300 37 104 0
99 66 -247 0
282 179 25 0
29 63 -73 0
77 -26 175 0
1 125 -101 0
35 217 -216 0
19 -69 299 0
79 -270 34 0
-93 39 107 0
-237 222 -262 0
29 -161 -88 0
279 269 55 0
21 -182 -200 0
-176 -221 -178 0
158 -53 188 0
-51 -299 -201 0
102 28 -57 0
-154 179 54 0
172 -181 -52 0
210 157 142 0
126 211 20 0
-151 -66 -294 0
175 174 211 0
-77 -115 147 0
-287 -253 -264 0
166 244 -51 0
188 98 19 0
201 -168 166 0
-190 177 -152 0
-264 15 167 0
-61 121 -186 0
-194 -20 -278 0
-257 -116 187 0
-101 -26 189 0
-71 267 163 0
193 -77 259 0
164 189 288 0
-55 -103 -188 0
177 130 14 0
145 118 261 0
-107 74 14 0
-258 -182 -133 0
103 -276 -270 0
-105 274 -169 0
269 -231 14 0
-141 104 -166 0
-195 -29 -88 0
64 215 -116 0
-225 -39 -292 0
-160 -159 222 0
-219 233 58 0
-296 141 132 0
102 -120 179 0
235 -81 14 0
-299 294 114 0
-273 239 107 0
259 198 30 0
-183 -67 182 0
-165 -268 183 0
-116 -254 293 0
-2 296 -56 0
86 287 -260 0
-294 -27 -143 0
294 248 80 0
96 17 -72 0
93 -3 -33 0
-147 96 -297 0
-297 9 -204 0
36 120 163 0
107 188 -16 0
-126 277 270 0
170 -143 90 0
115 152 19 0
184 -59 228 0
112 295 -151 0
-6 -77 -253 0
221 -140 250 0
-270 202 125 0
190 201 279 0
-284 -6 276 0
-212 -72 200 0
267 103 290 0
157 -180 33 0
-215 -55 -297 0
73 -69 276 0
255 -90 -147 0
-215 300 175 0
-26 -248 178 0
-128 -260 121 0
-94 116 -124 0
-285 54 -275 0
-15 -18 -254 0
-204 -53 -107 0
-166 -8 -217 0
288 294 -27 0
119 -241 -201 0
-54 129 61 0
-258 246 -51 0
153 83 186 0
-63 131 167 0
37 218 -180 0
-67 -285 192 0
-259 -162 -204 0
187 -245 -46 0
289 -201 -63 0
-2 215 35 0
289 174 -178 0
166 65 153 0
-300 137 -63 0
-53 98 -75 0
-188 -276 -30 0
241 239 259 0
-161 -92 254 0
-39 164 99 0
-178 220 82 0
105 -67 101 0
214 183 -94 0
-81 44 26 0
2 -239 -82 0
11 -10 -260 0
108 -52 227 0
148 -122 -67 0
-287 -48 -224 0
-232 -216 173 0
298 -175 57 0
-52 221 118 0
264 -121 128 0
8 -25 -57 0
-220 77 120 0
184 -268 140 0
141 -191 281 0
-155 49 65 0
2 57 140 0
125 -11 -170 0
-297 251 75 0
34 283 -262 0
25 81 37 0
31 75 -8 0
210 -99 43 0
-271 -7 181 0
299 -67 248 0
60 52 284 0
257 -208 280 0
125 -192 222 0
-85 -16 -141 0
220 -211 201 0
84 -105 51 0
136 -258 77 0
17 162 -270 0
-251 93 14 0
-171 -225 36 0
236 196 188 0
15 110 -138 0
217 149 -171 0
30 -78 53 0
78 236 -88 0
174 212 -151 0
-110 235 -132 0
224 182 201 0
170 185 -10 0
-166 95 21 0
236 127 -7 0
-18 207 -236 0
238 41 194 0
-79 69 104 0
35 -238 291 0
196 -104 163 0
199 40 -244 0
-155 264 -62 0
-252 -203 161 0
194 49 -227 0
-112 -256 50 0
250 -115 276 0
269 121 18 0
-193 248 107 0
-12 -228 215 0
267 -43 29 0
-106 -298 184 0
166 -32 -269 0
-222 -105 204 0
-34 14 -248 0
-81 -266 105 0
254 220 271 0
-60 -226 -24 0
-284 -175 -165 0
31 -215 81 0
16 202 233 0
-75 174 -243 0
82 239 -133 0
261 4 158 0
187 -171 -220 0
-40 -132 94 0
13 99 -284 0
213 -67 -192 0
-157 -263 46 0
-168 -6 150 0
180 -118 238 0
1 26 -199 0
128 -294 -172 0
12 132 -23 0
81 51 -196 0
60 -113 -44 0
135 241 248 0
-90 39 -214 0
-10 -146 31 0
-258 -246 29 0
-185 121 22 0
-169 271 -177 0
74 206 20 0
-280 80 -167 0
99 128 -24 0
-200 -201 -221 0
296 -176 -251 0
87 -101 -105 0
31 -193 135 0
-64 262 120 0
261 -47 278 0
-48 -46 248 0
-117 -224 173 0
123 -243 191 0
-185 -272 195 0
-172 -244 -106 0
50 179 221 0
232 175 133 0
277 -53 260 0
181 -194 -54 0
-36 169 12 0
-151 -54 191 0
-290 153 192 0
-243 5 -288 0
-237 30 256 0
-220 219 54 0
-94 200 15 0
113 27 111 0
174 130 -158 0
254 225 -181 0
93 -27 238 0
-157 163 253 0
-222 241 -293 0
76 204 -237 0
-46 -176 259 0
202 -88 196 0
-197 -114 -205 0
183 -299 20 0
-177 104 -252 0
67 153 -146 0
-224 2 158 0
-1 -37 264 0
-69 -118 296 0
-143 -250 -101 0
-107 10 56 0
-283 -4 37 0
-113 217 -69 0
286 -17 -181 0
-201 -299 255 0
-111 66 -42 0
282 165 -48 0
-232 244 -130 0
259 264 -190 0
-171 152 -49 0
-27 221 -166 0
-95 192 20 0
195 206 -272 0
129 61 -195 0
-224 63 238 0
77 -58 -72 0
-259 229 -111 0
-194 -214 185 0
-60 -30 134 0
-245 198 58 0
-14 -150 226 0
150 62 97 0
-300 276 -295 0
-52 -4 190 0
37 156 -5 0
-194 -21 -98 0
146 -75 2 0
33 40 61 0
271 95 -89 0
77 20 -55 0
126 95 -235 0
71 1 -85 0
74 132 -17 0
-258 187 176 0
-171 -260 71 0
72 271 -59 0
281 -87 -194 0
-76 -238 81 0
192 -17 174 0
104 -110 138 0
287 -85 -213 0
-4 -37 206 0
20 27 215 0
294 -107 73 0
81 233 232 0
162 164 185 0
271 -135 92 0
-252 -116 -72 0
-149 121 -271 0
-33 95 115 0
288 241 187 0
194 -202 59 0
168 207 -289 0
-105 195 208 0
-116 76 -219 0
232 -31 57 0
-117 -73 202 0
-275 127 -59 0
-61 -65 -236 0
153 42 -298 0
271 126 184 0
169 233 19 0
-221 188 -210 0
79 -172 -276 0
73 54 -166 0
-285 236 -171 0
-188 -205 -245 0
52 51 -247 0
-150 176 -136 0
211 198 75 0
-168 221 278 0
47 60 296 0
130 246 -149 0
51 -121 106 0
91 -243 216 0
-291 -60 193 0
24 159 39 0
101 292 106 0
196 74 127 0
-190 92 44 0
-11 -104 117 0
207 -163 -300 0
-298 197 12 0
82 139 255 0
-15 72 -38 0
149 190 -207 0
-93 -239 1 0
-6 64 -54 0
-20 101 -236 0
-208 -156 55 0
210 177 -29 0
-19 92 -27 0
182 -60 -212 0
-85 166 170 0
-279 243 160 0
-71 -299 108 0
-211 136 -36 0
153 122 -10 0
-156 -71 -60 0
110 12 99 0
-15 33 276 0
170 205 276 0
116 -80 247 0
-124 -165 284 0
-149 203 70 0
53 -183 233 0
139 223 -235 0
-245 -251 -160 0
-287 -114 174 0
62 227 156 0
-52 183 233 0
110 154 -295 0
-15 230 204 0
-25 26 -98 0
66 48 -171 0
-191 -136 -178 0
-199 100 39 0
-154 -86 259 0
89 215 33 0
-81 175 12 0
186 117 187 0
172 -216 79 0
-56 23 2 0
-213 291 -198 0
84 77 -15 0
177 207 189 0
204 134 52 0
27 -44 59 0
-71 -148 -189 0
-256 273 -298 0
-56 186 207 0
-292 -85 -135 0
-50 -104 248 0
-141 -283 -90 0
203 124 -58 0
216 -21 223 0
52 228 87 0
-110 281 174 0
117 -162 -79 0
-297 19 290 0
285 57 297 0
138 -165 8 0
135 -267 -182 0
276 -56 -291 0
-182 268 142 0
-180 -266 -33 0
-237 68 187 0
19 99 118 0
250 -108 -124 0
248 121 56 0
130 23 202 0
-70 -112 -294 0
199 210 240 0
127 -176 -151 0
-286 -143 -68 0
-18 9 70 0
29 251 -263 0
248 227 -19 0
73 50 -131 0
-121 -117 152 0
-222 10 -172 0
84 -183 39 0
-40 124 -245 0
-193 -180 -246 0
-42 273 -249 0
71 122 259 0
21 261 -294 0
224 111 155 0
-127 -155 4 0
260 223 37 0
204 -94 242 0
79 -100 237 0
-3 222 -136 0
-34 161 -209 0
-293 -213 -225 0
-153 194 -9 0
27 -86 -145 0
286 -295 -184 0
71 -185 292 0
-269 -126 -231 0
12 -104 295 0
271 113 -114 0
-16 -52 166 0
-240 -206 -131 0
-5 -137 -27 0
3 163 -295 0
-169 -189 -238 0
-105 266 -100 0
-76 33 218 0
-23 -110 -212 0
141 -266 124 0
-1 -84 -223 0
-258 -13 72 0
-42 -147 -217 0
257 -226 270 0
124 -103 63 0
-62 149 234 0
167 -276 38 0
267 56 30 0
-134 -281 289 0
46 175 206 0
-23 -82 -84 0
-3 207 262 0
65 28 -118 0
21 -269 44 0
290 -276 240 0
-287 -91 187 0
215 -168 22 0
-91 -252 188 0
-98 106 58 0
269 -79 -288 0
119 -212 267 0
-20 -215 -253 0
-74 182 98 0
114 215 126 0
281 211 -64 0
36 86 -300 0
-161 110 -36 0
-227 293 -120 0
195 -116 -17 0
118 -153 223 0
151 233 -16 0
-155 -94 258 0
-14 -52 246 0
109 121 -53 0
-188 -210 -145 0
142 -277 -166 0
-254 -158 -139 0
-92 -59 268 0
-249 250 -42 0
-270 -48 -181 0
23 162 -208 0
-221 300 -14 0
-35 19 33 0
-182 29 237 0
-55 -191 149 0
57 244 -116 0
-190 88 273 0
263 -253 275 0
158 -12 172 0
-88 55 -44 0
-68 -176 -247 0
35 -284 -273 0
82 246 -227 0
54 50 56 0
-146 58 179 0
240 127 163 0
-191 -258 -181 0
236 254 131 0
177 167 -48 0
30 -265 -104 0
-50 -4 -197 0
-84 215 -240 0
-34 61 240 0
83 -119 -85 0
215 -212 -222 0
-27 7 -171 0
245 158 60 0
174 -100 187 0
131 -164 -116 0
-149 18 -54 0
-47 -183 -40 0
-1 48 -292 0
-93 -14 252 0
32 44 -81 0
-106 72 -54 0
17 -245 68 0
-24 -81 47 0
66 -262 -68 0
-3 66 264 0
-48 -15 95 0
-154 -148 -128 0
-179 41 -199 0
-66 -155 -37 0
297 -284 293 0
288 -45 -84 0
58 209 -135 0
39 254 -290 0
-150 273 -280 0
20 -41 228 0
109 -146 32 0
266 -212 175 0
2 -74 -142 0
-230 -207 -294 0
-231 -285 -79 0
-13 -140 21 0
265 -172 215 0
206 203 -70 0
-98 -236 -222 0
190 112 -85 0
-16 267 -255 0
-183 10 -109 0
-45 295 -27 0
108 204 30 0
181 269 267 0
-153 246 237 0
-67 124 285 0
-30 -129 47 0
192 272 252 0
-240 125 -130 0
231 -299 260 0
-161 61 -272 0
84 5 -34 0
-145 -273 -132 0
-220 184 -253 0
-193 191 141 0
-279 -243 249 0
-31 -72 -295 0
39 -229 -177 0
156 -108 67 0
176 -124 240 0
-166 163 67 0
-108 258 103 0
-119 13 58 0
176 135 269 0
231 -280 -287 0
-230 -166 -99 0
232 -190 -253 0
251 63 233 0
-104 -128 97 0
39 249 -92 0
132 -242 3 0
89 -188 191 0
-74 6 131 0
166 43 169 0
202 93 128 0
-10 -231 38 0
-83 -171 -215 0
-94 -145 -260 0
-143 249 152 0
-19 82 281 0
-218 99 -47 0
177 201 108 0
-227 -75 259 0
224 179 -191 0
-287 145 -131 0
-65 199 -112 0
151 16 -285 0
245 -61 -228 0
180 297 140 0
139 -295 77 0
98 -154 -256 0
-8 10 34 0
-5 71 -93 0
128 -15 50 0
-146 293 -284 0
-26 -70 -104 0
228 78 299 0
51 11 -206 0
-79 -32 180 0
-173 142 197 0
-223 -198 -30 0
37 -214 -7 0
-245 213 -264 0
-41 -80 -219 0
148 -213 -103 0
295 -156 -183 0
-172 102 -183 0
-291 279 -44 0
271 -58 261 0
47 16 -176 0
273 -220 -227 0
266 274 -108 0
-160 70 249 0
198 -138 76 0
-297 87 146 0
-94 -162 -17 0
204 -216 5 0
58 140 280 0
244 -143 -189 0
229 220 -287 0
273 -84 -171 0
55 -263 -115 0
-253 300 -293 0
-99 218 -89 0
-166 39 80 0
76 13 -148 0
-46 -158 -252 0
-221 290 201 0
-76 -99 -242 0
192 -140 135 0
136 -9 101 0
257 -126 -101 0
-38 -141 231 0
207 161 -188 0
42 -139 -140 0
282 180 179 0
-276 -2 -24 0
-142 -134 -3 0
-85 -44 80 0
-268 -10 -7 0
237 79 80 0
-15 -258 270 0
-67 -7 -9 0
-43 213 62 0
187 -67 212 0
213 -188 112 0
-151 259 255 0
142 180 -190 0
25 117 -122 0
-297 -199 -248 0
130 -8 -225 0
106 10 156 0
18 -134 -57 0
-155 64 -108 0
-21 -104 20 0
-164 256 160 0
-157 -117 -264 0
-49 45 39 0
216 244 254 0
192 70 -150 0
-210 86 -190 0
33 -173 -169 0
211 -242 20 0
226 128 297 0
-23 -175 179 0
300 -121 278 0
-33 250 191 0
18 -156 166 0
-245 -180 -178 0
35 51 102 0
-13 -76 -118 0
191 -161 -289 0
152 -220 89 0
273 242 -214 0
116 126 280 0
-49 -111 -42 0
70 191 -275 0
-259 -126 6 0
-104 89 211 0
-1 -219 -35 0
-194 145 -201 0
60 33 66 0
-203 -183 4 0
-231 223 -270 0
120 94 -49 0
220 -254 179 0
151 -280 -217 0
-215 -89 39 0
152 -136 -285 0
-287 -52 14 0
-192 268 -2 0
-226 -233 -103 0
30 7 177 0
187 255 256 0
161 -268 177 0
102 -187 -27 0
-85 -241 -181 0
201 74 -181 0
-72 196 -62 0
-50 29 58 0
-254 -10 170 0
82 -157 -54 0
-168 201 244 0
50 -59 -170 0
-118 -141 -150 0
-279 -264 241 0
-243 263 -269 0
-181 179 212 0
-248 -242 -89 0
109 -257 211 0
-156 -234 1 0
-58 232 7 0
-170 256 -95 0
-48 -90 226 0
-40 -18 30 0
84 -97 -70 0
-234 8 -245 0
113 293 131 0
-104 287 -126 0
198 25 -98 0
-175 222 62 0
92 -218 -31 0
-22 -190 205 0
-211 40 -23 0
215 140 -75 0
-64 236 -181 0
-98 206 -134 0
-252 142 -156 0
264 160 -110 0
-83 -57 -37 0
275 -33 43 0
75 247 51 0
-259 -266 -147 0
64 169 -187 0
123 82 -223 0
194 -235 274 0
-109 278 182 0
-121 -244 119 0
-1 185 -152 0
-33 115 -300 0
-144 226 -46 0
196 6 -12 0
-36 137 -196 0
-112 285 217 0
-141 -4 229 0
264 70 177 0
-51 -45 -139 0
51 99 128 0
-18 108 -183 0
283 -57 133 0
72 213 -111 0
-167 280 -45 0
-201 283 218 0
-219 246 61 0
253 -144 -10 0
298 185 271 0
-39 -4 61 0
287 -192 68 0
12 -14 189 0
213 81 -168 0
-269 240 -160 0
260 267 178 0
-194 75 -229 0
187 -195 280 0
37 -69 -232 0
285 294 -214 0
59 97 106 0
-49 138 -174 0
93 40 264 0
-37 40 -214 0
198 -283 254 0
41 81 14 0
153 -19 -214 0
264 148 2 0
207 181 193 0
228 160 -22 0
-237 -137 29 0
-162 -131 188 0
61 -299 -166 0
-10 169 -7 0
206 -86 -135 0
-119 27 164 0
-215 -164 117 0
-274 3 -298 0
182 239 -201 0
140 208 1 0
27 188 -179 0
87 287 239 0
-134 -284 168 0
-3 -58 -95 0
53 -176 -275 0
-181 143 299 0
121 -5 -152 0
263 95 -248 0
42 -170 -299 0
-247 -202 -136 0
93 256 -184 0
26 40 146 0
-57 241 26 0
-114 287 74 0
168 126 181 0
237 -215 149 0
-162 44 60 0
-243 -107 -69 0
124 27 226 0
-289 -5 43 0
268 102 58 0
83 -230 -283 0
-269 192 52 0
-102 190 138 0
69 177 76 0
127 249 239 0
-154 -152 -113 0
-277 -46 236 0
-259 85 106 0
209 -144 235 0
17 237 -262 0
265 -228 124 0
202 -105 191 0
257 -147 -94 0
-167 268 -152 0
86 54 238 0
263 164 120 0
114 -139 -163 0
-82 184 231 0
136 144 -7 0
-23 -292 -263 0
-137 -181 16 0
249 -187 162 0
255 47 91 0
287 -125 -245 0
-205 264 27 0
-59 52 -35 0
223 -110 263 0
239 46 179 0
-144 -195 33 0
-208 95 -142 0
-203 -124 -104 0
20 30 -75 0
53 193 -109 0
127 -239 -250 0
40 71 -214 0
-18 149 -153 0
68 -141 -128 0
210 243 121 0
111 257 -184 0
-257 -111 259 0
-287 249 -106 0
231 -169 208 0
137 211 -62 0
-119 202 -179 0
20 -109 -259 0
51 -56 -12 0
15 7 -185 0
285 -243 -84 0
54 -48 77 0
-58 -53 -77 0
101 17 -186 0
-68 -226 110 0
172 289 -285 0
118 -157 101 0
140 -219 -123 0
-3 193 277 0
-23 51 -125 0
146 -42 -69 0
257 -113 -191 0
263 46 -88 0
235 17 55 0
159 -285 -222 0
-178 170 10 0
-97 53 272 0
285 -69 294 0
29 179 -132 0
296 49 -250 0
-55 -65 -116 0
-45 284 298 0
-55 78 222 0
49 -240 288 0
89 210 248 0
-245 216 -132 0
197 183 60 0
32 63 200 0
118 -21 155 0
-240 211 62 0
6 -142 -50 0
52 100 178 0
-102 -15 285 0
-40 -248 -84 0
128 -36 281 0
-197 -134 -167 0
-88 -145 -226 0
129 183 238 0
-205 -262 -153 0
176 -204 -110 0
-190 -282 -294 0
123 -108 120 0
-297 69 -203 0
13 177 -131 0
225 69 115 0
-231 272 130 0
40 149 -129 0
105 229 258 0
167 -9 251 0
141 125 -233 0
228 218 271 0
84 238 158 0
-246 275 287 0
148 99 -17 0
-151 120 275 0
-53 -3 1 0
234 10 99 0
-210 27 120 0
-196 127 -11 0
-288 -136 37 0
146 212 254 0
158 78 -116 0
192 -60 -123 0
225 238 50 0
270 224 252 0
3 -114 -135 0
-75 124 -205 0
-121 -288 -118 0
294 200 148 0
130 -127 -262 0
124 2 66 0
65 53 287 0
-29 34 -231 0
-33 -115 -176 0
-125 -178 -128 0
175 -159 -174 0
-233 127 -205 0
234 116 269 0
-96 57 52 0
1 48 128 0
-192 -198 251 0
93 -96 -296 0
-233 -279 195 0
-13 -72 257 0
-71 203 206 0
252 -152 160 0
-281 201 -28 0
-36 -140 -246 0
-123 -145 -42 0
263 -116 -157 0
-237 270 -174 0
-213 294 -271 0
-57 -264 -224 0
-276 48 -227 0
-188 -152 21 0
-14 -279 79 0
54 -219 113 0
174 -198 -240 0
4 69 25 0
-101 -54 -23 0
-248 -42 -236 0
46 -231 -15 0
64 -203 258 0
254 67 52 0
-157 6 -215 0
128 -98 46 0
-230 278 119 0
-127 263 274 0
29 280 297 0
-203 123 -67 0
155 153 -15 0
-75 -113 263 0
-214 205 123 0
-159 22 -180 0
-127 161 -227 0
92 7 56 0
-12 -96 101 0
81 234 -91 0
142 152 35 0
-287 -118 247 0
179 157 294 0
168 -195 -115 0
-145 29 179 0
240 115 128 0
-154 -297 128 0
84 -230 221 0
-46 -213 -237 0
-214 245 -113 0
143 93 -212 0
-149 89 81 0
251 81 -184 0
169 -233 200 0
-7 238 -189 0
-21 99 51 0
-92 94 -274 0
-29 240 -218 0
78 81 -264 0
148 75 251 0
71 32 17 0
-39 -94 -54 0
-1 -246 206 0
-222 -131 -144 0
260 -75 131 0
-292 17 254 0
-123 -33 104 0
-97 265 -53 0
45 54 170 0
226 -66 -116 0
-300 -91 -146 0
1 214 249 0
-41 281 -271 0
-181 90 -124 0
-286 225 -72 0
213 -18 -163 0
-93 -91 283 0
-154 194 240 0
-78 189 -66 0
-92 -108 -48 0
-122 -127 -3 0
-241 137 -117 0
-264 45 131 0
77 -168 293 0
80 -254 67 0
235 52 2 0
102 44 -68 0
-243 230 -259 0
88 -24 83 0
-227 93 127 0
-179 286 80 0
27 -74 -195 0
28 -138 147 0
-15 -88 186 0
-144 -259 215 0
58 -195 263 0
12 -67 14 0
-158 41 -294 0
120 -243 194 0
83 19 -171 0
-239 187 -294 0
116 173 16 0
-168 103 -53 0
51 -214 -150 0
-68 263 -168 0
84 117 125 0
-243 147 -162 0
-160 86 156 0
-125 -66 -108 0
32 -157 -110 0
86 111 -163 0
-250 -277 264 0
298 174 72 0
206 189 -27 0
-245 -141 213 0
216 -3 -284 0
18 167 -255 0
128 83 45 0
117 -228 298 0
-224 -270 -51 0
-47 -295 -149 0
-271 -149 -219 0
139 243 -154 0
-54 -173 -242 0
-187 -57 -279 0
208 50 105 0
-22 -107 -224 0
271 185 -219 0
255 -153 -81 0
-203 276 -290 0
32 -66 -110 0
-50 -213 -98 0
239 276 87 0
218 -44 -53 0
249 106 -190 0
-99 -7 157 0
-57 -47 209 0
-224 162 198 0
95 -246 220 0
282 42 106 0
-66 -6 38 0
-126 117 220 0
-93 -88 -242 0
200 -201 66 0
-153 238 -33 0
222 39 -141 0
2 -175 -211 0
-277 -252 -198 0
236 238 203 0
-178 -43 -209 0
130 -126 -270 0
135 -55 -124 0
-156 -275 17 0
173 31 -127 0
13 58 -67 0
165 -96 -206 0
83 92 75 0
-29 -124 -293 0
-176 -261 165 0
237 -118 230 0
176 284 195 0
-173 272 -149 0
85 -132 71 0
130 113 218 0
-287 200 83 0
-61 164 144 0
-3 -128 -269 0
-180 -300 -256 0
293 104 13 0
256 4 -123 0
-133 266 180 0
174 -217 90 0
225 255 7 0
-181 -231 183 0
-83 -221 -288 0
48 -69 119 0
-283 -205 289 0
239 -38 189 0
5 -241 85 0
-228 60 -200 0
-240 -246 8 0
-166 232 208 0
-124 247 48 0
184 26 -81 0
211 -95 -204 0
55 -193 -238 0
210 -278 -88 0
-67 -198 -262 0
99 65 106 0
109 -65 -216 0
46 104 -232 0
244 20 -262 0
-208 -280 -78 0
-1 193 -166 0
260 209 -221 0
-68 -18 -134 0
-57 218 261 0
-107 -126 -15 0
-276 -46 -217 0
228 -248 -163 0
-106 224 178 0
-240 -267 -111 0
