p cnf 285 1214
-145 -17 -108 0
22 -234 255 0
265 -143 48 0
55 -130 -101 0
-153 -171 264 0
163 3 27 0
46 -68 -47 0
70 -252 -279 0
-99 98 104 0
-209 -87 17 0
281 -50 273 0
-206 127 181 0
-94 99 261 0
236 4 251 0
90 259 264 0
201 -116 -235 0
-68 102 -278 0
-20 -181 -158 0
-254 -129 -113 0
208 23 175 0
103 -196 90 0
211 13 -69 0
-143 -25 -64 0
-86 -73 56 0
153 43 -2 0
42 -90 -264 0
-233 -10 -70 0
70 -193 -126 0
-70 -58 138 0
218 88 -249 0
239 -96 178 0
97 -24 116 0
49 -264 55 0
-128 183 28 0
172 209 28 0
-205 188 -75 0
4 212 -137 0
39 173 128 0
59 22 -58 0
270 236 -16 0
-11 233 -85 0
10 16 267 0
184 -261 -111 0
76 -48 -208 0
-279 -136 -156 0
-191 2 -249 0
5 -270 -77 0
267 69 -261 0
-75 134 74 0
-194 -146 -176 0
-132 -72 -88 0
274 66 70 0
217 -135 -182 0
-244 -32 -115 0
57 103 245 0
267 -245 -223 0
278 -171 -274 0
283 -238 -141 0
9 -163 200 0
-225 -35 -229 0
76 -200 -278 0
158 184 146 0
7 60 83 0
149 114 -215 0
-284 10 268 0
-187 -171 53 0
-205 -75 184 0
5 133 109 0
-101 118 -132 0
-161 133 -170 0
-266 184 -180 0
-34 48 223 0
-248 -277 146 0
-112 232 -9 0
235 162 -52 0
219 -203 -163 0
278 153 -44 0
91 180 113 0
10 236 137 0
168 212 -131 0
-97 269 12 0
-245 150 36 0
-81 280 -130 0
-15 -63 252 0
-86 58 266 0
-237 47 -79 0
99 235 148 0
136 -109 48 0
-68 27 6 0
195 61 -169 0
-147 91 -83 0
65 -199 152 0
-276 177 282 0
46 40 -88 0
88 -189 251 0
236 202 27 0
-195 -44 199 0
63 -18 -99 0
-170 188 54 0
-216 260 148 0
-222 -72 38 0
-271 17 -35 0
232 -252 -227 0
108 100 -190 0
156 66 95 0
-111 92 -41 0
46 143 252 0
-183 -281 141 0
-9 -124 -149 0
92 -269 141 0
284 -209 -215 0
238 -14 -165 0
278 -185 82 0
-170 -29 -10 0
150 -192 175 0
-150 260 143 0
-149 134 79 0
29 242 -169 0
259 -117 138 0
38 165 110 0
-147 160 182 0
111 -150 105 0
-267 170 210 0
-244 -205 -181 0
-4 254 44 0
-185 -66 12 0
82 -62 91 0
280 159 120 0
-157 112 -261 0
155 -175 -146 0
178 -258 197 0
99 -235 106 0
44 -211 143 0
-96 284 148 0
262 -122 225 0
-79 161 -277 0
-251 33 -182 0
228 137 119 0
34 220 252 0
-183 155 24 0
126 -39 252 0
-274 52 -177 0
-35 -76 -109 0
-249 260 -59 0
-114 2 -162 0
-208 237 160 0
41 40 -86 0
-186 185 146 0
-195 -20 -95 0
-154 -248 199 0
168 127 -22 0
-43 -124 -89 0
269 -106 82 0
-55 270 -277 0
83 173 80 0
26 -47 35 0
271 263 -148 0
-153 33 29 0
-228 -26 -190 0
202 -185 -151 0
275 119 144 0
107 -170 -73 0
-71 193 106 0
-33 155 -252 0
-239 -88 -109 0
104 -36 262 0
146 -175 218 0
45 158 230 0
237 198 148 0
-9 -21 39 0
122 -92 269 0
-3 192 -198 0
20 154 -182 0
-13 137 75 0
238 271 -142 0
-104 -177 143 0
117 66 -101 0
202 -65 6 0
-6 -152 -237 0
25 192 -145 0
-246 66 -32 0
-147 -238 179 0
-279 32 268 0
-136 90 225 0
252 187 95 0
-74 206 86 0
-224 2 235 0
61 26 -97 0
-258 -193 -135 0
263 21 250 0
237 -156 283 0
103 187 155 0
-232 -59 234 0
132 265 -35 0
250 -41 -146 0
153 190 -165 0
-30 74 73 0
-23 -114 -79 0
202 -199 -54 0
220 -202 -116 0
187 66 281 0
-83 221 200 0
-176 241 -187 0
114 -278 -171 0
71 -5 -160 0
-260 -136 195 0
37 173 -50 0
138 -77 -262 0
-251 15 -192 0
-199 -156 273 0
-250 -7 -119 0
108 254 223 0
175 134 -239 0
-271 -68 -194 0
-265 222 -228 0
53 -65 -18 0
97 -108 -68 0
166 -264 -19 0
-274 -204 219 0
-102 -129 -63 0
-202 -281 -89 0
-128 -284 221 0
-2 248 -86 0
213 -132 -78 0
-27 -138 -3 0
-12 -2 66 0
-198 139 127 0
-57 -26 17 0
211 -198 213 0
195 43 -57 0
91 35 65 0
118 -55 4 0
-209 267 -24 0
107 -83 252 0
19 166 -219 0
140 -93 5 0
182 -171 79 0
1 -157 -90 0
-87 -109 141 0
-177 -260 242 0
183 -186 207 0
25 128 262 0
28 266 258 0
-261 -269 -48 0
-62 -260 186 0
-52 -44 281 0
-206 233 -186 0
-227 253 86 0
20 -49 221 0
-259 54 177 0
-246 37 -135 0
139 -67 -81 0
31 -68 92 0
265 74 261 0
189 -195 -231 0
-69 -8 196 0
-46 -55 99 0
-206 -13 -141 0
-126 -91 249 0
211 -104 -61 0
-163 140 -176 0
105 -160 132 0
285 -145 -105 0
212 32 -36 0
165 238 -158 0
59 4 175 0
-199 168 124 0
-184 178 -68 0
101 214 4 0
147 115 93 0
253 173 164 0
-51 -253 4 0
-169 -115 73 0
254 273 -138 0
-71 236 126 0
45 -273 75 0
-191 19 274 0
99 -213 80 0
-60 157 -1 0
262 250 67 0
-233 -56 -83 0
-87 92 26 0
187 -229 -257 0
-214 -70 -91 0
-66 -206 261 0
284 184 60 0
-182 44 168 0
-172 119 -44 0
142 -117 255 0
220 284 -181 0
162 -106 182 0
249 -37 -166 0
-91 -26 173 0
258 102 -1 0
-123 -212 -68 0
86 165 132 0
-116 69 9 0
-68 -277 -102 0
165 -220 112 0
-258 242 199 0
-107 -3 -211 0
-226 -234 -233 0
256 -216 35 0
219 -35 196 0
-2 280 -4 0
-101 -167 125 0
112 -156 276 0
-239 -94 135 0
-162 -203 -35 0
280 -39 -85 0
-147 180 -76 0
-90 -62 98 0
108 -39 158 0
-126 163 268 0
177 -226 124 0
-119 118 -24 0
67 -5 -92 0
-276 165 46 0
-122 186 -173 0
28 270 -57 0
190 -166 127 0
111 -10 89 0
-209 -226 -181 0
-220 210 142 0
17 231 -245 0
261 -111 150 0
282 5 -171 0
95 285 -230 0
-5 161 83 0
-260 -73 54 0
121 197 136 0
36 -38 -24 0
171 283 -274 0
-100 -107 28 0
-218 -35 -6 0
269 168 -232 0
-175 145 -47 0
-109 262 113 0
-159 273 -117 0
-219 -274 18 0
-32 -164 106 0
-167 -103 201 0
113 213 -211 0
271 -266 106 0
-171 -241 -52 0
-67 -74 -248 0
-48 -108 -264 0
258 -234 77 0
-105 -233 87 0
94 -271 142 0
-50 -144 -235 0
137 -159 -64 0
-48 -209 19 0
-274 -76 -192 0
-156 151 -76 0
-269 -197 170 0
-149 33 -215 0
-149 -206 -248 0
-171 -96 -215 0
218 -89 -158 0
197 -160 115 0
3 141 230 0
51 270 -225 0
181 276 28 0
-25 -4 -61 0
-245 -201 108 0
-39 118 238 0
-4 -246 -22 0
-216 273 75 0
-13 212 114 0
35 268 -139 0
-155 -204 32 0
-76 122 -40 0
-273 -102 -241 0
104 51 106 0
107 -179 112 0
-66 113 -125 0
-5 -31 7 0
-100 278 152 0
-84 275 -229 0
-13 -161 -218 0
-14 -60 115 0
-182 130 25 0
230 -250 33 0
216 -112 109 0
215 -139 38 0
-206 270 207 0
-70 176 259 0
-82 179 -250 0
-29 193 -43 0
-45 -29 233 0
125 -206 -38 0
-158 -230 107 0
-30 -283 -9 0
160 88 230 0
145 157 189 0
-185 73 222 0
-154 -282 159 0
-213 112 160 0
85 23 -99 0
-41 -191 -132 0
-284 52 -251 0
-232 -116 -18 0
6 22 1 0
-211 278 225 0
-132 -43 118 0
-226 -264 -220 0
-206 -50 3 0
26 168 -36 0
-206 -156 -237 0
41 -115 -239 0
94 5 -127 0
263 175 -207 0
-162 176 -113 0
33 -172 -51 0
-202 189 89 0
15 180 259 0
83 -177 -229 0
-163 -116 208 0
-180 -233 159 0
-28 -282 271 0
31 213 147 0
-140 132 108 0
124 -52 155 0
265 -217 119 0
-193 35 174 0
-213 -257 79 0
-72 1 -44 0
-269 71 -263 0
154 -104 -46 0
14 285 47 0
2 190 -198 0
122 -81 68 0
104 -215 21 0
46 -117 62 0
190 -147 134 0
225 237 10 0
52 245 198 0
-191 -50 32 0
-249 10 185 0
-196 207 102 0
-194 -237 -189 0
-30 -268 143 0
-174 234 -192 0
165 -132 100 0
-94 147 37 0
68 -151 -193 0
38 61 -238 0
170 90 9 0
64 151 -11 0
-214 119 210 0
125 -139 218 0
10 -105 2 0
273 165 85 0
59 -42 270 0
210 284 -100 0
-254 -143 -192 0
-104 -197 110 0
6 242 -158 0
-284 -263 -182 0
-232 228 69 0
-115 -73 -224 0
225 207 97 0
-156 48 155 0
29 -115 62 0
-94 216 223 0
-156 -133 163 0
243 14 -115 0
-64 182 231 0
92 49 -134 0
-149 97 103 0
24 -146 58 0
-79 -178 210 0
-17 -144 -14 0
152 229 59 0
-114 95 -18 0
-164 -228 -172 0
209 51 281 0
-164 -226 -99 0
49 -112 129 0
-236 -127 -10 0
-23 -160 144 0
200 67 54 0
-65 195 -97 0
-176 -72 -125 0
262 26 25 0
-19 -178 -138 0
247 177 71 0
237 -229 -219 0
138 65 19 0
-263 -20 25 0
-223 92 -213 0
-97 269 277 0
30 186 214 0
64 -94 82 0
226 100 -132 0
-149 -239 34 0
194 260 133 0
-168 258 246 0
-97 194 -177 0
101 -41 217 0
-167 -146 -81 0
-251 -44 207 0
219 208 -178 0
64 -131 86 0
-76 74 212 0
-63 -233 -173 0
-64 135 -85 0
-237 8 -14 0
-30 -131 -257 0
-64 151 -73 0
98 201 275 0
-41 186 157 0
-214 76 -118 0
15 245 38 0
55 66 -138 0
-24 -203 -99 0
-7 2 -29 0
-61 106 -222 0
-195 86 108 0
-3 95 40 0
-90 -61 217 0
-244 105 -215 0
77 274 -190 0
-225 262 -23 0
117 277 181 0
-86 127 196 0
-277 91 -151 0
-266 101 -197 0
225 145 -285 0
8 4 -81 0
-100 285 -235 0
-68 -166 -193 0
91 -208 -32 0
42 120 112 0
-279 136 -103 0
-152 -110 -31 0
253 -5 58 0
-48 51 136 0
-238 -163 133 0
187 175 -144 0
-239 101 69 0
-197 35 -142 0
-56 96 -33 0
-24 178 -279 0
-124 154 252 0
127 207 57 0
77 265 -144 0
40 -49 -281 0
193 98 -261 0
-28 -205 -86 0
-12 -193 240 0
-151 202 17 0
132 -106 -86 0
283 -137 200 0
-63 242 164 0
100 -266 -57 0
-32 134 -75 0
-256 264 -130 0
234 -74 -16 0
11 -45 -6 0
89 45 -20 0
-187 173 -191 0
31 -10 30 0
186 -11 61 0
149 212 245 0
-156 119 -131 0
-195 -120 -224 0
-92 -99 258 0
-162 -268 -168 0
-119 29 170 0
-16 -119 47 0
-231 -151 188 0
199 126 -181 0
241 -20 281 0
-245 138 -240 0
52 242 285 0
-283 127 -125 0
163 60 -223 0
-53 190 -222 0
253 24 196 0
-46 263 -248 0
136 -68 67 0
-95 -33 269 0
117 62 205 0
-10 -211 -104 0
-135 -237 279 0
-179 235 -120 0
-50 175 119 0
-33 234 198 0
128 -23 -130 0
127 -83 -223 0
-268 225 78 0
230 -192 116 0
10 195 153 0
96 -214 133 0
-270 -34 -140 0
-30 -155 -257 0
166 -135 -270 0
16 139 204 0
109 -38 -46 0
-104 -1 125 0
-270 -225 -131 0
-238 -11 189 0
230 -194 215 0
-66 -246 -157 0
-171 -179 -116 0
25 219 4 0
-130 -139 -170 0
77 253 -68 0
-120 225 256 0
-184 -178 -216 0
68 -216 270 0
263 -242 -227 0
-96 263 -171 0
-125 -104 252 0
-271 248 183 0
-261 177 -208 0
154 185 -175 0
-43 193 165 0
-176 -207 248 0
-104 159 -99 0
-49 -163 -244 0
-255 212 -152 0
153 223 -79 0
-272 -196 97 0
-271 -235 143 0
-159 242 -93 0
194 125 -2 0
235 -165 12 0
-194 236 137 0
199 -114 110 0
-214 -197 -15 0
-45 -82 203 0
-265 48 258 0
-142 71 -269 0
-36 -241 -131 0
169 -102 -62 0
-265 -94 -139 0
-96 151 -165 0
-214 -238 281 0
-249 163 5 0
189 243 16 0
62 247 142 0
-252 -233 160 0
143 163 -206 0
-31 -285 -166 0
81 261 129 0
-259 229 -76 0
35 -263 -12 0
52 68 66 0
-37 258 115 0
-90 -53 179 0
80 -58 -102 0
-111 26 -55 0
-14 249 -12 0
170 166 200 0
-77 207 -108 0
-61 -268 2 0
-212 -164 -236 0
117 -243 275 0
-199 -70 -226 0
229 -180 -193 0
-143 -199 -19 0
-44 144 -107 0
-84 -210 247 0
247 -89 -55 0
-226 -192 -166 0
87 -182 112 0
-144 19 168 0
25 -164 -130 0
-214 -92 -107 0
-24 -226 65 0
-124 -82 263 0
-52 -81 -219 0
-202 126 -38 0
93 -137 258 0
-221 153 86 0
-265 271 257 0
-228 143 46 0
-50 -122 -267 0
83 160 -203 0
277 150 180 0
64 193 53 0
161 174 -130 0
269 90 -172 0
-116 -96 -117 0
117 199 -140 0
231 -10 46 0
-275 82 -241 0
-247 -7 -184 0
213 170 -146 0
-265 -43 135 0
33 -108 -279 0
-133 -93 239 0
-224 239 -64 0
-58 142 -19 0
-160 48 -118 0
-41 -241 -59 0
-66 92 -182 0
44 -225 278 0
-13 106 -67 0
139 179 138 0
90 -55 -222 0
-88 -176 234 0
-157 172 244 0
74 -180 -1 0
-128 -270 -132 0
145 245 -268 0
-228 -6 275 0
258 21 -216 0
-145 38 261 0
70 -276 -282 0
-6 -200 242 0
10 170 218 0
208 54 7 0
107 -200 -264 0
84 54 212 0
-224 -85 -68 0
123 218 -29 0
-148 218 12 0
252 79 278 0
222 96 -284 0
9 -209 76 0
-195 276 235 0
-169 -244 -174 0
129 -283 -91 0
219 -206 88 0
-12 26 242 0
189 -238 -174 0
-80 -201 284 0
29 194 80 0
-268 -206 -22 0
194 -201 -262 0
269 108 47 0
193 64 60 0
-189 -55 220 0
-274 98 -201 0
80 265 81 0
142 -51 -155 0
-69 234 68 0
-124 200 265 0
215 139 -251 0
-122 192 194 0
159 -118 143 0
-65 -34 87 0
149 49 -220 0
79 -107 133 0
-275 196 129 0
-64 -157 51 0
-176 -124 213 0
-99 -36 265 0
280 -87 -173 0
-99 37 133 0
-170 -162 124 0
-71 -124 -67 0
-88 -170 -13 0
-258 -256 154 0
-7 100 276 0
-280 -113 218 0
-170 250 20 0
140 104 54 0
211 125 -120 0
-12 88 -45 0
27 -128 255 0
-206 214 -64 0
75 -70 207 0
255 -78 -190 0
-9 -86 243 0
-276 -35 -114 0
176 101 254 0
231 -109 -284 0
16 231 269 0
-26 4 197 0
90 -119 -51 0
-262 239 25 0
-95 -68 -172 0
-253 -86 -185 0
56 19 77 0
-44 178 -186 0
-78 164 -285 0
-7 96 -255 0
220 233 -177 0
-122 102 -91 0
102 39 211 0
199 220 129 0
-243 -258 158 0
182 75 113 0
-53 1 122 0
53 -263 -225 0
-120 183 -115 0
229 -121 223 0
-108 175 -63 0
-173 119 75 0
167 -215 232 0
201 216 195 0
-13 73 -105 0
-150 -274 122 0
142 -204 -74 0
152 -248 -229 0
247 45 -127 0
-280 -81 106 0
-15 -223 198 0
120 -162 282 0
11 -79 271 0
73 131 161 0
183 -222 -188 0
-263 171 -188 0
130 250 -206 0
33 -195 117 0
-210 72 -135 0
59 -22 192 0
238 -261 275 0
-142 -94 -16 0
143 -233 -64 0
-241 -235 94 0
-179 202 54 0
21 -39 -282 0
-54 17 31 0
-45 -115 -183 0
213 242 234 0
246 177 -181 0
-69 216 -65 0
-267 43 145 0
-67 150 -13 0
118 -82 123 0
-56 -103 -226 0
-204 24 28 0
-284 -276 106 0
-124 272 44 0
274 -113 121 0
-107 -259 92 0
161 137 255 0
252 -16 -114 0
-262 202 -249 0
177 -85 -212 0
221 129 151 0
-14 160 76 0
-152 246 213 0
-42 -175 261 0
-64 106 -280 0
84 159 193 0
-204 217 -38 0
-10 -131 221 0
184 -215 197 0
193 -52 118 0
-252 2 213 0
-144 -154 -150 0
-255 267 270 0
-156 -77 136 0
-153 41 -254 0
240 70 152 0
-23 -129 -264 0
-16 -25 -17 0
52 22 -209 0
-102 27 -28 0
-96 262 125 0
195 -241 -240 0
174 142 -91 0
50 98 -43 0
138 254 93 0
88 158 -113 0
108 80 -33 0
-2 99 91 0
-182 -211 7 0
158 92 119 0
233 -147 -232 0
110 100 97 0
-44 -237 -210 0
246 232 235 0
43 200 -11 0
-11 -48 7 0
85 2 247 0
-130 221 -27 0
-40 259 125 0
76 -265 123 0
-223 -265 -2 0
256 -105 -22 0
-278 90 -217 0
8 281 -268 0
-59 -62 267 0
88 81 273 0
88 161 56 0
106 -13 208 0
-201 -73 231 0
190 -131 -242 0
220 -53 213 0
-219 -105 -133 0
45 -108 -47 0
-102 2 -92 0
-95 -285 -193 0
242 204 -173 0
-41 -56 221 0
186 61 -71 0
-233 -207 -171 0
-191 -23 -34 0
-161 -245 -242 0
-281 19 49 0
117 164 263 0
-128 -173 -29 0
238 -210 -119 0
59 -190 -220 0
-143 -112 121 0
-100 -99 87 0
-231 57 96 0
-102 -237 241 0
86 -8 -88 0
-239 187 58 0
226 -76 121 0
128 203 -37 0
233 101 31 0
112 262 -5 0
245 251 139 0
276 -78 -51 0
-165 272 250 0
40 -15 -113 0
66 96 -234 0
-167 -250 25 0
-231 -2 -148 0
242 95 97 0
-12 164 -118 0
-3 56 -24 0
139 -41 84 0
118 255 247 0
7 16 -279 0
182 234 -224 0
42 -121 -265 0
-21 265 -182 0
105 -264 254 0
153 173 -81 0
226 -274 73 0
-150 -206 96 0
16 204 -73 0
20 -202 -218 0
159 43 42 0
-163 42 -110 0
54 -56 -136 0
-121 -285 -126 0
284 -134 86 0
80 61 -135 0
78 -200 -277 0
74 154 -184 0
80 21 -26 0
269 40 -107 0
-69 -221 -184 0
3 -122 -229 0
199 -7 -242 0
243 -37 -266 0
262 -245 -261 0
90 57 262 0
208 61 239 0
226 -229 -212 0
-140 -110 -253 0
183 -244 167 0
39 -264 185 0
206 -157 31 0
78 -240 -128 0
144 -183 51 0
-156 236 182 0
86 -92 -77 0
-118 285 -83 0
-223 -199 246 0
206 -42 129 0
117 53 219 0
10 -6 208 0
146 -191 -238 0
246 167 283 0
-72 32 -143 0
217 -48 -92 0
228 38 -106 0
-65 -200 227 0
20 -170 97 0
-81 49 -258 0
253 -223 -45 0
-109 170 -98 0
-37 49 197 0
-148 -14 203 0
-205 98 122 0
238 208 285 0
-215 35 -125 0
-262 9 170 0
99 178 -27 0
154 -80 216 0
138 -164 174 0
-265 -91 28 0
-47 -120 18 0
-202 220 -43 0
111 -158 -101 0
236 -51 -68 0
-94 -73 126 0
-15 261 134 0
-276 -68 285 0
32 -16 28 0
281 -2 227 0
-138 161 -47 0
174 -144 -243 0
-196 232 95 0
121 -27 -14 0
174 -60 -261 0
91 113 255 0
5 116 -31 0
-78 -38 80 0
-144 -277 -260 0
136 17 164 0
113 -20 69 0
275 200 112 0
-64 -40 -170 0
182 256 -125 0
215 11 48 0
264 239 -208 0
-222 152 197 0
-242 -245 254 0
236 44 -80 0
12 -189 -260 0
-77 -79 -226 0
-165 80 53 0
167 88 -141 0
-259 7 206 0
198 -63 11 0
9 275 -243 0
133 167 -103 0
175 132 -157 0
-107 9 42 0
-98 254 208 0
143 225 247 0
264 182 87 0
-274 24 -87 0
-192 121 62 0
153 274 281 0
-71 85 -204 0
-20 -273 38 0
93 247 241 0
95 -80 9 0
-29 -7 134 0
-10 220 150 0
266 -140 205 0
-242 -235 233 0
43 158 -36 0
32 -221 -23 0
-145 -55 8 0
-20 -18 231 0
7 -39 -184 0
-165 214 -23 0
-54 -1 240 0
-265 228 -214 0
-63 217 187 0
187 -142 -232 0
-131 70 -263 0
255 -264 -261 0
-17 173 63 0
86 244 -228 0
106 -95 200 0
217 -196 -232 0
-222 252 2 0
171 262 125 0
256 252 114 0
15 168 223 0
44 -227 -139 0
86 -243 241 0
238 106 242 0
-195 -86 196 0
-61 262 -224 0
141 256 168 0
-170 75 182 0
-162 -188 98 0
-34 98 -160 0
-9 -225 -19 0
-229 -82 224 0
-152 182 -266 0
244 122 -176 0
-135 -20 152 0
-37 -203 -185 0
123 77 50 0
35 -66 -57 0
-153 27 260 0
111 155 161 0
151 5 67 0
86 179 -157 0
-79 264 -102 0
-189 -11 -280 0
-154 180 -140 0
-259 -136 281 0
-241 96 -235 0
-171 172 209 0
-176 -205 -5 0
94 -92 255 0
237 -241 -225 0
-146 15 257 0
-282 73 -261 0
-104 -204 69 0
-200 -73 148 0
-134 244 -136 0
210 147 95 0
44 -92 167 0
-177 -84 -222 0
67 178 -169 0
-141 172 -213 0
119 115 -60 0
156 -284 247 0
-230 22 142 0
-141 -182 -248 0
244 -12 -243 0
-155 -29 -163 0
-175 -81 103 0
-85 -200 62 0
267 -65 39 0
57 -220 -115 0
-206 -92 238 0
16 -49 47 0
-94 -232 -276 0
88 -12 -189 0
232 -87 155 0
-277 -218 -107 0
61 -276 25 0
46 -216 175 0
-61 106 257 0
-162 -80 235 0
254 -125 256 0
71 -149 -82 0
25 179 -155 0
-253 -168 -155 0
223 19 -175 0
6 64 -196 0
226 141 -137 0
191 270 101 0
-94 -192 -31 0
-162 133 172 0
-155 -165 72 0
22 233 -113 0
-197 -89 -240 0
-230 -52 -101 0
180 -160 -28 0
198 80 45 0
257 236 -232 0
105 180 260 0
-54 -27 123 0
107 10 -59 0
-233 -40 73 0
-122 81 67 0
104 153 -265 0
94 74 -156 0
-170 199 107 0
-47 -185 -280 0
-138 -144 -58 0
149 81 -146 0
174 189 105 0
208 276 242 0
-113 128 -208 0
182 -86 -68 0
-36 243 80 0
221 168 170 0
226 -215 -126 0
281 110 -230 0
46 94 41 0
-134 -243 164 0
8 -213 -144 0
-248 -11 -166 0
-210 -226 174 0
208 13 60 0
131 -157 169 0
-55 -190 90 0
242 140 -143 0
-162 -55 181 0
226 -1 -93 0
-230 -183 -95 0
77 127 228 0
-177 -148 64 0
41 -212 -94 0
8 51 -212 0
-70 108 181 0
68 64 -81 0
-239 -67 -54 0
54 171 84 0
-108 -243 41 0
38 -102 271 0
168 174 230 0
219 -99 238 0
-18 -13 178 0
-81 4 128 0
-196 -121 230 0
100 170 29 0
97 -176 -117 0
-102 43 240 0
78 8 -201 0
203 -86 -227 0
-67 -11 -2 0
-56 141 -2 0
251 48 -226 0
-119 -221 109 0
141 -232 -106 0
30 82 -109 0
90 8 -145 0
-270 87 -7 0
-7 -212 63 0
52 50 -192 0
-163 -262 35 0
-260 159 -227 0
244 -166 -49 0
-220 -256 -262 0
7 234 -118 0
-109 -239 -100 0
-52 79 34 0
79 -205 128 0
-83 88 -15 0
-268 272 108 0
-2 267 84 0
210 -77 168 0
-167 -197 120 0
-238 181 -75 0
-1 150 -248 0
-91 211 -41 0
81 254 -167 0
-202 256 -261 0
-269 -2 -73 0
