p cnf 285 1214
-104 81 154 0
58 -113 104 0
190 -18 28 0
4 56 87 0
-247 -239 201 0
118 -266 -265 0
-141 -265 173 0
-2 134 225 0
-52 -233 207 0
205 281 165 0
129 71 -242 0
212 172 98 0
141 -279 187 0
-96 -270 -27 0
-91 -282 -26 0
-109 240 -258 0
-6 -146 189 0
114 -271 -173 0
47 -279 -181 0
-108 -237 -19 0
-79 -102 -24 0
179 -80 162 0
-198 -149 31 0
-156 -100 258 0
-76 127 220 0
-153 -258 231 0
-248 130 119 0
257 276 -27 0
-172 -155 123 0
-215 212 -226 0
107 184 131 0
280 -278 -275 0
-255 106 -84 0
-158 172 109 0
-88 207 243 0
260 -154 275 0
37 -188 -51 0
128 -16 -25 0
-236 208 -63 0
3 192 -283 0
54 69 -68 0
8 239 -52 0
-235 -218 -228 0
-133 -274 135 0
-257 169 152 0
-114 46 27 0
215 213 -282 0
154 231 146 0
116 214 266 0
131 237 -179 0
-173 123 254 0
160 70 -252 0
-169 -57 -28 0
-260 71 -76 0
-162 256 -120 0
-52 49 -120 0
264 -270 -147 0
274 156 19 0
32 -232 139 0
-251 -159 -37 0
63 26 152 0
-14 128 142 0
151 184 160 0
221 -275 137 0
-228 -190 -159 0
-117 -47 230 0
-247 -159 228 0
43 -198 -131 0
149 160 109 0
211 -17 -23 0
259 248 -254 0
97 100 -34 0
193 -162 -21 0
158 -112 -13 0
46 221 -262 0
-145 -123 -69 0
-179 -276 -124 0
127 232 218 0
-21 100 217 0
-63 203 94 0
-75 239 -238 0
120 -180 -282 0
184 -260 -198 0
-198 48 168 0
143 -250 51 0
-18 -23 -177 0
130 259 -84 0
-280 -210 -41 0
247 265 -182 0
214 -20 -109 0
134 -222 204 0
198 25 62 0
262 -194 69 0
254 -226 257 0
-56 -169 152 0
-49 -148 -214 0
31 -71 -66 0
151 271 -278 0
68 208 46 0
10 218 -182 0
41 -184 -175 0
-249 50 -70 0
204 100 186 0
178 -39 -1 0
-277 201 208 0
221 -26 -145 0
35 -193 -5 0
126 -35 -85 0
-225 2 105 0
243 -234 -177 0
199 152 -236 0
172 75 -79 0
20 -281 -214 0
176 -57 -235 0
-124 104 87 0
-275 -106 -147 0
25 17 109 0
-212 65 -170 0
-57 209 -189 0
-122 -285 172 0
-131 227 37 0
101 138 -45 0
-94 -161 195 0
-267 -10 -256 0
-4 73 28 0
-246 136 204 0
-96 -89 281 0
-64 75 -153 0
247 219 -278 0
103 22 -37 0
-214 -97 191 0
-190 125 171 0
-6 176 -55 0
45 75 264 0
-264 -70 -17 0
173 136 -181 0
-30 248 -186 0
230 52 147 0
-7 143 -27 0
-39 -210 258 0
-197 -204 215 0
-159 -205 -39 0
126 -252 32 0
218 -281 43 0
58 -112 94 0
-18 116 193 0
-285 49 -34 0
84 -261 190 0
-172 139 -50 0
205 208 -78 0
88 24 136 0
-260 -146 52 0
-104 188 -240 0
-166 24 230 0
-38 -135 113 0
-36 -189 254 0
137 245 68 0
-210 283 -233 0
-132 -238 -75 0
78 -69 123 0
-133 -275 47 0
59 267 -14 0
-283 -41 188 0
174 2 -201 0
282 -204 3 0
16 116 -87 0
-104 207 -138 0
64 -99 -47 0
-4 191 -45 0
-75 77 -142 0
279 216 12 0
-274 200 209 0
242 15 -243 0
-26 -91 157 0
-283 282 221 0
-40 -140 16 0
-48 228 111 0
-232 134 -152 0
-39 -59 -252 0
239 83 -252 0
-29 -214 -155 0
-164 -140 -26 0
164 200 44 0
90 171 43 0
-106 45 154 0
139 117 223 0
17 12 -96 0
70 -176 256 0
185 68 -189 0
-93 56 133 0
-274 25 -13 0
195 215 -178 0
-42 -98 -25 0
-277 243 -102 0
-206 211 -169 0
171 84 -41 0
46 131 214 0
261 -82 -127 0
-219 179 186 0
24 -20 -93 0
-220 -3 135 0
234 -242 282 0
284 -119 -26 0
-8 105 2 0
276 76 -125 0
-14 115 -7 0
33 199 -281 0
-21 -38 -277 0
-49 -199 123 0
-205 57 -269 0
39 -187 70 0
-83 -94 84 0
-266 243 -95 0
-11 -163 88 0
85 -277 238 0
1 -259 44 0
-201 -133 91 0
-104 -32 -199 0
204 -170 160 0
238 129 -247 0
28 145 -94 0
22 -79 -143 0
-56 -3 117 0
-4 -157 48 0
-161 -57 189 0
22 -120 55 0
144 44 -281 0
11 -60 -17 0
272 -38 70 0
-249 237 82 0
-51 41 -37 0
-159 -232 -37 0
-109 63 267 0
93 -33 46 0
285 -277 51 0
102 -262 103 0
146 -90 135 0
-15 170 76 0
-125 -18 -285 0
-122 91 -227 0
82 58 -215 0
-242 -158 -175 0
237 -81 108 0
155 -174 105 0
68 170 -11 0
-168 -180 155 0
-110 -138 259 0
16 78 -132 0
-139 167 -96 0
-23 -3 -270 0
265 33 267 0
-19 -275 147 0
-51 237 165 0
-230 -174 91 0
103 44 -194 0
121 -98 267 0
-267 59 -211 0
69 -125 8 0
-48 -3 -5 0
-158 -264 281 0
61 116 164 0
-18 262 146 0
-252 -239 -183 0
-88 -225 226 0
-98 124 -219 0
-277 -10 155 0
-26 227 -89 0
-189 61 251 0
-34 40 57 0
48 150 200 0
90 243 -54 0
-100 180 -101 0
-11 238 151 0
-62 -169 256 0
-217 -25 112 0
-145 -163 -256 0
-141 241 -121 0
-218 -146 163 0
-285 194 209 0
-85 263 -196 0
-221 -156 31 0
68 22 235 0
-181 -201 165 0
-182 34 11 0
114 38 -43 0
126 -212 157 0
115 284 -175 0
-240 187 -45 0
124 175 73 0
68 153 -269 0
-244 -62 -256 0
191 39 4 0
-186 -169 -175 0
-170 219 278 0
62 -17 -261 0
-111 63 -93 0
77 -252 95 0
-30 35 207 0
-171 -42 -278 0
-239 74 117 0
174 275 25 0
6 -269 107 0
-111 130 233 0
259 -147 -41 0
-263 -238 103 0
87 174 -190 0
8 -194 57 0
185 -252 -69 0
-164 284 -81 0
142 -130 -229 0
-67 -66 266 0
-134 18 -30 0
-160 19 -17 0
273 -280 173 0
-23 -144 100 0
63 -19 234 0
-15 -241 -109 0
47 144 -71 0
34 -118 -260 0
223 -259 -24 0
66 -54 -106 0
273 -240 235 0
104 -277 -167 0
50 197 75 0
90 -55 24 0
69 11 -33 0
216 125 -187 0
267 144 111 0
-225 54 75 0
-140 -4 54 0
-228 84 -164 0
210 261 -205 0
-91 -22 -65 0
42 -199 -144 0
281 177 -260 0
163 279 41 0
-220 103 150 0
65 -282 33 0
4 -39 -230 0
85 271 263 0
-283 -130 38 0
-237 252 -128 0
87 -121 274 0
14 241 266 0
156 -274 221 0
-34 188 83 0
-209 138 244 0
-148 -44 102 0
-166 27 -223 0
113 -70 160 0
-179 45 256 0
-20 41 63 0
-214 151 7 0
262 269 -169 0
205 -56 99 0
171 -94 207 0
282 -34 208 0
-117 25 200 0
-168 -211 -273 0
-75 -247 20 0
86 171 129 0
126 277 -193 0
152 -210 -122 0
248 -12 -81 0
-272 -86 -81 0
196 139 -263 0
-169 23 -49 0
-199 175 -205 0
-102 8 -68 0
-88 247 -258 0
57 -215 -100 0
-202 -90 248 0
263 -202 6 0
140 186 30 0
-223 88 138 0
110 212 264 0
95 177 -167 0
95 213 -184 0
-7 200 233 0
93 -49 78 0
101 -185 58 0
235 -64 231 0
14 108 137 0
-147 57 -232 0
98 -72 -15 0
120 -196 193 0
232 -156 143 0
41 278 -202 0
-142 186 -109 0
-67 -131 280 0
213 255 164 0
223 47 225 0
197 -278 183 0
-224 278 -270 0
275 -111 -263 0
-120 182 221 0
-56 276 69 0
11 9 -253 0
84 -151 48 0
177 102 152 0
214 201 20 0
-203 26 -129 0
-32 -237 -126 0
-33 188 7 0
-91 -174 182 0
100 -61 -10 0
267 -25 -44 0
30 -272 -154 0
108 259 -221 0
-226 -153 106 0
245 -54 4 0
195 -279 167 0
34 231 -101 0
70 66 157 0
-228 -19 -230 0
-144 -275 -166 0
129 -21 244 0
-27 -10 205 0
-26 56 -139 0
-224 -88 -46 0
-78 -210 74 0
54 -144 22 0
61 206 -148 0
98 73 266 0
-71 -100 214 0
17 92 148 0
285 39 -35 0
-16 70 74 0
-74 -113 -243 0
-260 -251 -206 0
-54 -12 22 0
-111 17 -189 0
44 242 -103 0
-156 264 -44 0
-170 -220 60 0
-23 -194 2 0
134 -273 -145 0
-225 285 71 0
261 189 -241 0
-194 174 -89 0
-251 50 -153 0
156 242 -19 0
-134 -144 -131 0
-154 251 -27 0
-80 -128 -243 0
-274 66 102 0
-25 21 -179 0
62 -221 -23 0
-271 -76 188 0
-164 249 1 0
245 254 258 0
186 139 210 0
265 93 -264 0
-255 122 -251 0
-277 -257 11 0
-85 44 54 0
-256 -217 163 0
215 -135 -165 0
-56 -157 120 0
264 174 -128 0
216 219 117 0
-23 -101 -187 0
57 73 262 0
230 -181 264 0
-105 -213 -255 0
113 -237 -104 0
-239 31 213 0
-158 237 141 0
-164 -91 -35 0
102 -176 231 0
131 195 133 0
11 210 3 0
-145 19 -114 0
99 -17 123 0
-273 -232 238 0
-116 244 130 0
242 -240 -48 0
39 -153 -159 0
-177 128 -13 0
-52 211 201 0
-52 -72 44 0
163 92 47 0
4 -267 -153 0
189 -252 -13 0
38 62 106 0
-235 29 25 0
-137 -152 99 0
-43 199 -68 0
280 -143 -125 0
71 168 244 0
-237 -31 -55 0
202 216 -210 0
-46 -196 266 0
57 -254 275 0
-186 -36 -81 0
191 -103 164 0
-220 -74 -40 0
140 30 -90 0
-5 38 21 0
-173 191 -157 0
-232 -281 -78 0
209 -150 93 0
-170 184 -93 0
38 -54 -181 0
88 -108 -228 0
188 -217 252 0
18 112 55 0
-221 -171 -25 0
-198 193 -90 0
-179 -90 281 0
167 274 -94 0
159 -82 -253 0
137 263 157 0
263 86 200 0
92 144 -241 0
265 98 -253 0
-120 -281 -187 0
-174 -170 184 0
-222 -78 -103 0
-245 -167 87 0
227 -281 260 0
154 229 117 0
-170 16 72 0
279 -40 -106 0
-225 197 -166 0
-285 174 -253 0
-145 170 11 0
-130 -7 -209 0
-45 -111 -170 0
-48 -282 192 0
158 172 20 0
-150 171 251 0
-212 173 266 0
71 -268 -103 0
56 -94 -21 0
-278 -75 -25 0
37 -281 -167 0
-277 -6 204 0
16 -259 -275 0
80 -17 153 0
265 -43 34 0
248 182 155 0
58 175 -20 0
-238 -114 -164 0
-175 262 79 0
240 -145 -219 0
238 -55 -214 0
-42 72 -226 0
-29 128 -151 0
-40 -125 -234 0
44 271 -253 0
-279 -235 -243 0
107 28 184 0
-283 -127 276 0
93 281 180 0
66 113 5 0
271 146 118 0
19 285 148 0
-249 -256 33 0
-42 -157 258 0
34 249 -145 0
-53 49 235 0
-105 111 -170 0
-168 -85 -121 0
-236 -164 24 0
-263 -100 88 0
66 -251 41 0
-143 -202 -245 0
-160 189 46 0
267 104 -12 0
-117 -29 -132 0
162 -265 227 0
-1 42 -124 0
148 -18 -263 0
-247 -126 -284 0
-237 -219 -164 0
229 -243 162 0
198 152 -170 0
-191 -148 176 0
-149 248 50 0
-134 -7 207 0
-220 -62 99 0
-25 -42 19 0
198 -91 176 0
-104 55 171 0
39 27 125 0
-145 -185 -157 0
50 2 -129 0
143 -241 -186 0
15 8 -91 0
206 3 -27 0
-157 -226 -174 0
-70 -141 -280 0
-194 -271 252 0
3 -40 -105 0
67 110 118 0
-127 -203 -88 0
136 -36 -194 0
-93 190 96 0
-267 36 -37 0
191 -238 -117 0
78 -218 21 0
-274 -7 -202 0
49 59 -283 0
-163 164 -159 0
142 -182 -281 0
91 -141 217 0
194 -274 -116 0
-102 210 105 0
262 -48 -278 0
267 -282 2 0
-204 -168 -148 0
-238 125 44 0
70 -167 234 0
-28 -90 126 0
104 -78 9 0
181 160 148 0
266 -258 104 0
172 128 -234 0
-248 -23 97 0
-82 188 142 0
195 35 -159 0
-251 -172 -196 0
-106 149 -176 0
196 155 185 0
-137 86 37 0
-175 272 -31 0
-19 174 -135 0
189 -11 -209 0
246 2 121 0
-79 -201 268 0
-259 262 -271 0
-137 152 236 0
222 191 -90 0
194 217 175 0
252 -232 177 0
206 -59 6 0
-136 43 -269 0
-10 210 -109 0
-38 104 -192 0
-8 -223 241 0
-193 -167 48 0
-275 226 -139 0
-171 275 -157 0
-46 130 -97 0
5 202 194 0
224 -276 -55 0
125 186 -10 0
-240 161 110 0
-274 73 258 0
-174 67 -16 0
-257 -137 -143 0
-144 224 -71 0
48 -243 -39 0
-100 -112 -115 0
-76 -47 277 0
21 120 -154 0
171 146 232 0
-31 -230 -11 0
278 -53 124 0
56 273 107 0
80 -260 27 0
-165 105 -70 0
77 -233 239 0
95 42 -236 0
-130 -222 -202 0
154 106 177 0
-276 -274 -27 0
239 -258 -49 0
154 150 37 0
150 255 216 0
-219 -188 184 0
145 20 32 0
224 -29 -245 0
-39 205 266 0
84 104 22 0
-157 -12 -38 0
138 -174 -236 0
46 182 -87 0
-275 94 107 0
-92 -132 189 0
-68 -181 -260 0
270 -71 98 0
-211 -135 -152 0
185 -282 225 0
-82 -263 -115 0
-2 -142 133 0
-173 217 234 0
167 48 -130 0
-45 280 -242 0
269 -181 -95 0
-120 44 5 0
162 -87 -144 0
-202 257 -113 0
123 -128 -280 0
144 207 -16 0
-61 212 -254 0
127 141 -247 0
253 43 32 0
284 -235 -124 0
195 -209 -227 0
-284 224 123 0
178 157 189 0
-206 -273 217 0
9 -138 -173 0
-177 175 -219 0
253 88 221 0
-137 206 273 0
269 -259 272 0
-166 -172 -243 0
142 -125 -177 0
109 100 138 0
31 92 -153 0
230 -59 -258 0
125 10 139 0
99 75 -91 0
-54 -178 12 0
-151 -29 -77 0
160 69 -10 0
117 16 -277 0
-27 177 281 0
43 -256 194 0
-135 70 -115 0
-128 284 -156 0
202 220 212 0
252 235 145 0
51 118 72 0
-281 139 -225 0
142 -223 225 0
210 164 224 0
183 71 190 0
-225 166 -17 0
266 -40 214 0
-147 16 -136 0
150 -105 104 0
216 -112 -95 0
150 -103 -74 0
-158 136 -167 0
-112 263 -88 0
-238 245 32 0
185 200 -229 0
154 108 -270 0
-186 -197 -93 0
-191 153 -34 0
-254 -283 28 0
157 -278 5 0
187 -272 -177 0
-108 -254 183 0
239 -141 19 0
253 -51 -16 0
121 174 64 0
-173 -43 -221 0
73 87 245 0
172 -218 144 0
37 282 -153 0
255 -88 -106 0
4 196 -165 0
-204 12 -127 0
284 63 -129 0
274 -178 -45 0
251 -144 -88 0
-229 -234 22 0
70 125 -234 0
-85 -71 -221 0
-272 264 -136 0
-102 -276 -50 0
-256 275 -124 0
-33 119 142 0
107 22 -232 0
48 -129 11 0
242 -70 200 0
180 4 175 0
-206 -169 259 0
-207 5 -154 0
195 201 142 0
-66 260 232 0
-216 185 128 0
-164 42 237 0
-184 102 -191 0
239 68 -197 0
-46 220 -106 0
-213 -249 46 0
45 60 -78 0
276 -141 -28 0
24 -29 -247 0
189 198 261 0
86 -5 47 0
145 -139 -108 0
-69 -184 -261 0
-250 279 -229 0
-80 60 -74 0
141 -280 235 0
-100 141 -234 0
285 -140 -276 0
280 169 -178 0
153 37 -144 0
-12 241 128 0
-256 -112 21 0
-104 285 16 0
176 248 34 0
-151 64 -245 0
214 -261 170 0
4 80 -131 0
-273 -179 -61 0
94 172 -69 0
-249 230 186 0
223 -141 24 0
133 260 -19 0
265 160 205 0
-110 -53 170 0
-227 198 -56 0
53 -113 -78 0
148 172 137 0
165 -83 144 0
149 -70 171 0
280 32 3 0
74 150 122 0
107 151 -16 0
16 22 249 0
-8 -93 -123 0
-185 -48 -210 0
-18 -259 206 0
-177 231 -69 0
181 153 -152 0
-23 191 16 0
224 -272 68 0
189 -241 142 0
3 -157 258 0
-250 -229 185 0
-52 275 37 0
-221 -246 243 0
-13 204 189 0
-120 228 51 0
24 34 -115 0
4 -149 195 0
-186 -57 20 0
272 -199 184 0
170 -189 163 0
-211 207 -14 0
174 -151 179 0
-91 -199 -58 0
-135 -192 -207 0
-246 -12 236 0
127 89 209 0
-17 253 -49 0
32 -269 191 0
-230 -229 260 0
-125 -29 167 0
36 176 -100 0
-279 264 170 0
88 7 -127 0
148 -224 171 0
265 -68 -241 0
-258 -22 -9 0
-233 -101 -43 0
-265 285 -205 0
192 176 -110 0
-96 -143 -270 0
8 53 76 0
-238 29 39 0
250 -109 10 0
-266 -136 -254 0
92 -191 148 0
-44 -242 -77 0
212 -163 -87 0
204 1 279 0
66 -233 250 0
-26 -246 63 0
5 -36 -108 0
-252 271 164 0
-186 -18 -53 0
-140 19 259 0
-94 54 -255 0
-28 -99 -229 0
28 -205 15 0
-186 -24 19 0
109 132 -41 0
-116 -66 71 0
146 44 -6 0
-93 196 -6 0
-11 115 -193 0
-155 112 105 0
66 -121 -220 0
200 259 248 0
75 172 33 0
81 -272 -253 0
200 -96 84 0
31 -234 22 0
274 -135 -59 0
-115 -44 133 0
281 232 -215 0
-234 -167 8 0
220 -241 182 0
-177 -151 -129 0
133 120 231 0
-87 272 -93 0
151 196 66 0
142 147 2 0
-123 113 62 0
108 142 -215 0
157 -81 10 0
24 39 213 0
-170 -69 -62 0
45 221 228 0
160 193 -126 0
-209 -79 -256 0
138 -181 143 0
-151 -57 152 0
-109 46 -233 0
202 111 -240 0
-114 -283 -112 0
119 212 -199 0
108 237 87 0
-221 -154 -217 0
-197 249 84 0
-207 33 151 0
256 279 -111 0
-234 168 -6 0
-104 -225 -182 0
-125 -253 -272 0
-257 39 156 0
144 -265 -107 0
61 203 34 0
-101 -147 12 0
251 120 -48 0
-217 -139 -83 0
-22 237 99 0
16 -220 -63 0
-268 143 -6 0
-235 -89 53 0
77 149 279 0
8 200 -74 0
99 -2 -79 0
-237 217 -281 0
-137 211 205 0
-58 31 -118 0
218 181 99 0
-224 31 96 0
-129 71 70 0
278 6 -161 0
108 -280 210 0
-146 211 -193 0
143 -232 28 0
254 -114 69 0
-218 -246 -265 0
-223 -278 52 0
-188 -141 171 0
-222 -281 70 0
92 104 118 0
-34 -28 -100 0
-285 -92 79 0
177 -142 159 0
-146 -178 -189 0
265 -211 -33 0
-12 244 -78 0
37 -110 176 0
248 110 132 0
70 -284 -66 0
-72 43 212 0
176 -135 212 0
67 -260 -238 0
2 -136 24 0
32 -138 -73 0
143 215 52 0
-196 -22 243 0
113 -138 93 0
232 -86 -194 0
-230 165 -163 0
-222 -58 224 0
-254 276 219 0
210 -115 224 0
34 218 -37 0
138 261 28 0
-169 -78 -4 0
255 -79 -128 0
1 80 264 0
16 45 205 0
284 -168 -34 0
-162 241 -195 0
126 -95 -258 0
173 133 -117 0
248 -136 -207 0
117 198 -159 0
161 85 31 0
263 -126 213 0
-115 152 157 0
197 -282 227 0
149 -285 29 0
-203 261 278 0
-164 -211 -76 0
-125 76 112 0
61 -144 153 0
-2 -80 212 0
283 194 266 0
60 209 -132 0
173 20 -204 0
209 251 -164 0
-111 246 -219 0
3 -285 242 0
-119 -116 -85 0
25 -202 -157 0
133 8 90 0
63 -207 -12 0
220 108 185 0
-136 -121 278 0
92 -261 145 0
272 -265 -139 0
-80 -260 -15 0
-1 188 189 0
278 183 129 0
-17 241 156 0
-131 -92 -272 0
-70 17 -114 0
41 -110 6 0
-230 -185 -201 0
161 -26 -10 0
100 -36 155 0
263 172 -217 0
-279 89 -20 0
106 -267 -73 0
88 237 108 0
-35 -190 -213 0
-59 -254 -205 0
111 -121 -236 0
262 -25 -277 0
183 282 -244 0
-236 -60 247 0
43 -264 243 0
-188 -230 -198 0
77 159 -275 0
-139 32 -186 0
-14 -177 93 0
24 223 -175 0
157 167 282 0
-248 14 -62 0
276 -87 69 0
-189 199 -20 0
-2 -66 69 0
110 -30 200 0
-84 226 251 0
261 -262 24 0
-263 -19 -216 0
-47 120 -5 0
-187 -220 -284 0
223 -257 -267 0
-4 -131 93 0
209 -129 -12 0
-99 273 -269 0
-219 72 237 0
72 189 177 0
72 -34 36 0
88 -267 -29 0
-116 67 -72 0
-235 129 -40 0
5 153 -127 0
243 23 -94 0
-163 27 90 0
267 187 -116 0
-56 -135 -123 0
132 -245 -273 0
-266 -153 -15 0
151 -183 -208 0
-262 3 -217 0
-190 15 178 0
95 231 197 0
147 -261 -242 0
119 245 -42 0
-279 85 -114 0
200 56 -267 0
259 -279 61 0
109 -139 124 0
283 -190 -175 0
269 251 239 0
113 132 -241 0
184 -232 30 0
-244 245 -100 0
179 -104 -37 0
-121 111 -219 0
-261 -44 -149 0
255 262 245 0
145 -194 49 0
-156 165 225 0
-30 68 -243 0
246 118 -279 0
175 204 -44 0
-72 -117 76 0
95 232 -49 0
72 36 -35 0
3 281 -149 0
-126 -122 -101 0
-72 -214 260 0
175 -211 202 0
14 266 129 0
249 124 95 0
-37 175 42 0
-6 143 41 0
251 -153 -103 0
-228 -186 178 0
-63 182 -198 0
166 19 -278 0
52 -268 -143 0
-86 -20 -150 0
-33 177 218 0
-181 -205 -152 0
-145 -66 17 0
93 23 1 0
201 -22 -68 0
-227 -171 233 0
-257 210 -264 0
-76 -208 -38 0
-138 233 -227 0
-160 276 -169 0
118 -58 127 0
43 -70 126 0
-96 -246 -89 0
-144 -46 -104 0
-202 -209 -213 0
281 -10 151 0
-187 -101 -189 0
285 -6 88 0
131 -109 -179 0
249 -229 -276 0
-205 -37 247 0
-239 94 26 0
246 -76 273 0
146 -185 179 0
-23 283 187 0
150 238 -193 0
271 245 -113 0
-45 128 11 0
-89 -5 -151 0
-114 139 -242 0
-33 3 -156 0
224 -44 -111 0
6 -70 -74 0
-181 281 -93 0
174 -96 198 0
109 33 6 0
-248 280 -28 0
33 -247 -38 0
205 -25 -131 0
227 89 4 0
58 211 -182 0
281 -117 -128 0
-125 -79 -133 0
219 -31 241 0
152 90 187 0
-132 -117 229 0
65 -223 258 0
-135 -21 208 0
28 176 177 0
184 201 124 0
-33 102 -125 0
268 162 -208 0
32 178 195 0
-233 104 199 0
-67 218 8 0
-112 -92 138 0
-168 174 -154 0
-167 165 -106 0
130 -230 -24 0
140 -17 120 0
-31 216 -25 0
233 -189 -62 0
221 -220 -59 0
36 89 -69 0
78 -155 54 0
-35 219 157 0
12 -31 49 0
-212 -213 -29 0
-84 233 -77 0
55 -36 23 0
139 241 168 0
201 -245 23 0
162 66 148 0
80 -91 133 0
139 183 168 0
-130 -265 178 0
-181 -157 186 0
-144 98 110 0
180 97 -219 0
-215 166 193 0
-34 41 157 0
-251 -214 -28 0
155 -202 -27 0
-169 120 110 0
174 -3 149 0
193 -65 -282 0
-151 -191 203 0
133 -43 -20 0
-121 230 -48 0
134 -136 173 0
5 -234 -230 0
73 -55 -138 0
-200 -148 -52 0
-275 26 197 0
57 -115 60 0
-33 -23 -176 0
77 214 271 0
-241 -221 274 0
-180 14 -247 0
122 -223 77 0
21 97 -252 0
122 285 -84 0
111 -47 -179 0
191 -224 -1 0
-59 -246 218 0
176 -74 279 0
220 -144 216 0
-20 82 -142 0
120 198 259 0
-255 -268 9 0
201 127 260 0
-209 -284 263 0
