p cnf 285 1214
-103 185 -130 0
151 -10 -109 0
178 -204 266 0
-150 -145 -20 0
-284 -164 -135 0
189 -69 57 0
143 -109 195 0
-81 -153 -166 0
96 -269 235 0
226 33 106 0
-114 -18 274 0
70 129 46 0
-229 -251 -256 0
-48 -278 -272 0
-238 102 -215 0
-259 136 -1 0
-133 207 107 0
233 -98 -168 0
-237 -52 231 0
203 277 -254 0
-9 -141 -45 0
253 72 96 0
11 235 120 0
64 -175 -259 0
-167 -122 -285 0
51 253 261 0
-2 34 252 0
181 -120 64 0
216 -139 -239 0
163 50 -195 0
258 -80 -14 0
48 -44 122 0
-270 205 179 0
-150 -148 256 0
29 -95 30 0
9 -128 204 0
94 243 85 0
-206 274 -30 0
78 -163 41 0
66 -74 257 0
-22 -213 -259 0
-96 -226 142 0
127 -98 176 0
-5 -71 -121 0
30 -67 118 0
-246 255 237 0
101 -236 281 0
186 -229 -2 0
110 -193 123 0
-8 -83 -268 0
-33 -152 -90 0
221 -110 32 0
-140 158 186 0
-113 -284 20 0
-117 -243 20 0
-71 -278 262 0
-282 251 1 0
-281 70 257 0
148 170 -259 0
209 147 -130 0
-218 254 269 0
-251 215 -219 0
-17 -226 48 0
-251 168 278 0
-283 -67 -154 0
-152 174 -25 0
-219 158 270 0
147 41 -53 0
263 136 -103 0
-104 94 -124 0
-196 -77 11 0
-158 -12 -78 0
130 150 -268 0
189 67 123 0
-100 -21 -97 0
40 258 -125 0
-12 -69 242 0
-79 -257 45 0
-13 103 206 0
137 -42 -63 0
-281 -17 278 0
98 -103 9 0
245 -281 -184 0
71 228 -134 0
116 -212 251 0
250 -164 16 0
202 13 140 0
228 -217 120 0
82 267 3 0
81 -191 -92 0
84 243 186 0
-31 194 213 0
-247 93 -232 0
188 235 60 0
-31 214 78 0
-82 207 161 0
111 239 25 0
202 -134 -108 0
265 -212 -101 0
44 65 132 0
-193 -207 -275 0
124 181 -186 0
66 -202 -103 0
228 147 -277 0
-64 -191 118 0
135 -100 71 0
87 -111 -222 0
159 -111 -107 0
44 131 -276 0
120 190 26 0
183 188 -264 0
283 125 -212 0
-226 -192 -203 0
-115 -283 -178 0
111 46 148 0
-168 -163 201 0
-193 -229 -97 0
120 -41 -61 0
-131 -19 -142 0
-57 -254 -226 0
167 -182 83 0
-80 -8 -18 0
279 -164 146 0
2 25 -248 0
54 230 226 0
215 117 -8 0
71 281 236 0
-88 160 135 0
-224 -271 39 0
-151 -159 258 0
7 -257 -40 0
-36 -158 -248 0
118 81 265 0
87 212 173 0
-45 2 36 0
-81 251 -146 0
173 -6 -75 0
102 -257 -180 0
-14 3 -27 0
45 35 -255 0
-211 261 -263 0
-77 13 -144 0
107 -218 141 0
-51 -271 152 0
139 124 -82 0
33 -75 -60 0
174 -164 83 0
33 91 248 0
-210 -181 -18 0
-124 -64 45 0
111 60 21 0
-281 257 -155 0
-193 195 241 0
187 221 -17 0
262 -178 -112 0
-96 262 34 0
-200 -28 -250 0
281 69 47 0
177 169 -218 0
-5 -125 -102 0
205 -75 35 0
-139 -209 158 0
47 196 -39 0
229 -83 34 0
-91 171 -202 0
32 198 268 0
-165 -236 -196 0
-141 208 -165 0
260 12 -7 0
40 -50 -157 0
-268 56 19 0
121 -82 -173 0
281 137 -129 0
-185 249 -191 0
-73 60 153 0
-268 15 -234 0
211 -176 138 0
221 241 -21 0
239 -153 74 0
-277 71 -177 0
33 190 71 0
-173 187 132 0
-283 60 -170 0
142 -53 22 0
-171 -60 223 0
153 -216 9 0
59 -95 -285 0
99 38 -184 0
266 17 261 0
-201 234 -99 0
-216 198 -66 0
63 -93 -35 0
165 -46 -248 0
-30 -24 57 0
-122 176 186 0
-172 50 280 0
-231 202 -257 0
186 -262 211 0
-259 155 191 0
-217 116 48 0
282 183 235 0
272 -173 8 0
247 -188 245 0
-151 -20 172 0
-274 108 -6 0
-19 -38 126 0
73 -160 -125 0
-80 101 -184 0
164 201 -39 0
98 72 5 0
187 -240 -215 0
-228 -206 79 0
-212 93 111 0
230 75 -260 0
72 65 -208 0
-93 -100 263 0
201 20 61 0
-50 -250 -272 0
36 79 -189 0
254 -279 8 0
-190 -86 184 0
-213 -217 -206 0
97 -236 -238 0
141 52 1 0
152 -70 173 0
181 -70 10 0
24 -64 -76 0
35 -87 269 0
-63 10 194 0
152 -245 -238 0
-273 -134 149 0
25 176 144 0
133 -178 -197 0
43 -20 154 0
-107 -119 -55 0
24 85 -87 0
-270 230 -189 0
149 48 51 0
283 -117 77 0
-238 180 95 0
-223 231 37 0
164 147 -10 0
220 -267 237 0
176 -203 142 0
-127 -60 -269 0
-1 136 -31 0
-89 -140 283 0
-28 137 32 0
-35 -12 -30 0
-74 98 101 0
-229 -267 38 0
-66 118 214 0
103 -210 28 0
-257 -64 -225 0
14 -168 94 0
168 71 -254 0
28 -115 116 0
113 -88 -226 0
-242 277 8 0
-1 148 155 0
-186 -39 147 0
-242 -91 107 0
45 173 -178 0
216 10 57 0
212 -102 -26 0
198 -276 116 0
-37 26 168 0
198 32 197 0
-35 -37 -144 0
121 14 87 0
1 -23 236 0
94 255 -33 0
-270 117 -180 0
-71 88 -97 0
-42 -75 115 0
248 152 60 0
90 -58 -166 0
129 -223 229 0
-114 163 84 0
-82 73 47 0
-124 -222 -161 0
48 -140 15 0
-129 -169 131 0
152 -243 -175 0
141 -173 -213 0
205 -42 -2 0
152 -157 38 0
6 211 -97 0
59 72 -12 0
131 -248 125 0
-191 -273 -237 0
84 -72 28 0
-56 -63 171 0
-25 -134 -85 0
108 -248 -245 0
-212 -237 22 0
157 -46 71 0
278 273 -242 0
229 230 -206 0
-160 211 256 0
-99 188 213 0
95 -20 65 0
102 -221 -211 0
40 63 176 0
39 -81 265 0
73 -280 72 0
199 213 100 0
136 -13 -63 0
-10 -269 190 0
100 38 254 0
78 41 272 0
179 -183 77 0
235 4 -219 0
-144 -282 193 0
260 -235 19 0
252 -246 226 0
44 215 -153 0
-71 -38 -242 0
16 55 -157 0
41 273 104 0
-267 38 -179 0
281 -245 228 0
-68 120 -210 0
193 -89 -16 0
-120 268 -102 0
86 156 233 0
230 -162 -155 0
-90 71 147 0
85 -241 185 0
-103 43 142 0
260 -59 35 0
-159 89 126 0
-183 58 273 0
-201 72 -185 0
-259 20 283 0
258 23 78 0
248 75 -256 0
-110 -179 -254 0
-41 54 76 0
-51 190 -113 0
-103 -119 -82 0
104 -255 3 0
262 -4 -189 0
117 -153 -182 0
27 176 -253 0
-87 -73 54 0
270 -127 167 0
183 25 -152 0
36 -108 215 0
162 -285 66 0
-233 181 -180 0
-57 74 -33 0
223 -211 268 0
-69 216 -132 0
-142 -186 205 0
-90 15 136 0
185 -154 124 0
-34 -89 -164 0
-7 70 -77 0
260 -88 -17 0
-250 215 52 0
50 111 -270 0
-45 -159 80 0
-138 238 -80 0
-24 79 -200 0
-161 -130 -38 0
-52 -66 67 0
43 -53 -123 0
28 41 -153 0
-265 272 81 0
-70 137 170 0
204 190 49 0
40 234 102 0
137 253 205 0
-181 171 -230 0
153 -119 -136 0
36 -22 -218 0
-262 89 -124 0
277 148 -22 0
116 -108 137 0
7 -142 -86 0
-16 -184 141 0
-259 -86 -269 0
-177 -18 184 0
-125 -15 64 0
-261 -74 27 0
259 -260 -55 0
-13 -61 -71 0
140 -198 134 0
125 -4 235 0
255 98 -194 0
204 172 -216 0
-3 -156 -137 0
147 -25 270 0
-268 119 -40 0
61 179 -268 0
46 -207 280 0
169 59 -148 0
123 -92 142 0
-74 -80 42 0
-12 -246 -219 0
-52 280 227 0
-257 277 -179 0
127 -57 -86 0
162 -65 -174 0
-146 4 25 0
77 6 192 0
95 118 233 0
129 -25 -30 0
-163 158 178 0
-118 73 104 0
-146 -283 -14 0
-7 -180 -42 0
159 -119 111 0
-200 257 -245 0
146 214 64 0
145 -282 -183 0
-269 46 -90 0
-116 219 218 0
211 -270 85 0
65 -127 171 0
-28 57 -36 0
154 -84 -67 0
-75 153 266 0
51 231 177 0
236 -274 267 0
-195 -111 -12 0
245 -107 191 0
54 94 -77 0
-218 -36 204 0
-159 206 210 0
186 148 271 0
175 86 263 0
-97 -45 285 0
138 234 264 0
-201 255 24 0
-102 18 -200 0
-231 -182 53 0
39 135 61 0
-161 82 -241 0
-189 259 -165 0
24 -104 12 0
128 152 -237 0
-277 263 33 0
194 -201 -245 0
112 176 -13 0
14 73 34 0
27 -273 -242 0
-134 -218 -215 0
-208 -285 -65 0
204 -87 140 0
-181 -133 -195 0
-6 -230 254 0
-104 103 -13 0
-108 -43 88 0
-31 163 35 0
-45 -48 275 0
79 -117 94 0
-212 191 -44 0
-163 -46 -17 0
111 -149 126 0
-37 -49 221 0
-64 -3 -202 0
144 -237 245 0
3 -121 246 0
4 -96 251 0
244 86 -39 0
-162 13 -279 0
-204 -107 -100 0
-141 145 -30 0
124 -160 -221 0
260 7 254 0
-73 -195 -193 0
132 227 53 0
150 179 -66 0
-34 -217 80 0
184 -37 92 0
201 -159 -32 0
8 15 -154 0
-133 203 -70 0
43 -211 78 0
-182 239 -232 0
-244 161 179 0
-85 62 -157 0
35 75 72 0
-258 200 34 0
235 -131 -25 0
111 88 -215 0
163 -168 129 0
-139 186 203 0
93 -29 -197 0
72 2 -76 0
48 -136 -251 0
-184 208 191 0
-146 178 127 0
-262 234 45 0
-86 144 102 0
265 -13 111 0
-279 -87 41 0
34 -228 152 0
-68 -239 -43 0
243 34 -266 0
178 -192 -218 0
108 -120 234 0
-47 79 245 0
232 -249 278 0
193 -145 271 0
231 -274 270 0
186 -217 -200 0
-66 -152 -107 0
-178 217 34 0
191 -53 244 0
244 54 209 0
-90 -190 60 0
-173 266 -267 0
-159 -189 163 0
249 31 195 0
-57 120 -284 0
-26 243 44 0
85 168 -238 0
185 -183 252 0
-96 38 226 0
74 90 236 0
25 -91 -175 0
10 267 -234 0
-47 238 9 0
22 255 -220 0
178 74 -8 0
-34 266 -215 0
257 183 -258 0
178 151 -127 0
-22 -90 -48 0
229 -262 -19 0
239 -18 -267 0
142 -174 -196 0
-126 175 39 0
2 5 -256 0
109 -208 142 0
68 -1 100 0
-224 -138 -20 0
-267 -230 -133 0
205 -157 252 0
49 -116 -275 0
-181 -127 -227 0
227 -236 -40 0
-113 -225 270 0
137 -237 242 0
-119 -153 50 0
-265 19 40 0
183 -185 258 0
-41 124 178 0
8 -159 -204 0
-123 50 -272 0
-48 -255 -208 0
106 120 -101 0
-21 -229 100 0
-229 -208 104 0
150 -208 -119 0
-139 222 -260 0
254 136 -275 0
241 98 -275 0
-174 90 10 0
249 -187 -75 0
-140 -125 179 0
-11 191 103 0
-39 -202 193 0
-26 -246 -68 0
-78 -71 -60 0
283 264 -25 0
171 -272 -273 0
274 -273 216 0
212 161 180 0
104 27 -220 0
-155 31 42 0
-242 -284 -53 0
-241 -136 284 0
219 -227 -72 0
-75 139 -255 0
-179 41 -118 0
130 -69 245 0
175 91 209 0
146 -203 -166 0
227 -54 -110 0
61 11 -15 0
251 167 -83 0
-200 270 7 0
-68 135 -18 0
-170 169 115 0
42 -58 88 0
-128 -259 9 0
67 -248 56 0
244 86 -25 0
-77 61 -281 0
122 217 66 0
276 -49 -152 0
-142 -275 -25 0
-199 190 -140 0
90 68 -153 0
215 238 -49 0
29 -278 75 0
-99 -235 136 0
-141 -42 -198 0
-278 117 131 0
276 -281 259 0
-246 271 -269 0
231 147 113 0
-205 34 118 0
-12 40 -101 0
209 216 -150 0
-280 -246 151 0
279 -217 -239 0
173 227 172 0
-63 21 242 0
136 196 -26 0
201 111 114 0
-19 -8 -57 0
-53 198 83 0
164 135 96 0
154 21 -72 0
-131 180 -1 0
-1 88 -270 0
17 175 269 0
-114 222 -201 0
-271 -98 -211 0
202 119 275 0
116 -102 13 0
-69 -164 216 0
100 174 49 0
86 246 253 0
-124 144 -133 0
-5 -95 282 0
-177 233 96 0
-215 98 47 0
57 228 92 0
-121 20 -278 0
-238 -125 -244 0
-170 160 -21 0
-45 262 252 0
278 -276 -193 0
259 64 -108 0
-142 21 -253 0
-284 115 177 0
-105 86 -29 0
136 279 -83 0
152 -33 154 0
230 23 222 0
2 208 -176 0
-269 -20 -93 0
180 170 -85 0
-11 262 28 0
-19 190 29 0
-65 171 -274 0
-136 -166 24 0
279 -241 -263 0
-213 -63 186 0
-192 10 237 0
198 234 201 0
186 -17 -147 0
-56 41 -82 0
177 -204 -24 0
-235 37 -259 0
-50 72 96 0
211 -28 137 0
150 284 -28 0
38 182 199 0
116 -221 -259 0
-25 -101 -163 0
-141 156 107 0
-55 126 -10 0
144 84 -33 0
-120 116 202 0
86 -31 284 0
-280 14 161 0
163 -185 138 0
176 -166 40 0
-216 170 139 0
-151 -118 -63 0
16 -10 88 0
-182 125 -124 0
59 235 -166 0
172 147 285 0
-130 108 -66 0
-235 173 105 0
165 263 25 0
50 93 245 0
-277 -13 274 0
-181 -261 -19 0
172 -55 137 0
279 -111 57 0
142 -162 -182 0
225 -248 97 0
-156 72 125 0
-72 276 130 0
181 137 -57 0
151 139 -73 0
-201 -128 -159 0
17 110 -23 0
124 71 -50 0
214 -84 187 0
218 37 86 0
44 111 -157 0
192 -45 208 0
-46 139 256 0
-232 -228 -195 0
265 63 45 0
-274 252 -218 0
284 181 53 0
-37 -111 240 0
-15 -167 -283 0
114 123 246 0
154 -119 69 0
68 -236 150 0
275 112 -137 0
228 -9 -240 0
36 -5 176 0
275 108 197 0
-210 -21 -18 0
-134 -255 138 0
145 262 -38 0
-214 -93 -64 0
-52 -258 -106 0
96 175 -30 0
49 -85 -89 0
71 -216 17 0
105 198 1 0
80 -56 200 0
254 232 -10 0
82 -258 -193 0
237 272 161 0
213 215 34 0
227 -270 -267 0
254 -175 255 0
74 -69 -211 0
171 -61 -183 0
-167 258 113 0
-106 141 33 0
-275 68 -3 0
155 92 -222 0
-71 -159 263 0
190 -64 37 0
249 227 92 0
165 -55 140 0
-196 209 -93 0
-235 136 283 0
200 128 -29 0
-131 121 57 0
268 -132 -261 0
-237 -256 -64 0
-284 228 76 0
142 -31 241 0
74 242 -24 0
-151 -202 -161 0
-57 184 24 0
170 -220 280 0
-112 -204 -125 0
-53 -72 -203 0
-133 249 256 0
-89 211 -156 0
-247 -100 -216 0
-85 -92 -186 0
-83 109 48 0
154 278 62 0
141 83 -128 0
79 -151 -206 0
-248 32 -20 0
116 -25 14 0
6 80 96 0
219 -75 -111 0
1 -76 -220 0
-90 -38 218 0
191 189 15 0
-210 -213 135 0
-24 203 224 0
131 85 199 0
-168 -123 -229 0
196 -9 -200 0
11 -40 227 0
67 78 -89 0
-77 50 -160 0
46 40 49 0
-271 -66 58 0
28 232 176 0
260 250 113 0
-127 -254 -166 0
57 127 78 0
-248 -117 -31 0
-77 -190 -237 0
-131 176 -24 0
285 173 158 0
-214 131 181 0
-61 -46 75 0
268 -101 -199 0
141 81 55 0
-132 -175 -151 0
88 241 78 0
-204 -174 -214 0
-72 -84 -247 0
77 217 268 0
-26 7 255 0
70 9 -145 0
-103 58 -37 0
251 -108 259 0
51 81 -256 0
18 146 48 0
-271 -180 132 0
-64 256 -246 0
-191 79 150 0
41 5 126 0
170 -74 -13 0
-268 -80 151 0
265 -151 25 0
-212 245 217 0
101 243 -8 0
46 -2 -198 0
-72 -265 197 0
182 127 225 0
32 -180 -124 0
227 -228 -109 0
-262 263 38 0
-44 -215 196 0
114 -241 147 0
-53 91 -86 0
-229 54 151 0
-74 -269 -80 0
85 -57 282 0
-182 -8 -51 0
-35 86 -32 0
-63 203 18 0
211 136 -204 0
47 -238 -263 0
234 -47 -168 0
284 -215 154 0
100 -87 8 0
-170 164 -201 0
-254 282 -57 0
177 127 -141 0
-179 269 40 0
-114 -179 177 0
142 145 -191 0
-33 142 30 0
184 277 117 0
178 -59 220 0
230 -212 -32 0
-191 7 -103 0
197 235 -53 0
209 -180 -204 0
224 14 168 0
-252 -43 -283 0
248 -36 -74 0
-215 55 163 0
200 -267 -223 0
-214 32 -180 0
210 -66 -164 0
-41 207 139 0
-53 198 273 0
-83 217 -43 0
-96 120 212 0
179 -42 176 0
267 9 -103 0
149 114 -189 0
218 -241 -217 0
-114 -161 -223 0
-121 -97 -155 0
-182 105 -284 0
-94 227 -258 0
-237 -55 -236 0
-243 90 -23 0
138 -71 246 0
271 111 -225 0
-97 -112 135 0
-176 22 11 0
-233 161 -44 0
-84 21 -268 0
84 -51 -2 0
273 -165 -122 0
-110 94 -20 0
105 213 136 0
23 -276 157 0
59 202 -18 0
-159 202 200 0
32 147 220 0
43 -125 -101 0
-10 -160 52 0
-113 248 123 0
118 -226 13 0
-51 -261 105 0
-168 -269 211 0
-64 -132 -231 0
143 -62 282 0
-98 214 -233 0
-180 135 84 0
-222 -173 201 0
-177 -204 -98 0
-68 201 -105 0
-278 125 -186 0
69 272 -219 0
233 20 -134 0
-125 232 48 0
-197 52 -63 0
-178 194 34 0
181 -125 -96 0
-160 157 5 0
-195 -12 -186 0
-119 18 -102 0
92 -278 93 0
-56 250 259 0
200 263 -202 0
-74 -244 188 0
155 -14 54 0
-23 -123 208 0
-221 213 -168 0
-215 6 13 0
261 181 -21 0
-181 -277 -124 0
219 -140 -31 0
-57 -43 150 0
-53 -211 -158 0
10 222 83 0
156 178 77 0
-138 187 232 0
37 53 -276 0
-158 170 2 0
-234 -233 29 0
-15 -185 -238 0
26 177 -112 0
201 217 71 0
-130 152 106 0
73 -59 182 0
-110 226 50 0
129 -220 107 0
-196 187 279 0
-175 -181 255 0
-100 -10 276 0
-115 -15 -232 0
200 -38 -71 0
86 48 32 0
-227 -40 204 0
67 133 222 0
42 -127 -7 0
168 32 -199 0
-210 274 88 0
-93 221 -201 0
67 -85 -252 0
-189 138 -60 0
-240 -79 102 0
-254 228 -5 0
-109 -11 78 0
-276 181 193 0
-122 244 -44 0
-22 43 -97 0
-221 -6 -188 0
56 -86 181 0
240 238 228 0
191 27 -247 0
151 205 173 0
189 -107 51 0
-205 -147 -2 0
152 63 36 0
-162 -17 36 0
235 192 -206 0
65 -55 283 0
-51 -184 221 0
-195 -88 255 0
-220 20 -122 0
-38 -234 -222 0
-154 -187 159 0
117 -97 -59 0
-262 -256 -139 0
211 274 -110 0
-167 -34 -178 0
122 114 -225 0
59 -250 126 0
37 -204 241 0
-162 -164 -251 0
15 169 -127 0
158 269 -279 0
3 246 -192 0
-138 185 39 0
-34 -194 113 0
-177 -127 163 0
-52 -279 -159 0
84 -162 -256 0
228 246 279 0
264 -126 -110 0
-258 -202 208 0
-98 -195 159 0
190 188 133 0
-204 55 180 0
-104 -95 85 0
-271 191 159 0
20 96 112 0
41 93 29 0
95 -74 -13 0
63 -206 -186 0
190 257 -255 0
-176 -265 92 0
-31 -192 262 0
-89 262 -124 0
-218 165 -276 0
170 81 -99 0
-277 283 141 0
-55 226 -23 0
279 114 -233 0
247 186 -282 0
-117 -204 54 0
50 -38 178 0
-202 248 -216 0
89 -252 -83 0
-104 -225 -115 0
-69 -144 223 0
119 121 58 0
-222 21 88 0
253 -161 -17 0
64 44 192 0
-270 -35 -175 0
-264 -74 -248 0
-186 -98 -218 0
-151 -68 -198 0
-55 -273 91 0
-51 -67 105 0
-12 195 245 0
-116 83 -254 0
-150 -43 223 0
117 -38 204 0
136 -251 -164 0
-186 -84 -54 0
76 -239 -54 0
77 179 -16 0
66 -9 -117 0
40 -220 194 0
63 -258 -134 0
-3 109 241 0
-268 189 -130 0
73 -177 -30 0
-116 179 -203 0
275 192 72 0
-119 -209 -233 0
139 -163 -216 0
-59 129 74 0
-219 -250 154 0
67 44 216 0
158 -121 -130 0
-150 -7 -92 0
28 264 122 0
1 113 68 0
209 -207 -40 0
283 275 -107 0
-59 -228 210 0
-187 195 56 0
272 -274 283 0
-241 270 -85 0
223 -48 178 0
-269 66 -95 0
-106 -147 -189 0
-159 162 183 0
69 93 -273 0
261 -243 -77 0
-91 -158 -42 0
-21 41 -99 0
250 -1 -72 0
-275 5 176 0
226 -204 20 0
-172 -199 -51 0
146 -155 -264 0
-176 106 225 0
-85 -253 -205 0
-118 -66 -241 0
170 -101 -99 0
230 246 -269 0
31 155 52 0
-242 -54 -214 0
-231 -192 195 0
-21 32 -270 0
51 -191 282 0
-5 -145 200 0
-20 -118 -45 0
236 211 182 0
25 -20 -33 0
-171 10 176 0
-239 215 256 0
-60 -40 145 0
-205 272 -172 0
5 -207 -225 0
-66 74 -281 0
203 -232 146 0
-185 -235 236 0
-233 104 42 0
263 19 -83 0
-180 -32 107 0
231 -219 -97 0
-115 -172 -95 0
-125 158 -231 0
91 195 8 0
-142 -138 284 0
-140 -82 -8 0
81 13 150 0
147 -95 53 0
-61 -26 31 0
-1 -260 244 0
-282 -1 -236 0
-271 -216 -134 0
134 37 261 0
-270 -17 -86 0
45 -29 -185 0
-107 284 -57 0
-161 60 173 0
-178 123 -165 0
-209 -19 147 0
256 174 -234 0
38 112 -164 0
-73 -192 -42 0
-166 130 216 0
-88 -250 -248 0
-42 175 115 0
-41 25 -68 0
191 144 -151 0
249 208 33 0
121 107 27 0
-74 -241 162 0
-140 124 268 0
-40 -39 -276 0
5 -90 48 0
-37 -273 -215 0
65 -248 -23 0
-45 -21 -107 0
243 -236 158 0
-283 66 -144 0
-155 -46 250 0
-109 191 -3 0
-57 33 25 0
-141 275 -233 0
-37 -11 244 0
-229 101 -26 0
-255 53 179 0
-78 -162 37 0
-89 -221 102 0
197 273 97 0
-28 95 273 0
174 228 149 0
283 -182 -247 0
199 77 252 0
254 -95 -271 0
-53 20 -29 0
-90 51 63 0
94 -231 25 0
102 12 -272 0
4 265 -248 0
143 -236 -133 0
-185 -150 119 0
121 -96 -107 0
52 251 190 0
36 249 -34 0
230 -123 -196 0
-263 133 -182 0
22 110 162 0
192 -63 210 0
-100 -194 -198 0
189 213 4 0
155 -87 -48 0
143 -12 -56 0
-208 100 177 0
188 -270 -280 0
285 235 252 0
-83 137 -105 0
-17 1 -265 0
-262 -242 -92 0
-235 10 -29 0
187 272 78 0
258 234 -138 0
-253 -105 -196 0
-223 143 29 0
-26 30 -78 0
-165 2 228 0
-31 253 -256 0
102 128 122 0
-175 227 254 0
219 -216 -151 0
96 -216 38 0
-41 -183 -229 0
70 -145 -279 0
-57 268 -247 0
-152 109 147 0
-127 -278 -198 0
176 91 -196 0
-283 30 13 0
26 -216 -136 0
189 15 -11 0
238 282 246 0
244 -33 44 0
-273 205 136 0
141 262 -137 0
95 146 -45 0
37 -47 -45 0
-7 -61 -24 0
-256 264 -222 0
-241 259 -68 0
-131 24 184 0
133 50 260 0
100 -229 109 0
149 -270 154 0
96 103 -85 0
-248 244 113 0
206 -141 -38 0
-149 259 51 0
232 17 122 0
-150 171 -5 0
171 168 241 0
-249 -186 -138 0
53 -91 205 0
-17 -127 -31 0
198 149 115 0
200 283 118 0
-257 -187 261 0
80 127 -189 0
