p cnf 285 1214
130 -92 -264 0
-56 172 30 0
-44 83 -123 0
-11 -159 246 0
-99 -220 53 0
264 -135 -200 0
-190 195 153 0
149 163 159 0
-117 -175 -249 0
-42 -285 -137 0
251 -68 -272 0
-139 -159 -270 0
-85 276 34 0
30 -51 71 0
-3 -1 59 0
135 -142 247 0
-13 -96 -281 0
-248 -282 97 0
223 44 107 0
-103 -190 -101 0
-50 12 -227 0
1 -268 -258 0
231 227 -232 0
52 108 -154 0
-57 12 -46 0
-179 -227 229 0
19 254 -95 0
-135 276 -218 0
221 86 47 0
266 -102 245 0
35 -251 -115 0
-159 -251 -6 0
250 126 130 0
-103 -174 220 0
149 -147 99 0
20 -152 221 0
61 -199 108 0
52 200 -134 0
259 93 84 0
123 258 -43 0
166 15 -144 0
208 169 113 0
67 216 95 0
-134 197 -219 0
263 160 -99 0
135 271 -65 0
-180 -254 -72 0
24 -176 2 0
135 249 258 0
-204 -249 23 0
-208 -176 79 0
261 -150 -146 0
181 -146 -217 0
-148 -240 -66 0
-55 52 -105 0
-81 34 -33 0
151 -229 -233 0
-274 -27 73 0
-54 77 -231 0
-219 -169 166 0
-224 -281 -23 0
-238 100 52 0
-30 -277 -272 0
-58 -223 242 0
-77 253 -161 0
81 -174 -74 0
-71 -146 36 0
168 -118 198 0
156 259 276 0
135 251 -40 0
183 -10 -87 0
119 235 282 0
86 -140 -247 0
73 70 61 0
-5 23 -259 0
-52 -243 270 0
221 -134 -168 0
281 -152 21 0
-112 -5 -182 0
118 -129 -217 0
-168 -149 -48 0
-78 48 -53 0
-177 212 -272 0
68 -62 -52 0
161 -166 20 0
160 -269 -69 0
99 85 -43 0
260 -170 -65 0
-275 281 -141 0
-53 249 7 0
-101 107 75 0
-67 265 214 0
274 -109 254 0
-7 67 -61 0
180 135 -78 0
-139 -262 167 0
264 -280 -115 0
78 -264 -34 0
177 -79 -15 0
-208 -192 142 0
-140 18 -258 0
-170 -33 -191 0
-15 53 58 0
43 178 -16 0
-241 -70 -218 0
-98 69 -37 0
54 127 113 0
-77 -184 21 0
-142 -41 -224 0
-170 -45 -105 0
255 74 104 0
-153 -230 2 0
-212 62 150 0
-195 161 193 0
-151 266 206 0
-197 149 8 0
26 83 -233 0
-265 -120 -208 0
-143 41 258 0
-254 -253 128 0
-50 -188 102 0
202 -148 -112 0
-20 250 112 0
-123 -50 121 0
-148 -225 -30 0
-140 198 1 0
-140 194 64 0
-176 269 151 0
-195 103 76 0
37 147 -231 0
-99 18 -237 0
157 -245 -163 0
-76 219 -60 0
235 46 -125 0
-63 -61 -25 0
-8 -25 -57 0
-7 -186 -125 0
-80 264 223 0
-96 69 25 0
-15 255 127 0
283 153 132 0
156 250 246 0
48 66 252 0
97 42 44 0
82 118 268 0
-105 93 97 0
250 -228 -53 0
282 211 -176 0
-40 262 -115 0
19 -266 47 0
5 104 -86 0
74 -87 -212 0
29 -142 7 0
47 -86 -91 0
47 -144 16 0
-31 -256 259 0
-41 -180 138 0
-262 80 -277 0
-142 -182 128 0
-60 83 -269 0
94 -213 -277 0
-277 71 -56 0
216 -22 -179 0
-241 -124 -106 0
-55 230 243 0
176 -228 -181 0
62 83 238 0
165 230 69 0
106 -91 83 0
-101 -236 -133 0
-216 32 159 0
216 -245 -220 0
15 212 -9 0
239 -186 166 0
-175 -129 237 0
-215 -155 113 0
-82 149 -242 0
-29 -99 -149 0
279 -282 -76 0
-20 -3 25 0
-84 113 -196 0
102 -277 -276 0
-119 112 125 0
-21 114 166 0
-207 -177 -275 0
91 -57 -181 0
120 75 34 0
182 -204 -76 0
-209 229 35 0
117 185 -55 0
-194 121 -55 0
238 -265 -1 0
-214 -112 -62 0
-67 136 -116 0
257 78 -91 0
-2 -279 -5 0
-94 -281 -1 0
91 212 -55 0
150 77 -55 0
283 169 12 0
238 141 32 0
106 251 163 0
-3 139 -31 0
-159 95 -43 0
47 -126 115 0
-70 -263 -23 0
-40 -78 106 0
73 204 132 0
16 -279 191 0
141 15 285 0
86 -276 -133 0
140 136 215 0
33 -49 253 0
85 110 -62 0
250 -256 -221 0
144 125 -103 0
253 92 277 0
-265 -244 -64 0
234 -11 -128 0
-185 100 46 0
-218 261 -155 0
70 240 61 0
97 3 129 0
183 172 19 0
-130 37 39 0
-259 -42 -186 0
222 -8 14 0
207 202 200 0
-142 -223 152 0
158 53 179 0
-4 -258 -187 0
-11 254 211 0
190 -267 216 0
-151 -121 -238 0
218 -144 -160 0
-98 -105 156 0
37 -166 -36 0
267 -235 121 0
132 51 -184 0
-49 4 34 0
-101 178 48 0
-267 169 -144 0
-80 242 -119 0
89 -196 -142 0
-122 -82 -74 0
-190 41 -263 0
-270 -81 82 0
87 -135 95 0
93 25 147 0
-241 -12 -191 0
56 -285 174 0
-105 -172 43 0
-20 -31 186 0
117 206 -150 0
-115 131 158 0
-122 -5 -282 0
21 -261 -162 0
129 -30 -20 0
23 170 88 0
80 151 51 0
85 -80 -179 0
214 119 69 0
116 183 165 0
42 -195 -1 0
-15 248 80 0
-226 144 -251 0
-135 -142 239 0
282 -255 -251 0
10 -55 -229 0
142 -148 -63 0
-265 210 150 0
-201 86 -251 0
-152 -42 196 0
-98 -30 -38 0
-167 -121 -18 0
-261 -8 -42 0
-48 -235 153 0
-79 206 -140 0
238 282 178 0
-165 40 -110 0
176 180 65 0
-26 243 -215 0
246 104 -202 0
-221 106 -136 0
-165 124 5 0
-23 203 -26 0
-134 -137 -226 0
135 265 125 0
29 132 105 0
-249 101 134 0
-26 -114 -140 0
-41 82 -173 0
22 -19 -175 0
147 -106 210 0
-43 -42 -171 0
-12 115 -256 0
143 149 169 0
-66 -1 202 0
-33 281 -221 0
-87 132 -131 0
123 68 183 0
103 -282 -151 0
-39 -247 252 0
-126 256 -163 0
132 -212 282 0
1 -216 -122 0
133 202 -285 0
101 -265 -285 0
29 264 -26 0
-44 -123 91 0
-264 21 153 0
-55 -209 -107 0
120 252 -92 0
-285 86 32 0
48 120 255 0
45 -131 -223 0
-53 41 -114 0
-22 -207 127 0
-274 188 146 0
259 -149 275 0
3 -171 -8 0
221 244 -276 0
-283 -97 -182 0
-43 166 26 0
-267 -105 -73 0
-35 -189 -15 0
259 -234 -210 0
-234 168 -53 0
-230 -18 -196 0
202 205 -236 0
154 55 -45 0
134 -89 262 0
-66 222 -47 0
-190 -128 -195 0
-26 -206 172 0
-25 174 -243 0
-37 -178 -234 0
-102 71 -212 0
-38 -2 -258 0
26 -277 89 0
-132 -213 220 0
207 -245 -223 0
230 -68 -163 0
4 -70 110 0
29 -147 225 0
-251 129 211 0
19 -165 262 0
-83 -18 -168 0
87 151 -195 0
171 -161 -130 0
-176 190 -55 0
44 -6 -268 0
-173 -122 101 0
25 219 191 0
-161 -109 241 0
-11 -26 183 0
87 -73 -192 0
129 -278 181 0
-252 52 2 0
-261 -53 -153 0
-217 -63 73 0
-106 -16 -273 0
264 161 -101 0
-148 106 160 0
-175 171 -51 0
-102 -268 10 0
76 -257 -43 0
130 36 -250 0
31 5 -170 0
-196 -126 51 0
-169 -30 54 0
182 -22 118 0
245 258 -44 0
-188 92 -282 0
254 -278 100 0
-63 39 -208 0
-192 -25 44 0
202 260 137 0
-62 -74 -99 0
272 -12 87 0
201 -28 106 0
281 263 190 0
10 81 265 0
47 -83 279 0
-154 284 265 0
20 268 11 0
-261 -239 88 0
13 -232 60 0
-69 238 179 0
143 209 153 0
278 215 -93 0
222 -77 -207 0
178 177 -174 0
285 -214 -120 0
-178 139 248 0
-249 -90 -41 0
-87 266 -50 0
78 -197 108 0
19 171 -32 0
-276 -182 39 0
221 -106 114 0
-81 89 -214 0
-234 -155 -77 0
-10 -249 -85 0
221 -185 114 0
-187 81 -225 0
228 -86 -205 0
-64 120 -249 0
-269 153 -216 0
189 -97 -93 0
69 101 -167 0
-244 -25 209 0
-12 28 199 0
116 -190 -83 0
-13 -196 169 0
145 -166 -73 0
-125 172 280 0
81 117 -213 0
-261 -29 -43 0
86 261 240 0
-81 13 225 0
-208 -81 -114 0
-195 45 -91 0
120 -207 -138 0
-149 -223 -29 0
-251 -215 59 0
-123 -16 -107 0
1 203 41 0
152 -160 -264 0
-100 -45 21 0
245 -218 -90 0
-58 -16 -149 0
-125 -231 -178 0
51 -124 -264 0
32 160 222 0
88 283 10 0
-182 -273 -45 0
-263 122 -158 0
-178 -248 84 0
80 -269 249 0
-280 -6 33 0
-39 -20 -60 0
49 42 206 0
75 137 157 0
-25 -178 -93 0
189 -142 236 0
-177 -235 98 0
104 -48 -223 0
167 -225 -164 0
246 275 -70 0
-50 -82 218 0
240 -39 -211 0
10 -209 -260 0
-273 -63 220 0
-148 -65 -53 0
102 256 -181 0
-53 187 33 0
103 -265 -224 0
-118 127 167 0
-107 -129 221 0
94 -62 135 0
60 130 70 0
226 -80 110 0
162 6 -172 0
-65 4 -195 0
254 255 108 0
-86 -278 -129 0
-166 -172 -285 0
-282 7 141 0
271 -274 -48 0
-129 208 187 0
213 -95 -179 0
-1 -263 247 0
-77 -279 -136 0
279 -16 70 0
-28 190 -178 0
140 46 -209 0
-217 -128 278 0
139 -216 -208 0
-63 141 172 0
-252 -95 -114 0
-106 251 -268 0
-178 -237 189 0
120 -48 -45 0
-54 -220 -256 0
-208 28 10 0
118 -78 136 0
-109 77 281 0
205 -96 28 0
108 -95 -6 0
-268 131 -234 0
257 -32 48 0
-50 249 -261 0
53 -23 121 0
-213 -5 229 0
49 171 208 0
-61 285 -126 0
-272 -227 -132 0
76 -150 -117 0
-21 -13 80 0
261 281 58 0
-248 2 -235 0
-28 -272 -229 0
254 133 21 0
264 178 -114 0
264 171 -15 0
-254 -51 -217 0
-283 285 -100 0
203 241 -252 0
55 -90 -198 0
-260 -52 -47 0
-75 -173 -178 0
-162 -8 212 0
86 -146 -56 0
-99 -170 86 0
247 -284 255 0
-66 67 142 0
25 241 -103 0
193 93 85 0
-180 7 -140 0
136 -108 -155 0
264 -171 79 0
131 111 -224 0
284 -153 -257 0
23 -61 141 0
284 -41 48 0
229 -192 119 0
-119 -262 201 0
9 231 -193 0
209 45 -143 0
56 271 -132 0
238 242 202 0
239 -69 -222 0
185 224 -100 0
-256 233 255 0
-271 -75 -257 0
9 -111 68 0
-114 -56 203 0
-203 -108 191 0
198 187 222 0
7 6 94 0
-140 39 181 0
133 188 10 0
156 -151 -208 0
-110 275 -85 0
160 -176 118 0
190 -45 -78 0
-100 -120 -102 0
-231 -268 -104 0
190 -198 -145 0
142 -242 -152 0
166 -93 138 0
13 29 -167 0
-214 -117 262 0
-244 -121 -31 0
-63 210 -284 0
39 -165 -114 0
-78 273 -77 0
37 -57 207 0
123 151 229 0
161 -44 -243 0
-268 -49 237 0
57 243 128 0
-105 -98 -167 0
198 -104 -242 0
281 -58 -46 0
280 137 1 0
8 67 -186 0
-223 -182 47 0
94 112 52 0
-193 -232 -265 0
-116 63 97 0
-26 207 127 0
53 112 -278 0
253 69 169 0
-60 150 -30 0
30 -76 211 0
-26 -222 -54 0
-208 -25 181 0
-19 242 153 0
-232 -89 55 0
-102 -274 269 0
-26 121 91 0
123 245 -249 0
-127 173 64 0
236 145 -30 0
285 -103 -186 0
55 -109 158 0
267 51 71 0
-38 -268 198 0
54 62 102 0
-285 21 188 0
-41 -263 196 0
84 146 -11 0
206 239 -48 0
59 171 -135 0
129 261 115 0
-239 262 117 0
-268 176 -230 0
49 105 -159 0
-201 16 70 0
248 223 60 0
186 228 -46 0
243 -20 22 0
-139 142 49 0
74 283 -3 0
-274 167 -206 0
6 -201 170 0
81 -173 4 0
210 -99 234 0
-75 -201 -182 0
247 -195 -100 0
-138 181 145 0
185 239 -68 0
-285 -223 -175 0
-115 267 -31 0
283 -12 275 0
-62 -217 -150 0
83 -128 -170 0
244 -143 131 0
-81 260 13 0
-3 -109 271 0
157 -9 250 0
-117 119 49 0
44 171 -199 0
-81 98 -184 0
-103 -96 269 0
-114 121 -154 0
151 152 134 0
-23 -170 -238 0
-99 -264 -169 0
201 151 281 0
23 200 243 0
198 -94 261 0
-77 -108 -166 0
194 171 18 0
-3 -215 -102 0
-29 13 27 0
214 2 9 0
-217 -182 8 0
-251 268 -204 0
259 -49 284 0
-40 244 42 0
140 256 245 0
213 123 -111 0
135 -46 -172 0
180 210 -29 0
-95 127 -117 0
-209 88 -45 0
137 -76 21 0
74 -12 -40 0
-188 -176 -200 0
184 -252 146 0
-173 -239 -199 0
-121 -247 242 0
68 73 119 0
212 274 -208 0
174 272 -76 0
170 31 117 0
45 197 238 0
53 56 -104 0
213 131 101 0
-154 185 189 0
-254 -7 220 0
-36 -233 62 0
-273 165 -277 0
67 -42 -244 0
-239 189 -146 0
-128 101 -12 0
-82 86 110 0
102 53 258 0
-230 -172 -35 0
-245 -258 178 0
-34 108 -184 0
257 181 22 0
-181 55 163 0
-29 247 212 0
164 63 -64 0
-168 -115 98 0
223 115 255 0
-85 -214 257 0
-197 265 193 0
-197 -113 -8 0
-6 26 -13 0
174 -152 -225 0
-194 -71 -147 0
176 -6 -107 0
-261 68 278 0
193 -163 85 0
174 197 -40 0
105 -64 -155 0
63 28 211 0
-6 -85 66 0
-283 -62 105 0
-240 -210 -274 0
267 -85 44 0
225 44 13 0
-257 -123 -143 0
220 -89 -177 0
-52 -142 209 0
-282 -250 -50 0
-235 159 -206 0
-241 89 81 0
-133 62 223 0
235 -267 -172 0
-268 -18 37 0
-40 279 8 0
86 -269 151 0
-231 -24 3 0
-5 256 -187 0
194 96 -195 0
-216 -148 -7 0
-203 -10 56 0
202 198 -200 0
30 -249 -251 0
-54 256 -190 0
-253 -61 188 0
153 120 -221 0
-12 -230 -218 0
-100 285 245 0
-157 -208 -74 0
-195 -234 -231 0
119 -175 120 0
201 -182 2 0
284 113 86 0
-72 161 174 0
-74 196 -100 0
-79 -160 -252 0
237 118 -263 0
94 -205 -107 0
27 -217 159 0
-219 -98 -119 0
12 -82 -260 0
-84 -159 -244 0
-95 -249 -191 0
-106 -285 18 0
230 -80 -195 0
137 24 -269 0
-223 105 127 0
245 27 109 0
-1 177 -129 0
-137 -253 100 0
94 -36 -282 0
-124 155 -169 0
-263 272 135 0
-232 -72 237 0
197 -67 -167 0
265 -7 -145 0
-27 95 168 0
-264 279 -203 0
-135 -201 -116 0
267 125 260 0
38 26 -138 0
-193 -80 -121 0
178 -248 -96 0
213 -88 207 0
-183 64 30 0
-18 221 212 0
-159 -151 -69 0
244 272 11 0
259 98 53 0
-101 -254 143 0
-114 264 -76 0
-183 156 -138 0
-149 111 -176 0
165 -191 -14 0
98 -275 153 0
-248 214 212 0
126 -37 -224 0
-209 103 -185 0
-73 -210 133 0
-247 236 -38 0
-116 -180 -123 0
86 169 -94 0
-58 -116 20 0
-233 231 207 0
-231 163 90 0
-107 -41 5 0
55 -25 -220 0
-15 143 147 0
-80 -174 88 0
-270 -17 -152 0
-72 -271 -182 0
-189 -278 -161 0
17 -250 42 0
-15 18 -208 0
-190 245 -271 0
124 38 264 0
-193 17 -253 0
-148 -23 -34 0
154 -99 -233 0
262 102 59 0
221 -128 -255 0
194 12 57 0
182 -163 95 0
-157 -107 139 0
-133 -94 109 0
-105 -244 199 0
213 -271 -44 0
-89 17 148 0
-41 99 -77 0
25 240 -241 0
-4 32 -90 0
-113 35 52 0
79 166 -196 0
225 91 -32 0
-180 -60 -156 0
208 231 74 0
-39 -43 273 0
14 -141 12 0
32 -154 -133 0
-65 -209 187 0
163 23 231 0
-274 214 33 0
282 11 -88 0
-67 -123 250 0
1 16 -42 0
-205 -258 204 0
206 167 54 0
-180 -186 183 0
-147 -109 137 0
197 -25 175 0
215 -271 85 0
-169 121 -229 0
285 16 -244 0
-3 81 39 0
-62 195 48 0
144 -182 159 0
114 154 9 0
234 196 -157 0
240 45 153 0
-284 214 144 0
-104 43 69 0
-9 -232 -264 0
280 -239 -265 0
-46 236 138 0
197 -254 187 0
193 -118 33 0
-221 -283 -227 0
-210 -49 11 0
56 -278 -201 0
139 152 -131 0
26 214 -88 0
248 156 72 0
-200 11 -135 0
102 -183 194 0
272 -270 -74 0
130 -30 -71 0
73 -202 -209 0
44 -220 -171 0
273 -216 145 0
135 -276 201 0
-74 217 -52 0
-275 -4 -200 0
-201 -128 43 0
-182 -132 -47 0
276 14 -125 0
-48 253 -162 0
-34 -39 -42 0
194 80 114 0
22 -234 -206 0
7 74 219 0
-98 248 -178 0
145 -48 101 0
-249 -151 -205 0
192 150 -224 0
-183 70 -230 0
98 -196 16 0
-26 217 68 0
-143 -79 -252 0
104 105 -86 0
-195 -122 228 0
168 275 196 0
36 -161 -200 0
-222 -265 -167 0
-48 -266 102 0
-195 -95 -236 0
31 92 -135 0
34 -203 125 0
74 -107 -135 0
30 212 158 0
-254 -103 80 0
112 -219 43 0
146 -214 143 0
148 -37 247 0
163 -151 -153 0
-258 -212 272 0
-103 -42 67 0
-232 -177 -275 0
247 -280 -27 0
-27 129 -191 0
-280 73 109 0
-233 -22 139 0
-39 -208 -160 0
118 32 128 0
183 140 -246 0
-100 -69 -150 0
154 -182 -229 0
175 169 -161 0
9 214 -12 0
-221 254 -143 0
132 -55 -228 0
282 -103 235 0
260 -20 -83 0
-50 -13 -233 0
246 -14 4 0
-147 191 261 0
-285 -10 -201 0
20 65 33 0
-81 -266 267 0
83 -209 61 0
-168 -118 75 0
-155 181 192 0
-153 38 114 0
157 142 80 0
-129 7 25 0
-211 -221 35 0
33 219 -170 0
86 166 -88 0
-203 -101 -186 0
-57 -86 -236 0
107 2 248 0
-247 -161 -46 0
171 52 -60 0
-219 230 80 0
-177 -59 244 0
148 121 14 0
-1 -38 -147 0
-102 -285 22 0
-135 75 -107 0
-92 37 -262 0
-143 -123 -153 0
279 185 -254 0
-263 -67 -9 0
-93 228 -19 0
-281 251 174 0
38 -151 -266 0
140 52 -172 0
79 225 -137 0
264 205 210 0
-247 -15 -186 0
9 -269 178 0
203 -66 110 0
-194 -53 -204 0
5 224 -151 0
-266 265 82 0
-250 -181 2 0
-67 189 -138 0
266 151 273 0
-67 185 261 0
-59 -19 207 0
-139 -39 -174 0
272 143 69 0
-237 -211 58 0
-120 -34 -39 0
-261 260 281 0
71 170 267 0
-178 -169 91 0
-84 -115 100 0
-177 -105 82 0
80 -57 170 0
104 120 285 0
-126 -243 -77 0
-99 -280 -174 0
-92 248 -185 0
-69 36 5 0
171 -180 168 0
122 -198 78 0
-136 -278 134 0
223 -109 275 0
-150 189 156 0
237 259 -81 0
-120 -185 119 0
219 -52 -61 0
-250 -112 -269 0
142 -170 -26 0
-89 274 177 0
248 230 -59 0
-65 35 -116 0
175 177 -198 0
189 -213 -218 0
209 -35 -144 0
226 112 -90 0
-267 -12 -114 0
107 178 -248 0
-79 -105 -162 0
174 -82 -162 0
78 -191 -45 0
109 79 247 0
-199 17 -120 0
-267 35 60 0
35 -36 -53 0
-91 141 -177 0
65 -243 151 0
-264 -259 10 0
-2 270 -78 0
-234 40 -165 0
-218 -219 52 0
-119 -263 201 0
92 212 101 0
-234 173 -3 0
-170 -247 -217 0
-34 -70 165 0
157 228 2 0
-36 -157 55 0
-46 -103 -188 0
36 185 50 0
59 147 55 0
85 -66 201 0
-33 -158 51 0
-100 -8 180 0
-166 -21 -268 0
90 -87 -118 0
98 -30 -148 0
-17 -41 127 0
120 186 219 0
-48 -255 275 0
-71 -179 54 0
-183 197 36 0
13 -96 221 0
197 -237 -264 0
-215 93 111 0
-82 -17 -202 0
-164 270 113 0
-31 -228 242 0
-265 -181 202 0
204 110 -199 0
-78 -166 20 0
121 64 -203 0
-150 -239 112 0
-68 168 112 0
122 -11 -153 0
110 139 -178 0
268 -230 87 0
225 114 56 0
-195 -11 12 0
130 58 -228 0
36 181 -247 0
-40 243 -76 0
-75 -45 179 0
254 -81 -129 0
120 122 267 0
-153 -259 -97 0
152 118 -271 0
190 -134 196 0
-271 171 14 0
108 -52 -60 0
-118 9 -259 0
128 -24 -28 0
-97 -207 64 0
95 -85 203 0
-77 -1 153 0
259 -101 176 0
-157 -167 -28 0
259 -3 72 0
-100 283 -242 0
-161 140 94 0
171 136 -70 0
-41 284 116 0
-32 261 -242 0
103 67 239 0
-237 -76 268 0
-215 142 204 0
168 -41 123 0
-229 204 62 0
-142 115 -263 0
21 -168 22 0
-109 174 -244 0
-174 155 -142 0
-267 139 76 0
209 79 -183 0
147 -45 -38 0
168 263 103 0
-59 115 -27 0
54 26 -136 0
113 124 69 0
152 -70 -88 0
228 -81 238 0
-168 -80 -23 0
280 81 -217 0
18 -258 -211 0
122 -81 -46 0
-155 -271 246 0
-59 -209 187 0
-184 -12 241 0
112 -130 242 0
-217 263 -205 0
-98 -168 -270 0
228 -7 -117 0
106 171 -276 0
75 -148 147 0
-99 13 -248 0
-203 -256 208 0
184 150 -201 0
58 106 197 0
178 148 -68 0
-1 -4 -176 0
-24 -110 -191 0
91 -99 135 0
-84 -243 -110 0
200 -23 108 0
-21 -171 49 0
-136 111 -174 0
-20 76 -42 0
-198 63 240 0
-45 -280 -51 0
132 -152 -197 0
107 103 96 0
-234 -138 -196 0
-66 157 269 0
237 -276 141 0
19 21 -187 0
-176 -119 53 0
-143 -76 -277 0
-165 -183 126 0
50 -148 -248 0
50 138 74 0
-141 44 186 0
-235 29 97 0
138 -106 25 0
201 277 -113 0
-90 -181 -206 0
-242 -212 -193 0
-35 88 262 0
-9 -34 181 0
-246 -201 73 0
225 -77 27 0
258 -77 -124 0
189 179 39 0
195 -166 144 0
165 162 -90 0
-182 148 -102 0
-48 -109 -265 0
52 257 -27 0
-217 211 -255 0
123 245 25 0
34 111 -74 0
176 -69 -20 0
198 -38 -152 0
268 32 -216 0
-91 -273 -245 0
-183 118 105 0
45 -263 -97 0
273 283 -129 0
-212 145 4 0
285 -131 82 0
138 -254 240 0
-44 147 -174 0
-232 153 -57 0
-88 234 107 0
-16 -224 22 0
159 220 -137 0
-167 -11 -147 0
-163 91 -203 0
8 -282 215 0
16 197 221 0
249 152 -245 0
-126 175 38 0
-46 59 -29 0
155 -81 32 0
51 -34 148 0
-97 84 128 0
-128 -67 176 0
-257 -60 -167 0
125 -265 -115 0
73 29 -34 0
-20 -87 -34 0
-129 280 -67 0
73 99 122 0
-74 -143 -260 0
-166 -94 -185 0
-21 220 48 0
-115 226 172 0
233 -73 -151 0
-276 199 -125 0
-273 21 219 0
53 -52 17 0
-84 -171 23 0
-161 -8 -188 0
-285 -40 121 0
21 14 -56 0
171 -124 219 0
-115 -262 250 0
217 85 -158 0
-67 112 -16 0
-81 251 252 0
271 -61 -110 0
-110 -99 -285 0
-99 -268 118 0
264 -110 220 0
21 -140 -76 0
-234 247 -246 0
121 -271 -146 0
238 -192 225 0
146 -212 243 0
-28 154 -164 0
69 -21 -219 0
-6 -4 -154 0
-119 114 -264 0
-268 -172 -106 0
38 228 -211 0
-90 -13 170 0
-120 246 -14 0
55 63 -249 0
-159 180 -207 0
-260 97 -283 0
192 110 162 0
-115 96 23 0
-23 -262 -193 0
189 -102 -103 0
41 13 93 0
-238 90 -276 0
90 123 -265 0
2 189 -197 0
