p cnf 285 1214
-78 -113 162 0
23 76 57 0
-266 64 71 0
78 121 182 0
-161 -107 72 0
-259 -210 -180 0
98 284 15 0
62 70 -155 0
-83 277 -128 0
40 -96 120 0
68 -234 201 0
-11 -53 78 0
71 -14 49 0
44 -83 93 0
271 -56 -223 0
213 -277 2 0
225 79 32 0
174 -185 58 0
-222 258 -228 0
-122 167 -31 0
-124 100 147 0
21 32 247 0
-119 243 -200 0
-68 249 -102 0
-30 278 1 0
126 97 -266 0
184 -207 -2 0
-74 -263 -249 0
100 -265 92 0
178 203 -258 0
-76 -114 237 0
-4 -188 -112 0
-275 -69 -245 0
26 124 54 0
33 -46 266 0
-215 188 39 0
240 -114 -149 0
73 -46 -162 0
-32 271 266 0
-127 -260 284 0
151 165 230 0
-167 -93 118 0
-136 129 256 0
238 178 -201 0
110 -264 18 0
195 210 -89 0
6 -232 152 0
56 -217 -102 0
63 -115 3 0
154 -188 204 0
-194 127 -63 0
-266 279 158 0
169 -14 68 0
63 68 273 0
-54 -146 165 0
229 12 -44 0
-79 -94 16 0
5 -8 -83 0
-19 -55 60 0
284 26 158 0
45 -215 82 0
-44 -142 -156 0
-19 -122 72 0
145 -203 -136 0
-193 139 223 0
263 -16 33 0
-276 68 54 0
-282 12 75 0
-252 219 227 0
-210 -70 233 0
-249 -244 274 0
80 141 -207 0
-184 252 204 0
-80 251 158 0
15 30 92 0
-279 -52 -264 0
185 -64 30 0
-95 -271 41 0
-271 9 -267 0
-81 76 236 0
22 112 236 0
-171 215 252 0
-184 53 121 0
-238 159 -134 0
-160 134 254 0
-132 -257 -9 0
284 220 20 0
-76 140 -19 0
-46 103 -247 0
-105 -225 -243 0
98 -7 8 0
199 42 -230 0
64 37 -169 0
-50 117 -101 0
273 217 140 0
221 -272 23 0
-80 -73 97 0
272 50 161 0
227 18 161 0
64 152 229 0
-18 -28 -240 0
-243 226 283 0
-81 203 209 0
43 -101 266 0
-208 269 -198 0
-249 -194 10 0
136 171 -18 0
-152 135 -125 0
-237 -80 -98 0
-274 -207 226 0
137 -56 57 0
-47 266 114 0
-98 231 -260 0
183 -125 -145 0
60 -279 11 0
-214 108 -76 0
161 147 -35 0
195 -274 -262 0
153 -254 135 0
57 -105 -246 0
-230 98 155 0
-270 -179 -227 0
-281 126 139 0
-97 -35 145 0
-253 174 -31 0
88 35 -109 0
107 67 80 0
43 84 -285 0
128 198 -57 0
-278 -70 -149 0
86 40 198 0
6 138 192 0
174 -60 -203 0
-98 -57 22 0
-46 194 245 0
-222 -176 140 0
-50 -170 73 0
241 -185 149 0
194 -98 103 0
-57 -34 253 0
-193 259 -138 0
4 -23 -258 0
-163 278 51 0
52 121 -215 0
195 -211 172 0
1 244 -196 0
-192 -210 25 0
269 28 -82 0
216 112 99 0
-188 -67 -281 0
166 -86 -250 0
249 -82 -5 0
-111 -201 61 0
-78 127 -157 0
-17 -118 -134 0
-168 -266 153 0
20 -109 51 0
-165 71 -228 0
60 219 248 0
200 -123 -258 0
-159 -166 256 0
188 -89 213 0
-221 -26 154 0
-274 -23 -31 0
143 -213 194 0
-233 -226 128 0
248 180 125 0
62 -283 3 0
-112 122 -76 0
-237 99 -109 0
-283 -263 64 0
-202 -65 -189 0
-81 191 278 0
260 17 189 0
-12 -266 -127 0
254 147 162 0
-29 -54 50 0
52 -230 31 0
-132 -66 -138 0
195 132 236 0
-246 94 73 0
136 -220 120 0
146 111 99 0
-17 21 -258 0
4 -79 -238 0
275 -201 88 0
-3 -66 -186 0
-219 172 10 0
15 -223 177 0
-97 -110 235 0
-96 270 -21 0
-253 -20 274 0
-187 198 -101 0
144 248 -64 0
226 -9 63 0
198 -106 -89 0
47 59 133 0
-217 262 -193 0
257 -180 -250 0
134 44 -182 0
-46 -194 -115 0
-4 -30 262 0
-81 147 -129 0
-157 -256 -151 0
-108 182 101 0
26 121 173 0
165 -26 -226 0
183 -137 48 0
199 194 247 0
97 35 -14 0
-130 165 -86 0
67 -205 79 0
-254 48 85 0
91 202 267 0
-164 -160 11 0
21 22 -85 0
21 243 242 0
-273 14 -258 0
-29 249 210 0
-279 -284 200 0
-121 46 150 0
-133 249 213 0
182 -3 -142 0
-21 165 -222 0
-261 -1 88 0
-83 230 127 0
-86 -19 -279 0
-120 -187 -265 0
-35 -129 241 0
-246 227 -132 0
5 -193 243 0
-152 -126 104 0
-57 -7 -245 0
-249 -16 227 0
173 211 278 0
-159 4 232 0
-176 -246 116 0
-275 12 1 0
-9 -242 -152 0
266 -284 235 0
22 230 -49 0
-214 -258 7 0
-195 -111 61 0
-202 -38 -237 0
-159 78 41 0
153 218 -97 0
244 -279 130 0
-285 29 118 0
157 -285 29 0
-218 176 -235 0
34 -187 -240 0
31 146 -152 0
-43 -254 -179 0
-164 1 108 0
101 180 59 0
-186 -168 -81 0
84 -98 182 0
226 -280 -108 0
187 -80 40 0
-21 -131 225 0
-174 163 -259 0
236 -87 -42 0
85 118 -115 0
167 214 32 0
-189 -162 113 0
101 -222 5 0
-190 40 239 0
80 46 220 0
7 -146 -23 0
-5 -80 127 0
-284 225 173 0
-153 83 268 0
8 266 -7 0
-78 146 -210 0
-115 -235 46 0
20 -210 -63 0
-66 -67 63 0
161 136 126 0
-226 -239 35 0
275 -267 178 0
-162 -152 56 0
74 -180 23 0
31 81 1 0
187 190 -218 0
-118 237 -179 0
-218 265 -119 0
-148 55 -9 0
56 -210 -139 0
-130 183 140 0
-268 208 -275 0
88 13 -18 0
274 283 -156 0
-151 -125 17 0
-151 -74 -210 0
-144 268 200 0
185 -196 -273 0
-129 17 66 0
64 283 -48 0
-31 251 33 0
180 -141 57 0
34 -21 153 0
-11 -84 102 0
-23 -146 -122 0
258 -61 241 0
210 114 -124 0
3 -53 186 0
34 -125 -102 0
39 -69 -209 0
-179 230 -65 0
-49 172 -280 0
-69 -122 -220 0
-247 41 248 0
19 -95 -183 0
-267 -266 -250 0
-241 85 -115 0
-212 93 -233 0
255 -241 -246 0
95 -170 -280 0
76 -81 -135 0
-245 -187 33 0
67 106 -135 0
-41 -214 234 0
275 10 -177 0
-169 91 83 0
-163 -18 -80 0
-235 -145 -227 0
144 -221 -76 0
75 250 -111 0
270 -250 -120 0
-146 -272 111 0
-119 198 37 0
257 91 1 0
-73 -248 -212 0
-73 -133 185 0
248 -239 264 0
37 -221 163 0
-175 83 101 0
206 172 43 0
-199 -152 118 0
-52 -165 -97 0
211 -23 26 0
112 49 123 0
-174 -32 -176 0
-187 237 -8 0
-97 204 92 0
-226 9 225 0
179 -68 -111 0
-27 85 -205 0
-150 62 -68 0
-136 -262 84 0
-144 -149 123 0
-121 30 -214 0
-192 104 -233 0
165 -47 -141 0
261 -33 -279 0
-274 -127 267 0
-9 81 174 0
-167 -239 68 0
-263 -250 257 0
-210 53 -219 0
-38 -61 -230 0
-41 204 249 0
153 -56 31 0
81 89 51 0
64 -186 144 0
-285 226 -106 0
-164 35 14 0
153 187 11 0
276 19 216 0
-48 -99 -97 0
-121 -137 28 0
-22 77 118 0
134 -177 205 0
84 207 220 0
221 155 29 0
156 -218 115 0
-64 -39 -274 0
-6 243 238 0
-185 -118 144 0
-129 192 -34 0
-210 -103 -135 0
-62 -236 190 0
4 231 161 0
-66 98 84 0
260 208 -101 0
282 6 188 0
-231 67 -6 0
67 -169 -173 0
-86 -134 93 0
-13 -74 -217 0
123 -99 -235 0
-229 84 -97 0
81 -85 210 0
247 118 -233 0
-250 -184 -107 0
28 141 37 0
75 186 -146 0
155 -70 272 0
-136 3 -255 0
-72 -99 37 0
-269 164 154 0
-235 -202 146 0
-122 -97 -5 0
-274 -276 57 0
258 -197 155 0
-73 160 -65 0
-272 -147 -284 0
280 203 -168 0
-118 161 56 0
126 -136 12 0
120 276 192 0
-257 4 -172 0
44 -218 -68 0
233 132 -80 0
-9 77 -100 0
-137 50 143 0
-72 -198 -171 0
-67 263 60 0
57 -284 -246 0
-5 263 -147 0
-45 224 -111 0
61 -93 -15 0
149 -240 84 0
-145 -111 239 0
12 -216 -285 0
51 207 46 0
115 163 193 0
-198 -239 111 0
-233 -44 112 0
-161 -202 120 0
-214 165 -196 0
-241 -264 -256 0
32 -218 273 0
264 231 -283 0
171 189 190 0
-175 10 199 0
-181 24 106 0
60 -193 43 0
128 6 243 0
-112 101 156 0
98 -154 -135 0
-212 7 -169 0
254 -274 30 0
-88 -84 274 0
138 -52 -256 0
73 -53 103 0
277 -116 -69 0
285 83 184 0
-166 94 50 0
27 121 38 0
245 65 -218 0
275 25 124 0
281 -245 276 0
242 177 -214 0
207 230 33 0
-219 195 152 0
-195 96 283 0
165 188 284 0
-229 -255 -131 0
33 -173 -137 0
-159 -53 -75 0
122 -231 145 0
167 182 -191 0
-161 13 256 0
-191 161 86 0
223 -103 -207 0
80 -132 252 0
2 -26 -56 0
212 -47 -166 0
206 -234 -194 0
176 68 -35 0
139 -240 -271 0
108 -209 198 0
-73 276 80 0
-88 15 -179 0
148 49 -118 0
-53 118 -212 0
205 41 -285 0
258 16 -132 0
216 164 197 0
-272 -144 -7 0
-187 107 -219 0
-179 -98 -125 0
166 -139 95 0
79 146 -118 0
-119 -115 -210 0
-111 276 -214 0
161 -175 -249 0
16 -46 56 0
-57 168 -20 0
-160 99 -71 0
139 -83 246 0
-98 2 199 0
-284 -151 65 0
-170 188 140 0
111 -28 231 0
112 276 -128 0
249 173 -212 0
-222 238 -213 0
90 253 14 0
-121 284 19 0
-197 179 -157 0
100 40 -2 0
249 -4 -230 0
109 237 283 0
212 266 140 0
-145 141 -11 0
4 44 -284 0
-199 -268 234 0
-143 -149 -29 0
-81 -56 -154 0
6 -168 188 0
4 201 112 0
-193 8 221 0
47 71 4 0
37 128 -262 0
-8 174 -245 0
199 -58 19 0
-113 131 132 0
-78 -119 244 0
-281 197 -248 0
-240 -126 -40 0
-51 250 -69 0
-252 -177 -239 0
-182 200 137 0
-86 125 162 0
-262 258 226 0
250 -179 122 0
-252 195 -185 0
177 -130 -162 0
-144 -116 106 0
125 114 252 0
-212 270 159 0
-284 -40 107 0
259 158 101 0
-197 237 21 0
245 -264 187 0
200 -177 196 0
216 144 -51 0
-97 251 -161 0
203 88 -72 0
149 -126 -88 0
183 -52 -69 0
-195 -36 -30 0
177 -259 137 0
78 -280 42 0
-268 3 119 0
-145 -198 -188 0
-114 -230 225 0
268 156 74 0
251 -174 -55 0
67 -249 -69 0
280 267 48 0
86 281 248 0
-17 135 -262 0
221 162 -206 0
-125 -258 -224 0
-234 -264 281 0
7 170 283 0
201 217 285 0
160 -70 -17 0
-256 -59 1 0
218 78 -166 0
74 -162 194 0
-236 -261 282 0
252 7 -248 0
283 250 -237 0
79 -34 -238 0
145 181 -262 0
216 -129 47 0
73 107 -129 0
-236 -185 -206 0
-75 -184 -39 0
-169 -164 -64 0
242 240 -178 0
-12 -166 -92 0
-121 -100 184 0
26 276 177 0
-250 219 -165 0
-185 -186 -210 0
-196 216 153 0
17 205 -108 0
57 185 -245 0
172 162 -143 0
47 -92 -232 0
-67 193 235 0
-10 -151 263 0
-194 176 -245 0
-59 -178 -203 0
-173 -114 -265 0
-170 -45 44 0
170 106 -178 0
-185 -158 256 0
164 93 107 0
-268 -158 135 0
-168 -2 203 0
-211 -14 -133 0
-58 219 -204 0
122 64 136 0
-43 32 230 0
222 -155 -183 0
-126 218 133 0
-134 -82 -110 0
160 167 248 0
-105 282 21 0
-89 -174 172 0
247 -76 92 0
-22 111 105 0
138 233 -189 0
174 -140 196 0
-99 -17 88 0
-105 -224 -225 0
-56 -275 3 0
-249 -74 40 0
-41 -235 73 0
116 -38 268 0
36 -129 180 0
-67 -82 230 0
-22 86 -208 0
153 94 40 0
224 156 -170 0
-132 203 184 0
-137 -21 284 0
91 233 156 0
103 162 -182 0
-50 -14 155 0
130 -267 232 0
-182 -271 -263 0
140 -255 -62 0
54 -272 -52 0
241 -250 220 0
183 214 134 0
205 244 -66 0
-241 264 255 0
56 -194 -24 0
254 -88 204 0
7 -61 271 0
-246 -264 88 0
-6 37 -76 0
-153 230 36 0
70 -170 -103 0
248 -196 -233 0
-182 193 -27 0
265 243 -247 0
227 -36 -87 0
128 106 228 0
-285 -183 155 0
161 -180 -211 0
-72 147 -251 0
-163 -283 -267 0
-135 22 -92 0
181 179 -112 0
57 -174 -128 0
176 -240 -276 0
-5 199 151 0
-25 -153 275 0
-213 -57 258 0
-252 84 88 0
-67 32 262 0
67 -95 71 0
-248 -269 238 0
127 -70 -33 0
-72 146 -211 0
-267 63 172 0
-221 -192 6 0
-210 -203 -269 0
-205 25 -223 0
72 189 202 0
-195 76 -169 0
278 -52 126 0
90 -224 164 0
267 -16 137 0
-202 -210 162 0
-68 82 193 0
51 212 -250 0
-187 -116 87 0
140 -117 -118 0
134 183 -240 0
126 -207 227 0
-29 -222 -161 0
-192 -54 20 0
103 38 -168 0
-20 -252 151 0
-9 153 -204 0
-137 123 -60 0
-193 -137 189 0
-121 268 -38 0
-230 -257 -145 0
148 230 224 0
151 -7 33 0
-251 122 8 0
235 -55 259 0
253 123 -77 0
-219 124 -98 0
-33 189 -72 0
-78 -127 -170 0
233 148 -251 0
-76 225 105 0
-205 -102 -107 0
215 88 -29 0
-125 282 224 0
-51 41 164 0
-105 -85 245 0
-141 -153 -243 0
32 1 40 0
189 168 -36 0
68 82 266 0
-117 81 -190 0
-264 68 237 0
10 196 -6 0
-226 -233 19 0
-25 275 199 0
45 -191 -172 0
99 -66 -42 0
-86 117 -125 0
-277 266 136 0
-156 -44 -29 0
77 -187 148 0
-111 277 -35 0
-229 195 103 0
-157 -223 -139 0
-248 88 -278 0
48 278 60 0
-70 186 -165 0
-36 22 -282 0
155 50 -157 0
-200 -141 198 0
-28 127 85 0
11 173 198 0
-1 267 -160 0
25 73 39 0
-13 -243 143 0
55 278 209 0
-116 241 -173 0
208 52 -37 0
264 -201 26 0
221 -9 257 0
57 186 174 0
231 -211 -93 0
-235 153 -207 0
234 132 -208 0
-34 -129 -66 0
-96 193 -227 0
20 253 130 0
-135 215 -37 0
-183 -31 -273 0
-81 -243 73 0
-130 -90 238 0
282 175 182 0
71 -1 143 0
80 -107 178 0
20 -59 -110 0
41 66 -23 0
-228 -48 29 0
158 -166 41 0
97 188 33 0
114 139 -178 0
-269 -246 -40 0
200 123 139 0
-124 -66 137 0
-172 217 150 0
142 -178 261 0
256 -210 -240 0
-164 -274 -130 0
-150 219 48 0
171 66 134 0
82 -104 117 0
52 240 160 0
109 -178 78 0
-7 -121 145 0
230 278 -70 0
273 -54 -28 0
-98 -248 -66 0
-187 -161 32 0
-213 -122 -264 0
-12 -60 -157 0
-59 103 -174 0
46 -184 -47 0
-233 273 43 0
-263 -203 201 0
252 -15 -233 0
-72 217 -59 0
-85 -107 182 0
-196 -160 193 0
133 -212 -73 0
134 115 8 0
280 -33 -51 0
-188 84 40 0
-57 262 -12 0
-203 -198 -24 0
169 110 -89 0
-278 -4 -240 0
-117 -253 -81 0
34 -159 186 0
42 130 -240 0
284 105 162 0
272 155 216 0
-118 -154 -128 0
-152 -268 -97 0
238 -119 262 0
-247 141 -172 0
-15 -155 -152 0
86 228 152 0
6 4 -252 0
-133 -60 -27 0
-114 36 -85 0
193 85 243 0
-247 -106 195 0
-177 228 208 0
-119 -140 -17 0
-132 49 -38 0
-98 192 -59 0
177 -281 4 0
28 -174 141 0
-7 153 -120 0
-105 -211 138 0
221 73 -279 0
260 247 -16 0
-41 -195 261 0
95 218 -124 0
76 210 18 0
-245 238 23 0
-252 -236 261 0
-135 -272 -75 0
156 16 -84 0
284 230 -221 0
-59 22 274 0
-88 116 -21 0
204 -269 -243 0
168 -127 -115 0
-122 -274 3 0
55 83 -162 0
89 185 -257 0
237 -175 -64 0
173 86 -99 0
-110 -187 -12 0
-87 -22 181 0
-104 -285 -202 0
-55 75 -104 0
-161 -282 -204 0
279 146 -263 0
-11 -269 31 0
-27 274 257 0
268 247 151 0
-185 136 224 0
-41 4 261 0
-154 -54 74 0
-5 -48 151 0
-203 1 182 0
84 234 -120 0
279 -284 209 0
-80 -150 -103 0
180 131 -83 0
14 -15 148 0
279 -32 -151 0
141 208 -207 0
-55 191 155 0
-206 170 56 0
-117 245 264 0
-198 61 273 0
111 -243 -44 0
-14 -5 282 0
154 -279 211 0
279 104 143 0
196 -102 176 0
135 -159 67 0
-179 224 244 0
-170 -231 210 0
-12 265 192 0
-13 -152 -122 0
-32 -130 -191 0
-134 111 -254 0
80 -118 283 0
10 -219 164 0
97 46 193 0
-233 -227 268 0
18 108 232 0
-122 142 272 0
-241 234 248 0
-165 -103 -257 0
-193 -14 -187 0
236 274 -82 0
183 124 -9 0
-153 -182 -36 0
78 -33 -182 0
196 -80 32 0
-15 -128 -88 0
-217 194 -279 0
-256 194 -205 0
241 -77 -141 0
233 31 84 0
162 3 -172 0
81 128 48 0
251 -67 -285 0
-212 104 -279 0
126 154 9 0
10 272 134 0
146 264 -204 0
-199 120 273 0
-162 88 -193 0
-55 58 -89 0
-209 -282 -7 0
-134 167 162 0
-80 -151 -114 0
98 211 202 0
193 -154 112 0
-29 -92 190 0
-215 -164 -23 0
195 -188 135 0
203 238 -284 0
238 -57 225 0
-60 -134 -67 0
-174 283 -158 0
274 194 95 0
-84 279 -166 0
3 -26 132 0
-278 115 -221 0
241 -48 132 0
-238 -176 -22 0
-9 273 -192 0
200 -4 -141 0
64 177 -100 0
175 -264 95 0
-45 250 168 0
75 -72 11 0
185 -80 -90 0
-6 125 143 0
-90 188 -185 0
-229 -17 26 0
-212 58 104 0
-69 270 71 0
-230 -179 -137 0
-172 -261 73 0
-11 -266 112 0
-93 214 116 0
-236 -83 176 0
-75 47 -64 0
-265 253 275 0
-158 -212 4 0
-24 -15 152 0
9 188 224 0
-197 165 158 0
49 172 37 0
-117 49 106 0
63 213 -116 0
32 -242 -107 0
-103 25 123 0
23 78 279 0
232 -265 -6 0
-166 -220 -250 0
-132 -103 40 0
84 154 -238 0
-62 58 -107 0
-275 205 184 0
-80 -50 -159 0
-232 177 81 0
-215 85 -264 0
233 -138 -6 0
-54 -254 -84 0
-79 -237 46 0
59 -203 185 0
283 131 222 0
204 87 212 0
151 203 -87 0
38 110 248 0
30 -135 -227 0
-153 -96 198 0
184 -202 -153 0
179 -123 35 0
117 -24 -49 0
100 -263 -170 0
94 -283 70 0
80 117 -9 0
179 156 28 0
-285 74 -25 0
60 -259 -106 0
-28 130 -253 0
17 -140 -170 0
275 -129 96 0
130 127 -121 0
-179 -81 -202 0
-8 -84 139 0
93 -138 -260 0
221 154 -216 0
81 -140 196 0
-189 -125 -12 0
-275 239 -268 0
269 8 -156 0
4 183 5 0
-149 -203 -257 0
-229 -8 152 0
145 192 -228 0
168 -63 -250 0
32 -57 -91 0
222 -191 93 0
108 79 122 0
45 216 32 0
121 29 9 0
-55 -5 117 0
-25 -97 -58 0
27 -44 -136 0
-146 220 -263 0
-147 139 11 0
59 -283 89 0
231 137 50 0
58 -221 -274 0
-153 -263 -170 0
-114 96 -179 0
-42 -274 -136 0
-143 -228 175 0
193 -123 -156 0
251 -114 222 0
188 -148 -279 0
-25 -69 251 0
-218 103 -210 0
232 135 7 0
108 -107 172 0
44 74 -145 0
222 216 132 0
247 54 -167 0
181 -14 -133 0
179 -149 -144 0
-259 -176 -113 0
-116 3 -26 0
126 -60 122 0
-123 -78 -102 0
-126 -104 -272 0
-35 -85 99 0
61 270 274 0
-160 -126 -125 0
100 -6 218 0
101 -29 -117 0
44 -178 -203 0
-155 181 -145 0
252 -263 -54 0
-282 -140 271 0
-160 180 128 0
-114 43 -118 0
175 -234 -69 0
-211 278 71 0
-212 -8 118 0
121 -211 -285 0
224 -200 -130 0
-141 -227 -98 0
-213 -55 -52 0
-19 169 69 0
-230 -24 229 0
123 -253 178 0
138 -227 221 0
246 34 -203 0
75 165 64 0
51 207 -205 0
-10 -165 106 0
-174 -224 -100 0
-216 95 274 0
151 176 -49 0
26 91 -127 0
-278 238 -251 0
242 -270 -245 0
-129 -71 176 0
-215 -121 -60 0
-84 -233 78 0
-282 128 -270 0
-125 -223 -45 0
-46 -155 104 0
-176 154 283 0
-88 -65 -53 0
160 -107 -100 0
-230 58 -255 0
-75 87 135 0
-190 146 -77 0
-211 -121 -33 0
241 -96 -26 0
201 22 -159 0
-82 34 -112 0
-13 -112 -138 0
-180 112 172 0
-103 49 65 0
-32 114 -140 0
-210 -115 41 0
-172 -264 -142 0
-79 21 -45 0
-225 -11 -168 0
-168 -268 -207 0
147 -30 -128 0
141 -95 -233 0
-206 65 188 0
214 -257 222 0
-169 -125 6 0
-125 -276 85 0
57 -34 -13 0
193 -50 -70 0
-22 -171 -134 0
110 221 -88 0
189 108 97 0
-58 -91 -7 0
116 172 101 0
-105 32 56 0
-145 -250 199 0
192 269 25 0
-195 -72 -75 0
-177 145 87 0
40 -50 23 0
-77 -219 82 0
174 -204 -132 0
230 70 -157 0
73 -87 -200 0
224 -84 37 0
-162 -243 275 0
4 78 -200 0
117 -144 20 0
-244 163 146 0
-92 -284 243 0
-2 251 -17 0
-80 63 78 0
-106 -275 -281 0
110 193 173 0
139 -270 -186 0
178 71 251 0
-182 11 -12 0
-64 50 136 0
3 201 254 0
87 -2 -183 0
38 17 -2 0
-156 -78 233 0
-159 129 -15 0
176 229 126 0
-138 142 -195 0
-277 -258 -65 0
272 192 71 0
-85 -84 139 0
-261 115 18 0
127 -38 151 0
54 -49 -203 0
14 259 -87 0
-31 -265 176 0
-121 -120 -180 0
-24 -84 -36 0
206 -73 46 0
139 -130 177 0
-184 -193 91 0
-48 -218 187 0
-125 266 181 0
-188 -231 -121 0
-59 109 -150 0
-189 -223 -15 0
-236 157 -280 0
-4 -282 151 0
168 -80 24 0
65 150 221 0
103 -22 -284 0
73 119 140 0
66 -237 -240 0
-272 213 -162 0
254 -229 -126 0
98 128 -38 0
-131 204 -215 0
-13 -4 26 0
229 34 70 0
-154 -211 -188 0
-199 -138 -141 0
253 1 -276 0
-132 260 -152 0
-120 -254 250 0
59 65 -100 0
-66 285 -120 0
-188 -262 234 0
-135 -99 -178 0
-74 -172 230 0
241 -93 164 0
-20 175 125 0
-10 -109 226 0
-182 -284 136 0
235 213 154 0
282 187 -69 0
50 -216 72 0
276 -49 258 0
110 -243 16 0
-276 41 -131 0
222 97 189 0
277 -204 42 0
-219 -111 50 0
-34 271 -32 0
146 -205 183 0
-246 77 284 0
-156 -6 -126 0
-25 -122 -206 0
-82 -282 -279 0
-47 105 270 0
193 -5 11 0
166 -67 247 0
-208 266 -211 0
-111 -112 -113 0
179 -185 177 0
185 217 284 0
124 -222 -279 0
-267 -163 266 0
-32 259 57 0
-136 -270 -61 0
112 -275 -173 0
93 242 -261 0
41 30 253 0
-262 97 -177 0
264 22 71 0
-95 24 -230 0
136 -19 75 0
-121 238 -265 0
101 104 102 0
-13 -113 248 0
206 -191 103 0
-92 18 100 0
15 -249 192 0
157 -46 -17 0
269 -202 246 0
