p cnf 285 1214
-116 106 90 0
113 54 -92 0
53 242 -158 0
-215 -194 92 0
-88 -125 -153 0
155 62 282 0
62 -133 -113 0
-115 110 208 0
-170 -95 257 0
-217 -201 -77 0
-263 157 -136 0
-171 -217 60 0
133 273 164 0
87 272 -221 0
-279 17 -81 0
46 49 -13 0
264 -42 -222 0
-99 -18 11 0
89 270 -221 0
-87 -69 -200 0
68 52 -59 0
34 240 -272 0
210 31 -4 0
-150 2 79 0
199 -131 -59 0
251 186 -157 0
-90 40 -194 0
-149 87 -37 0
36 126 -127 0
220 22 233 0
226 -93 45 0
-232 -204 -142 0
-272 278 -185 0
134 -167 162 0
118 105 -189 0
-87 108 264 0
-268 -124 83 0
267 25 170 0
-246 -54 -177 0
126 -161 -173 0
232 75 250 0
93 270 33 0
77 124 -91 0
-224 185 -243 0
-269 -3 -54 0
84 182 -18 0
161 -108 -246 0
-212 -19 142 0
59 -278 -163 0
-48 182 -260 0
-272 73 -63 0
89 141 -64 0
38 263 260 0
117 4 -235 0
-66 38 -13 0
-180 31 -22 0
-202 174 209 0
-159 -126 284 0
-178 245 30 0
-144 -184 241 0
-183 -157 280 0
-169 165 -277 0
-123 273 71 0
210 -108 -96 0
-258 255 -59 0
-104 252 224 0
-244 177 79 0
144 -85 248 0
36 164 -22 0
257 198 81 0
37 -121 -183 0
-248 274 -24 0
-124 214 67 0
9 127 62 0
-96 -199 257 0
284 92 -200 0
-182 -283 243 0
199 128 147 0
-160 -136 88 0
-121 -200 -245 0
78 62 1 0
142 188 -31 0
239 154 -237 0
-98 271 -274 0
215 -266 170 0
-154 -202 22 0
178 276 -152 0
3 22 -65 0
283 -169 -67 0
203 -42 -221 0
-37 -229 274 0
-200 83 133 0
237 -278 -106 0
-187 -258 -41 0
-9 -96 -194 0
204 -57 -143 0
-269 -212 61 0
-172 -25 -255 0
-95 187 -134 0
139 -97 -205 0
-76 -1 77 0
264 -24 -249 0
281 -3 33 0
-200 52 -150 0
-271 132 126 0
20 -86 68 0
-85 196 -149 0
-136 -31 12 0
163 177 -54 0
-53 -116 -98 0
-123 -72 163 0
120 -272 -187 0
-144 -159 -135 0
259 65 -184 0
179 -260 67 0
-147 -101 -165 0
-31 -127 -264 0
-6 -65 -74 0
170 24 -224 0
41 19 247 0
246 -70 -266 0
-170 111 193 0
-270 -232 -73 0
-191 -71 158 0
262 233 -148 0
-245 -75 -137 0
218 -240 -272 0
98 103 -239 0
-263 -112 74 0
256 2 -13 0
83 -137 -212 0
-117 65 -226 0
164 -79 -168 0
73 -119 213 0
-59 -147 -36 0
54 77 202 0
241 247 -42 0
-53 -224 55 0
-129 134 -67 0
185 -275 183 0
-80 246 22 0
-276 -61 14 0
40 164 222 0
-107 -94 38 0
-53 137 83 0
-151 -239 -189 0
236 241 275 0
29 268 -159 0
250 -106 1 0
202 220 203 0
-255 240 117 0
51 74 -180 0
-284 74 240 0
221 218 -3 0
258 84 80 0
-232 7 122 0
200 -159 -277 0
17 -58 249 0
-258 -218 114 0
-285 -188 -284 0
-63 -221 170 0
42 189 -266 0
176 -153 241 0
-187 231 -217 0
-243 -35 -178 0
281 -253 -39 0
249 117 -141 0
-97 265 -105 0
239 -172 -196 0
-275 -96 -25 0
209 -263 266 0
-69 221 244 0
-91 -216 -20 0
-283 -171 26 0
-70 -153 -220 0
61 48 285 0
195 -215 179 0
-277 -134 185 0
-225 -270 -136 0
-136 -148 70 0
246 103 40 0
-210 105 125 0
-218 -148 -24 0
125 48 63 0
-113 -264 267 0
105 60 208 0
-73 -160 281 0
-235 249 -4 0
254 272 -11 0
56 -113 -66 0
194 -178 2 0
-230 -87 280 0
223 -269 111 0
168 170 13 0
-207 -130 211 0
40 224 105 0
-136 265 58 0
244 -282 -246 0
-120 93 -216 0
80 -141 -2 0
-281 126 34 0
-190 -34 100 0
-52 165 68 0
-249 98 -239 0
-113 -136 -203 0
250 232 -237 0
-179 154 -284 0
173 275 179 0
280 66 60 0
-210 -151 -77 0
266 5 270 0
-267 79 125 0
159 -38 247 0
-167 -84 -79 0
52 266 188 0
99 -169 -65 0
-23 270 -67 0
170 222 -84 0
17 47 205 0
93 151 -196 0
-263 121 174 0
-76 127 -40 0
-115 14 155 0
193 106 -246 0
21 3 -87 0
64 -130 96 0
31 125 88 0
-242 -82 -215 0
191 -140 -162 0
-158 78 259 0
192 -185 -131 0
-182 20 75 0
-128 198 67 0
-132 32 -228 0
-44 -259 240 0
51 82 214 0
-95 -31 7 0
118 -219 13 0
59 -220 36 0
276 -269 165 0
-48 -165 260 0
-241 -250 -128 0
-59 -30 41 0
212 39 -180 0
266 -161 126 0
-276 41 108 0
59 -125 182 0
119 -24 257 0
155 233 -208 0
-259 39 -269 0
273 195 181 0
238 55 52 0
-79 2 177 0
240 226 -64 0
230 -51 132 0
119 197 61 0
-273 -145 -54 0
-265 -245 108 0
77 201 209 0
241 -103 208 0
108 5 118 0
-128 -208 188 0
189 -9 130 0
101 272 -115 0
210 -263 -104 0
-169 -69 -43 0
110 126 -56 0
83 -216 -58 0
-250 -54 -226 0
152 82 -195 0
-24 78 -51 0
172 -102 28 0
-110 65 146 0
267 -167 -47 0
174 -202 208 0
168 234 -132 0
-93 -280 -3 0
249 -19 118 0
-253 279 261 0
61 20 -57 0
-225 153 -228 0
263 -143 -86 0
-285 -65 -231 0
-41 -61 181 0
-86 229 208 0
94 212 -223 0
228 142 -79 0
17 135 -16 0
-60 25 239 0
208 106 139 0
29 283 -162 0
-223 106 57 0
-90 113 -65 0
-60 -235 268 0
184 129 -153 0
29 -220 70 0
-71 -216 -228 0
203 233 111 0
127 -100 31 0
273 -242 63 0
-248 -135 -76 0
239 21 -126 0
220 197 -6 0
22 -152 -18 0
-104 236 202 0
283 -121 -281 0
-277 214 -117 0
205 -128 157 0
68 -196 25 0
-114 9 -52 0
-132 268 265 0
-26 120 -171 0
-253 -111 -58 0
131 -216 124 0
24 -165 214 0
259 273 -275 0
39 252 62 0
57 -37 204 0
-115 -86 -37 0
-171 150 -244 0
87 -31 -95 0
83 -6 -95 0
-41 -120 49 0
-137 101 -5 0
151 -168 -225 0
-278 263 79 0
-106 -226 -240 0
-73 56 -68 0
-36 90 -278 0
-46 34 -47 0
215 29 -122 0
80 -270 -50 0
-272 104 -57 0
42 148 50 0
-10 -1 220 0
-114 245 -238 0
123 -179 171 0
29 85 76 0
-179 259 -150 0
-283 -27 -126 0
-38 134 -166 0
-98 264 213 0
237 -62 45 0
-233 -225 254 0
-149 -150 224 0
-68 25 141 0
-148 -33 -179 0
-155 -231 237 0
81 88 248 0
63 127 -6 0
-263 -92 -117 0
-208 124 89 0
90 -246 -29 0
-179 -27 -208 0
216 116 5 0
191 -134 -200 0
-59 -34 175 0
-54 91 116 0
236 -95 -148 0
-34 -96 101 0
-119 -280 -138 0
171 -230 190 0
-116 -19 122 0
243 276 17 0
-234 30 261 0
-196 -6 41 0
129 237 197 0
182 -249 229 0
-163 -12 116 0
106 -177 -118 0
245 -177 -196 0
-121 208 -228 0
-56 196 -226 0
-103 -174 -281 0
-259 45 -68 0
19 -75 -214 0
-254 77 13 0
130 282 -43 0
40 63 -175 0
111 251 72 0
-208 48 24 0
108 55 -191 0
-104 279 -223 0
139 59 -149 0
-9 208 36 0
163 14 22 0
167 -93 136 0
-58 -44 66 0
9 -24 -154 0
-68 257 256 0
-121 -170 -249 0
-106 -33 -150 0
-269 -277 -22 0
193 96 148 0
-207 244 211 0
141 226 -45 0
200 91 -67 0
-33 74 -168 0
-78 -223 -132 0
172 3 240 0
-82 63 146 0
23 21 -76 0
-150 191 -29 0
207 265 205 0
69 73 -9 0
21 81 86 0
255 -133 -253 0
-109 -171 15 0
-210 252 221 0
133 -13 234 0
88 -179 -7 0
-256 -34 148 0
277 -7 -152 0
-251 -196 -194 0
210 -121 144 0
-94 -16 -97 0
256 142 -203 0
193 201 60 0
15 -267 -6 0
281 -178 131 0
208 5 -211 0
182 -6 -35 0
252 -251 176 0
95 98 -178 0
-32 136 -132 0
23 -27 2 0
133 -52 -193 0
-171 -156 251 0
-32 62 208 0
-81 -101 -284 0
-98 -18 -3 0
-180 34 171 0
65 -43 239 0
-194 -111 -72 0
283 -214 -133 0
32 166 218 0
185 -243 -244 0
-110 -219 -139 0
190 89 -158 0
143 -19 33 0
-130 -79 -135 0
122 -30 270 0
19 -78 246 0
200 -281 -7 0
198 -112 -56 0
28 81 -82 0
-157 -175 6 0
219 271 205 0
96 94 -67 0
259 261 -220 0
16 -257 -12 0
134 -45 -56 0
-148 -19 222 0
-53 -5 -92 0
99 -212 -242 0
-224 -123 164 0
-33 203 -169 0
135 94 -15 0
16 113 191 0
-143 -85 221 0
-16 63 193 0
85 212 149 0
50 72 -47 0
140 85 242 0
178 269 -180 0
-258 -252 -97 0
189 -264 126 0
64 -92 246 0
245 79 -135 0
-120 137 -67 0
-212 -44 -97 0
194 74 9 0
186 148 -240 0
138 -187 226 0
-95 -209 -57 0
136 24 189 0
-181 241 175 0
-76 -214 -218 0
-178 193 33 0
90 -260 -80 0
206 93 -204 0
258 -180 95 0
155 260 112 0
-193 -50 8 0
279 -76 -2 0
-156 162 21 0
233 139 -106 0
46 -22 -145 0
222 -71 -273 0
-142 -171 -124 0
146 65 14 0
-65 -131 227 0
196 -231 188 0
-23 -191 -247 0
-238 -35 -157 0
77 -147 -21 0
-239 -225 229 0
-228 18 64 0
-271 -178 177 0
126 28 81 0
152 -261 148 0
182 -201 -173 0
-151 -271 110 0
-73 49 64 0
-205 222 -61 0
-267 93 222 0
-134 -80 216 0
-244 -254 96 0
98 -160 -11 0
-61 -42 -86 0
44 231 -140 0
-131 -199 48 0
-39 -163 -21 0
163 121 -8 0
22 -20 74 0
43 -21 -230 0
-11 145 -20 0
-213 109 164 0
243 209 -4 0
1 43 82 0
80 -20 -54 0
-100 -88 67 0
-39 61 -29 0
126 57 -285 0
75 -203 -279 0
-265 -231 33 0
-179 158 -218 0
87 -92 81 0
-15 -192 -260 0
229 -21 -169 0
-140 61 171 0
101 -234 37 0
164 -240 -219 0
225 -197 -103 0
159 -280 -279 0
101 -23 -122 0
230 -106 -94 0
-164 33 144 0
69 -130 228 0
-163 30 -245 0
269 271 -113 0
-253 4 271 0
167 -242 15 0
70 56 -218 0
-1 34 76 0
253 136 -271 0
167 -137 -213 0
231 221 102 0
27 247 -57 0
266 -87 -245 0
235 -139 -60 0
139 174 65 0
119 -175 -5 0
101 -13 123 0
182 279 173 0
174 187 93 0
63 -34 107 0
-122 -167 -163 0
88 -255 98 0
-13 -112 -240 0
-85 54 -124 0
25 171 127 0
-7 217 -87 0
-69 122 177 0
-85 160 271 0
7 -129 -196 0
29 -59 -262 0
86 234 28 0
118 231 -279 0
-153 253 -192 0
-259 169 61 0
-166 107 203 0
121 131 270 0
-98 -95 -148 0
-6 -46 -181 0
125 -186 115 0
-269 -167 77 0
253 239 208 0
58 -204 226 0
-184 238 -116 0
90 -47 201 0
-16 -147 258 0
-25 221 77 0
48 120 -238 0
-279 -36 -190 0
-146 -164 190 0
-71 -78 37 0
-212 -255 -76 0
-138 61 190 0
94 157 84 0
-279 114 -28 0
156 -193 -16 0
-109 105 -149 0
101 129 104 0
-258 31 -21 0
166 -100 -143 0
-35 150 -88 0
164 -225 -114 0
-47 -272 71 0
13 -180 -86 0
143 -283 -188 0
-283 -260 188 0
-268 271 196 0
265 7 -65 0
-273 -136 -282 0
156 -96 100 0
-175 -19 -47 0
-253 85 48 0
59 -232 -150 0
90 161 -6 0
-181 254 -205 0
29 -196 69 0
-19 224 -235 0
209 262 217 0
-183 53 -65 0
213 225 -176 0
176 -94 17 0
-252 -281 185 0
186 268 21 0
238 -145 279 0
-5 -168 -73 0
238 24 -192 0
-186 91 -15 0
85 276 -94 0
-279 -22 -33 0
67 -227 -121 0
-230 131 -142 0
74 -130 150 0
-149 279 278 0
245 -246 89 0
90 -130 -242 0
184 -5 -200 0
-66 121 176 0
-72 -107 247 0
141 97 -93 0
137 -128 115 0
-5 -19 163 0
-180 227 -118 0
-237 -163 190 0
55 19 -151 0
264 226 207 0
-86 -11 -21 0
-12 -252 110 0
-237 234 97 0
238 75 67 0
166 193 152 0
-117 -260 -141 0
252 -132 103 0
246 -116 151 0
48 -105 205 0
-67 253 141 0
175 -283 -60 0
239 117 247 0
222 -161 -9 0
-256 -49 -166 0
38 55 -149 0
-189 -188 -243 0
-22 8 -169 0
-150 274 -115 0
269 47 -190 0
160 82 -26 0
-252 270 255 0
184 -82 -25 0
-173 277 26 0
171 -49 -174 0
-249 33 -35 0
-137 -22 -122 0
-58 -18 72 0
-49 143 -267 0
-205 -26 -151 0
282 -112 95 0
-227 25 93 0
-8 100 -57 0
-46 227 132 0
188 -230 -212 0
264 -56 -228 0
70 126 36 0
-100 -15 -205 0
208 263 128 0
201 -77 40 0
249 -157 3 0
203 -261 125 0
-89 208 -40 0
145 -4 30 0
-185 -153 -284 0
-99 -253 169 0
-150 -133 -142 0
274 -269 252 0
-25 33 -28 0
-73 210 -158 0
40 -118 112 0
-173 5 285 0
197 93 136 0
-17 -194 -206 0
40 -103 -245 0
59 240 -128 0
82 173 123 0
215 76 -213 0
-33 -83 111 0
-64 -185 -203 0
-158 -194 243 0
-61 268 -27 0
227 200 -282 0
159 -253 -134 0
-188 -205 84 0
18 -262 -23 0
220 48 208 0
-221 114 92 0
226 -262 -238 0
38 199 17 0
171 282 -140 0
71 -144 -217 0
-81 -279 242 0
285 -212 162 0
-19 192 206 0
-150 218 124 0
83 78 221 0
54 207 -246 0
-236 94 250 0
-160 23 -163 0
139 -76 106 0
-133 -235 -157 0
261 96 208 0
-50 200 -173 0
-100 -89 -241 0
250 90 65 0
159 -158 7 0
188 -175 -18 0
-247 66 -86 0
-23 -219 216 0
-112 34 -48 0
271 159 6 0
196 281 -217 0
233 9 147 0
210 -111 -280 0
-113 -284 -107 0
-152 -1 -57 0
57 -193 283 0
156 -56 -45 0
144 -264 170 0
82 -104 -154 0
-217 -166 13 0
-59 82 -139 0
58 -119 32 0
153 -110 240 0
-254 -171 127 0
-117 224 -281 0
202 95 -67 0
-153 -262 45 0
241 -123 -1 0
205 -227 -76 0
214 -183 -17 0
26 82 246 0
-164 279 140 0
91 251 172 0
154 -46 -244 0
217 37 32 0
-90 -147 33 0
-79 -254 -71 0
-139 252 254 0
273 -168 -10 0
210 255 213 0
132 225 -37 0
127 -115 -112 0
35 -283 88 0
-5 -282 -247 0
61 242 138 0
-4 117 282 0
-228 -182 -173 0
-258 129 232 0
42 14 146 0
9 165 117 0
-280 -3 -92 0
148 -164 216 0
-282 81 276 0
-61 -65 33 0
152 -96 1 0
73 -109 75 0
98 127 -4 0
-131 44 -198 0
-101 97 -260 0
228 -28 53 0
166 -183 -12 0
-265 -78 263 0
165 -90 -145 0
-252 134 -91 0
105 79 195 0
17 -16 60 0
-239 192 104 0
-242 -45 41 0
146 -4 71 0
10 218 -183 0
1 231 -277 0
34 -155 -238 0
-28 113 -245 0
241 188 -89 0
-276 -132 221 0
-154 38 -216 0
-252 114 -66 0
247 -87 -283 0
273 -187 -211 0
-4 276 62 0
266 -252 163 0
92 43 -3 0
-25 -114 69 0
-255 -175 223 0
19 -199 -33 0
198 -5 15 0
-15 -175 -192 0
3 -108 -110 0
22 120 176 0
283 -129 -68 0
-174 -225 -219 0
283 -24 76 0
-28 11 -27 0
179 -130 94 0
-280 -217 175 0
-140 111 -97 0
-247 75 -173 0
271 -162 -168 0
25 -70 -86 0
227 80 -19 0
-122 19 175 0
-160 -96 -63 0
223 -92 -82 0
-263 -91 -178 0
268 -210 -120 0
13 187 -175 0
208 207 141 0
-90 26 260 0
92 161 51 0
138 -245 42 0
-273 146 -53 0
153 87 200 0
138 -195 -164 0
-223 -75 -99 0
-202 113 8 0
-78 149 -220 0
-159 -124 183 0
-266 -216 199 0
-232 -196 -270 0
248 -23 88 0
149 -276 158 0
12 -285 -148 0
-255 -228 105 0
-80 -89 -274 0
-38 88 233 0
-235 -73 -128 0
52 249 35 0
-257 -283 90 0
163 -177 239 0
242 189 -72 0
111 -172 -200 0
-57 194 246 0
124 230 206 0
229 109 -219 0
-164 -107 249 0
-159 126 -124 0
116 -196 -178 0
-73 -83 162 0
220 -40 -177 0
-167 220 101 0
-60 -222 116 0
-175 156 123 0
209 130 -214 0
-135 -150 -272 0
-275 -281 -74 0
192 72 36 0
-190 -207 277 0
254 -117 -211 0
90 -47 -50 0
139 253 115 0
95 39 -46 0
146 68 -110 0
-199 -30 -27 0
223 243 -131 0
254 37 -183 0
4 -240 -69 0
-68 -40 16 0
-226 172 -22 0
-232 -152 -86 0
-274 24 140 0
-235 -232 -146 0
163 125 -242 0
-249 203 -276 0
116 166 -143 0
-89 -145 -50 0
52 -119 -152 0
-193 76 -78 0
-154 259 33 0
67 251 -206 0
-6 278 256 0
-21 -6 197 0
-151 -125 -37 0
152 127 -90 0
120 8 156 0
27 283 54 0
130 -230 -55 0
147 134 188 0
159 265 215 0
152 187 -255 0
157 -283 -65 0
10 -14 285 0
-58 47 239 0
141 -29 -108 0
-155 123 192 0
109 -93 73 0
285 200 -266 0
-201 -144 -153 0
23 -61 266 0
92 25 -195 0
5 -63 209 0
183 -146 147 0
-219 253 -202 0
-43 197 81 0
-64 -132 -131 0
155 72 -217 0
-166 14 37 0
244 260 -77 0
273 182 -86 0
273 -110 2 0
-148 -24 74 0
-140 199 -124 0
211 -27 -167 0
111 -227 14 0
216 265 134 0
-253 -144 -92 0
-39 -135 -280 0
20 -6 -112 0
-55 284 23 0
-285 -128 81 0
189 -164 29 0
98 -53 -207 0
152 -170 -68 0
-244 148 84 0
-266 -193 189 0
-63 -170 120 0
226 -102 12 0
-118 91 6 0
-167 275 -202 0
232 1 93 0
227 -247 -67 0
266 -13 233 0
-113 106 -116 0
20 125 -270 0
-130 -68 283 0
201 -212 -110 0
-193 -30 133 0
-203 241 -104 0
-242 216 40 0
192 -177 68 0
98 133 125 0
-203 -279 8 0
254 -213 -231 0
-155 19 23 0
-82 -261 273 0
92 -62 264 0
-66 249 138 0
203 131 -246 0
-144 -39 -68 0
-187 134 -158 0
178 111 229 0
-256 257 170 0
-206 149 269 0
90 127 152 0
-204 -260 56 0
-178 274 -8 0
162 107 60 0
-125 87 -21 0
108 156 -76 0
275 106 204 0
-127 196 265 0
-212 -66 167 0
277 -160 -14 0
228 234 170 0
182 -221 -64 0
-121 -100 176 0
48 -129 79 0
184 -278 110 0
-169 -274 -122 0
126 55 -138 0
179 236 165 0
6 -193 -18 0
251 -12 -121 0
-64 -48 3 0
204 232 280 0
217 -256 -116 0
-73 -53 -268 0
263 -23 42 0
10 182 6 0
107 6 -48 0
-144 -7 70 0
-60 263 180 0
255 168 -145 0
-39 -138 -13 0
169 37 233 0
-103 -114 -159 0
-195 223 206 0
-158 266 -53 0
194 103 -129 0
74 -184 23 0
244 -42 -122 0
-99 48 191 0
-251 -139 -108 0
132 -213 186 0
-242 -15 -82 0
-90 176 -148 0
194 196 -44 0
222 88 116 0
28 -19 97 0
132 -121 89 0
39 117 139 0
-202 -138 -34 0
-261 219 118 0
262 -122 -147 0
193 256 -93 0
-193 -109 6 0
169 -86 -136 0
-41 -62 11 0
58 258 -253 0
-228 -123 237 0
239 111 -267 0
63 -61 -183 0
249 -252 163 0
212 -41 22 0
52 36 -64 0
46 -71 -256 0
259 79 239 0
126 134 -55 0
-18 -223 -258 0
182 -225 -203 0
-112 -58 16 0
84 -89 180 0
-207 194 113 0
-236 120 40 0
28 60 245 0
-112 274 86 0
88 -272 120 0
184 196 159 0
281 -258 1 0
184 -2 216 0
194 -238 68 0
-136 263 284 0
22 -241 261 0
280 90 105 0
-179 -212 230 0
-160 -10 -162 0
-18 178 65 0
262 207 -7 0
189 24 -128 0
-119 -1 10 0
37 -36 -188 0
210 -119 -32 0
115 127 152 0
-66 190 76 0
13 255 -220 0
-81 59 53 0
-88 154 8 0
-256 -113 -126 0
-196 -175 44 0
-262 -76 274 0
-235 79 15 0
-209 -225 -73 0
-46 -3 -249 0
-226 130 -239 0
-190 -251 -94 0
-178 272 -82 0
154 175 198 0
-238 148 136 0
186 14 40 0
-227 112 36 0
277 -115 244 0
256 -5 71 0
218 25 196 0
-92 11 -160 0
166 141 -72 0
-171 141 82 0
138 -222 -32 0
69 260 -174 0
-92 -130 121 0
-241 67 -225 0
243 271 40 0
139 249 104 0
196 205 256 0
-182 -19 -88 0
-175 -30 206 0
-151 53 29 0
16 215 -114 0
26 112 -6 0
-26 11 66 0
-109 -51 -96 0
-135 -72 69 0
125 51 -248 0
-39 -47 -112 0
-277 134 272 0
-90 261 210 0
57 276 -8 0
69 -100 -163 0
7 -32 -93 0
55 -67 -166 0
-278 -128 178 0
-152 -229 203 0
-4 156 -171 0
-127 231 -262 0
133 -273 -79 0
-94 109 263 0
-108 272 91 0
-269 275 -185 0
-146 209 -112 0
-131 -284 25 0
199 121 -135 0
-285 -202 -226 0
-33 -47 29 0
-151 285 264 0
-69 -50 -201 0
167 -105 61 0
283 -107 -32 0
157 -166 90 0
140 212 -26 0
-8 35 184 0
189 -271 274 0
-14 188 -260 0
150 202 -213 0
-282 -220 -209 0
135 12 -168 0
243 -18 -2 0
-160 134 72 0
38 101 -227 0
-105 -241 61 0
236 -118 125 0
-152 162 115 0
221 124 -282 0
-154 -28 -252 0
102 250 -208 0
215 177 159 0
190 89 -160 0
244 -43 -174 0
-54 187 -153 0
-142 182 119 0
195 95 51 0
-267 -172 41 0
-30 -230 21 0
243 -9 127 0
8 148 234 0
203 53 6 0
244 158 22 0
127 178 -92 0
-144 147 -60 0
267 -278 -18 0
-164 -269 -264 0
-76 38 3 0
-209 128 252 0
-201 -131 -105 0
-178 -259 33 0
-116 117 252 0
128 262 201 0
-206 -26 -71 0
157 -93 -189 0
-41 154 194 0
38 169 -150 0
-134 -9 251 0
-169 275 80 0
-161 225 -143 0
-103 -60 -214 0
-153 67 207 0
-26 217 -132 0
163 -200 -233 0
256 -238 -82 0
102 -129 -49 0
-201 -78 193 0
256 -120 -230 0
199 181 -144 0
-9 -274 -82 0
44 83 103 0
-26 -276 -54 0
-230 229 181 0
271 -285 -105 0
260 173 149 0
167 -243 190 0
58 127 -135 0
-33 -39 -95 0
209 -119 1 0
-161 -260 97 0
-152 -60 261 0
110 277 -137 0
-169 59 147 0
113 275 187 0
-55 91 105 0
271 29 88 0
34 -12 19 0
31 198 -71 0
135 101 22 0
-124 -127 131 0
-53 -6 -63 0
-24 -262 -213 0
-71 185 141 0
-140 31 -171 0
-250 -50 -137 0
208 131 150 0
62 249 -82 0
-173 194 257 0
-13 -213 -209 0
-187 -149 226 0
-62 -215 90 0
163 -50 -38 0
284 -156 45 0
-166 87 192 0
282 57 -77 0
-246 -152 -208 0
-228 -73 -118 0
62 11 -255 0
27 -183 94 0
24 -55 -177 0
-73 -19 -62 0
