p cnf 285 1214
-192 156 5 0
-16 137 -125 0
191 -108 -19 0
-211 -145 -144 0
171 61 -45 0
-181 270 239 0
41 78 168 0
-26 -163 -25 0
-270 -265 164 0
51 -239 104 0
-130 35 256 0
128 -156 -91 0
-30 -119 -73 0
-230 220 -134 0
-193 197 51 0
9 -72 -23 0
134 247 148 0
-125 74 -285 0
270 105 -58 0
81 -139 -214 0
219 109 -137 0
-25 -285 -58 0
-254 -78 247 0
-135 -130 -158 0
131 66 -237 0
-1 116 199 0
273 -160 -21 0
-207 -19 30 0
269 250 -260 0
23 -42 164 0
278 202 -111 0
-175 192 160 0
-5 276 -178 0
36 -113 150 0
214 58 96 0
-30 -78 -124 0
-237 238 -143 0
166 90 134 0
61 -251 128 0
232 91 51 0
-264 -15 -182 0
-165 70 -215 0
23 -159 -131 0
-64 -152 65 0
-143 220 107 0
29 -160 -224 0
-214 -239 -62 0
144 -169 205 0
-209 -54 -264 0
219 65 -42 0
-79 73 66 0
-96 128 196 0
-36 -102 79 0
-221 208 -48 0
-283 33 -66 0
260 104 -109 0
-257 48 135 0
-9 -30 216 0
37 213 108 0
111 -132 -180 0
-57 -117 -155 0
-262 -29 232 0
-147 -6 62 0
-211 216 252 0
207 -256 41 0
-72 -232 210 0
-257 -186 77 0
-226 -268 129 0
-282 -6 86 0
-261 230 42 0
-97 -78 -134 0
35 105 101 0
142 -175 15 0
-92 -97 154 0
-70 237 -45 0
188 -65 277 0
146 69 -6 0
-136 219 -65 0
-174 207 -148 0
-33 -109 -244 0
284 -40 103 0
-237 116 95 0
94 19 -1 0
-119 -284 -234 0
-121 224 112 0
202 49 -130 0
-238 77 170 0
-48 223 93 0
152 252 -239 0
271 -182 -188 0
147 14 -36 0
-223 268 -113 0
248 33 -122 0
25 43 -121 0
207 27 -70 0
-36 -255 102 0
13 -58 -185 0
-148 191 -177 0
187 -17 206 0
269 80 -266 0
274 223 -209 0
-150 259 -12 0
-15 -274 204 0
204 65 243 0
95 151 -72 0
205 56 170 0
-276 -95 -31 0
213 -40 -53 0
233 29 -19 0
242 -168 194 0
133 -239 36 0
-121 -178 11 0
238 -155 -232 0
186 154 -149 0
159 171 14 0
33 -260 76 0
153 194 204 0
-160 9 -35 0
-142 -107 54 0
-169 -203 -67 0
-255 126 18 0
-169 -38 100 0
-237 67 252 0
248 -239 -129 0
-136 14 -55 0
144 147 -162 0
-147 249 -255 0
9 237 167 0
168 222 234 0
29 -220 -208 0
-89 -257 276 0
59 10 -72 0
177 273 43 0
-115 166 270 0
233 -22 47 0
-219 -111 261 0
151 -53 -257 0
-133 -234 -47 0
57 77 242 0
107 -38 -109 0
-113 -214 193 0
51 -147 -70 0
-258 -239 263 0
-68 -200 251 0
-182 -16 -156 0
-194 169 104 0
-73 -124 -117 0
-281 -122 16 0
-75 -118 218 0
-243 -20 -3 0
-34 -226 -127 0
-266 -206 135 0
-248 -82 -110 0
-99 -119 -234 0
122 13 194 0
212 -174 243 0
-6 269 -9 0
29 -275 -183 0
-216 -54 -230 0
267 -12 -14 0
90 201 -221 0
94 34 14 0
-95 104 110 0
82 270 -206 0
-1 256 12 0
-62 -173 -126 0
123 230 107 0
58 52 -60 0
105 -43 -1 0
-146 -215 102 0
-196 -197 277 0
-151 204 234 0
-284 -91 111 0
-89 220 -87 0
-211 -128 145 0
-221 -188 -119 0
-102 211 85 0
-214 -199 55 0
-109 -260 -203 0
241 121 -1 0
163 -245 1 0
-224 -217 169 0
-41 72 124 0
79 -218 17 0
249 -36 -5 0
-112 215 -189 0
-76 120 -106 0
-284 -229 -33 0
-60 -221 135 0
-6 169 -274 0
141 -5 157 0
273 17 -213 0
-97 275 211 0
232 -226 13 0
-254 131 -227 0
-51 -150 193 0
-37 -17 140 0
246 215 -244 0
-30 237 132 0
201 -132 142 0
-125 -237 -216 0
-166 29 -143 0
61 -167 -230 0
-9 -74 172 0
-49 -182 -278 0
-10 258 -86 0
47 205 81 0
-121 163 156 0
-222 281 -175 0
167 26 205 0
-265 259 17 0
15 248 -236 0
181 -271 88 0
257 227 -149 0
196 57 -70 0
33 157 -165 0
-72 -246 -130 0
-88 240 -145 0
94 -241 257 0
129 -176 -274 0
-53 189 -265 0
272 -74 -252 0
-169 269 241 0
143 -233 72 0
-82 -222 80 0
99 -247 48 0
-197 23 -16 0
-46 -282 180 0
114 -107 3 0
132 -275 -67 0
158 148 -165 0
155 -219 269 0
157 -121 160 0
-47 161 -56 0
-183 70 -49 0
-70 -214 94 0
-48 -95 98 0
-110 -224 -91 0
-150 -257 157 0
-214 241 -194 0
86 15 157 0
268 -195 13 0
-166 -241 250 0
231 -68 46 0
-123 -118 -282 0
-21 -155 237 0
198 241 -82 0
-261 -212 -39 0
-226 -140 -69 0
249 4 215 0
-241 -145 219 0
27 196 -70 0
-119 272 237 0
-111 201 -31 0
-275 60 58 0
34 -126 -78 0
-92 -71 281 0
28 82 -29 0
129 -227 167 0
-215 -160 -179 0
187 -13 -76 0
71 106 -117 0
285 -265 -241 0
-222 -235 -249 0
90 230 264 0
254 81 -210 0
-236 55 -33 0
-131 180 -81 0
121 131 214 0
-209 -117 -189 0
-117 -131 -37 0
-127 -229 -8 0
-177 110 262 0
265 71 -86 0
-196 116 -151 0
-270 211 -104 0
75 74 -172 0
103 30 -80 0
-181 172 155 0
-228 -215 -282 0
-106 268 8 0
87 124 21 0
-12 222 53 0
242 -55 -48 0
-144 -4 216 0
26 -253 -7 0
28 -12 -123 0
177 191 -85 0
86 141 -150 0
72 -37 -76 0
-45 25 57 0
105 169 177 0
-69 -115 -24 0
50 122 -170 0
-69 164 -202 0
-227 121 88 0
-24 -150 -279 0
255 148 -232 0
-269 233 177 0
136 -182 -54 0
195 -83 -65 0
103 -251 170 0
-106 280 207 0
166 -157 -44 0
-44 -55 -36 0
-30 276 -38 0
87 125 -271 0
4 -271 226 0
-123 172 -14 0
-43 102 -139 0
-58 153 100 0
2 191 77 0
-202 157 -8 0
150 -160 213 0
-214 275 -64 0
114 -20 177 0
55 157 -115 0
192 -119 271 0
238 10 131 0
-47 159 29 0
-91 -116 108 0
-283 261 -4 0
7 -132 -166 0
252 -170 9 0
-22 137 175 0
210 -36 157 0
-99 117 -50 0
212 -22 -21 0
-223 -133 -111 0
-228 -73 224 0
97 185 -193 0
219 -178 84 0
-99 -117 78 0
177 268 112 0
221 30 111 0
-33 212 145 0
180 254 -218 0
-174 234 -244 0
72 61 80 0
-170 -14 -64 0
10 25 -22 0
87 266 185 0
-102 -214 -52 0
118 183 -120 0
-92 282 148 0
-242 145 225 0
-65 -80 -86 0
-4 -280 -65 0
-106 135 199 0
-216 -102 -270 0
217 130 192 0
199 173 39 0
272 24 -253 0
-43 216 -160 0
-172 -266 -214 0
-170 126 217 0
-250 186 -158 0
161 117 -178 0
234 171 115 0
-161 81 -101 0
229 -28 8 0
-11 -267 248 0
234 -249 -121 0
212 -29 -72 0
-171 -4 -114 0
-174 157 -101 0
-188 55 131 0
80 202 -97 0
223 -169 226 0
199 -69 -5 0
160 54 -153 0
202 -108 267 0
129 -45 145 0
-71 142 -228 0
75 104 -72 0
159 -182 -134 0
-259 152 147 0
88 -160 255 0
281 -31 -164 0
-157 196 253 0
-117 -156 -269 0
-20 -159 -242 0
-146 89 -62 0
-47 219 -246 0
42 17 156 0
-281 266 -284 0
-173 -43 -255 0
-263 -195 35 0
-44 32 34 0
171 239 211 0
147 -110 -174 0
-148 -256 -178 0
-262 146 -215 0
102 -89 45 0
-251 -233 -123 0
237 -242 -35 0
-168 116 -93 0
273 -82 71 0
-174 229 251 0
-44 -206 -147 0
55 192 121 0
155 -57 -4 0
224 68 -250 0
-50 258 13 0
61 55 -241 0
189 56 126 0
-72 -55 -285 0
205 38 -103 0
71 150 -61 0
-107 -11 242 0
-170 250 140 0
128 222 101 0
-59 -69 -68 0
-5 -124 -15 0
-233 6 -262 0
-116 -20 -241 0
-215 -222 -258 0
-171 -160 51 0
-209 93 150 0
132 -179 53 0
222 160 -144 0
-136 -145 -164 0
-209 47 -93 0
-163 -186 194 0
54 243 192 0
-235 -46 -97 0
138 -86 167 0
14 -165 -76 0
-201 136 -246 0
5 39 -244 0
-110 29 -153 0
47 -44 -147 0
145 274 -5 0
155 -129 -242 0
101 -192 97 0
241 -182 -244 0
-220 37 59 0
67 38 -100 0
217 114 251 0
62 -123 -134 0
-58 11 -36 0
74 24 -170 0
-128 -260 -222 0
194 115 108 0
237 33 113 0
143 -246 218 0
138 -168 260 0
161 130 -168 0
87 125 -44 0
95 -98 83 0
-256 149 101 0
266 28 153 0
53 98 54 0
190 -232 -72 0
120 210 158 0
214 -91 110 0
151 218 -19 0
-96 -213 34 0
200 -1 183 0
78 142 -25 0
-64 -63 137 0
-34 -212 -104 0
-154 -181 44 0
32 12 -27 0
8 229 -10 0
126 280 66 0
101 -280 -64 0
121 46 -127 0
-59 177 -192 0
284 -247 101 0
-162 -187 75 0
245 201 262 0
10 150 -65 0
-251 -35 256 0
-115 -195 -111 0
45 -34 -248 0
-218 -272 -221 0
-243 85 -255 0
-125 273 -128 0
219 19 -199 0
-214 -190 260 0
245 -284 -94 0
-261 -192 -51 0
-228 261 -262 0
-277 -5 -247 0
-158 94 -59 0
2 -76 -5 0
-41 -128 233 0
178 -224 167 0
16 254 -200 0
-161 30 -189 0
-114 87 -272 0
-120 40 -108 0
-185 168 -88 0
61 -50 -98 0
275 -229 -131 0
-25 163 -245 0
-157 138 -166 0
-282 -275 -163 0
58 -61 -244 0
197 58 -55 0
15 194 -190 0
-14 -240 118 0
-20 102 152 0
227 110 138 0
128 -181 187 0
53 75 215 0
65 84 -176 0
190 -73 228 0
-130 82 10 0
-70 -66 -103 0
253 -107 272 0
23 -34 265 0
1 -270 -230 0
-56 -187 -113 0
-151 123 239 0
135 -262 -279 0
46 -48 164 0
-49 -181 175 0
136 98 204 0
4 -82 -76 0
85 -102 -250 0
-178 141 76 0
246 -13 20 0
-220 -208 -205 0
262 -234 98 0
-105 -17 259 0
210 -174 247 0
70 -219 -92 0
125 -262 164 0
-135 -30 -137 0
-150 -96 74 0
-75 12 -145 0
269 98 8 0
255 -20 -148 0
-259 3 269 0
-189 69 -224 0
14 132 171 0
-17 233 -251 0
156 -234 -151 0
277 144 265 0
-14 118 -64 0
67 2 -156 0
-152 269 -63 0
-206 227 -41 0
224 189 -89 0
26 -190 -78 0
4 95 225 0
165 189 169 0
164 -147 -166 0
211 -240 98 0
-38 229 -99 0
-283 27 36 0
240 101 269 0
174 -187 -247 0
-163 -45 149 0
279 149 -152 0
96 197 -20 0
-14 266 233 0
131 46 230 0
144 3 246 0
91 -29 16 0
76 29 277 0
137 -45 -154 0
36 -26 -171 0
-183 217 168 0
-162 -95 171 0
-241 -120 222 0
-233 -149 -257 0
30 155 -133 0
111 -26 -233 0
266 -160 237 0
-49 -103 -10 0
163 269 -216 0
194 -105 183 0
264 261 -177 0
-273 220 275 0
239 5 88 0
-65 133 60 0
209 -12 59 0
225 31 122 0
-49 -171 -5 0
-224 -112 200 0
-11 -9 -206 0
209 -135 -138 0
-193 198 -14 0
76 20 -159 0
27 174 -106 0
103 94 133 0
-185 147 165 0
-267 230 -5 0
-126 177 -102 0
283 -195 266 0
-233 -167 -227 0
281 137 -8 0
57 -136 -209 0
-168 -128 61 0
81 154 -25 0
69 -265 262 0
-114 68 -248 0
-215 -181 -42 0
269 -76 -27 0
-202 257 -140 0
-66 267 34 0
-197 40 -95 0
-226 -59 -101 0
-136 -135 3 0
86 -213 263 0
257 244 188 0
4 244 78 0
103 48 226 0
-16 239 -155 0
-123 193 105 0
-176 207 266 0
232 -280 -198 0
235 -42 38 0
188 -33 75 0
255 188 128 0
155 -189 -173 0
174 248 108 0
-131 261 -1 0
113 -58 181 0
218 -122 -208 0
-84 -70 -129 0
216 3 13 0
102 141 -4 0
-187 -231 -60 0
-160 2 216 0
-231 -267 -212 0
-264 169 182 0
-98 253 -170 0
5 -269 210 0
-55 41 -144 0
272 -264 234 0
-105 -179 -57 0
-202 -71 -77 0
-187 112 -138 0
-158 -21 103 0
277 151 -95 0
249 -161 -268 0
-162 224 -237 0
231 -189 119 0
-147 156 173 0
260 -59 -270 0
95 84 -151 0
-148 119 -35 0
-198 9 222 0
75 -27 39 0
192 -188 -170 0
-161 104 272 0
-168 -206 252 0
261 124 -231 0
210 53 -223 0
-113 80 278 0
51 137 -222 0
184 205 199 0
-200 -152 201 0
-244 -110 187 0
277 3 -222 0
218 271 -180 0
-21 -231 169 0
124 -70 130 0
87 247 180 0
89 -112 71 0
-42 261 -10 0
239 15 -128 0
266 10 -236 0
62 88 284 0
-7 59 -111 0
-76 18 259 0
117 103 19 0
-229 152 42 0
96 118 -175 0
-144 -250 22 0
-213 -40 -169 0
-121 -285 201 0
135 98 -13 0
124 -201 -272 0
85 194 -276 0
158 164 12 0
270 179 207 0
245 -60 -201 0
269 147 -58 0
-20 -243 -225 0
-120 26 -239 0
106 -63 273 0
149 283 -194 0
263 -138 208 0
222 258 270 0
-257 174 275 0
-202 -5 12 0
-46 -7 41 0
58 193 184 0
192 -278 193 0
-39 144 26 0
-279 -88 17 0
239 -1 -26 0
-119 -256 173 0
-7 200 -120 0
153 142 184 0
-70 -244 123 0
-281 -61 17 0
-236 -110 26 0
123 -97 108 0
164 178 153 0
265 -125 93 0
-162 -28 40 0
179 63 -190 0
-140 -172 214 0
172 -248 59 0
-124 -40 -65 0
-75 -1 137 0
177 108 -282 0
-24 -198 -147 0
-135 37 227 0
-51 -246 88 0
-278 26 -138 0
-159 113 157 0
231 -75 -266 0
241 -93 65 0
-128 -29 -150 0
183 237 188 0
-147 -245 -132 0
-70 -42 119 0
-233 -31 242 0
146 246 157 0
101 182 -3 0
-165 -230 92 0
-239 194 -109 0
246 -20 22 0
207 186 50 0
193 -98 -168 0
-177 13 -50 0
-154 -29 227 0
78 210 -49 0
38 220 -252 0
136 68 110 0
162 -62 -214 0
261 144 -34 0
-237 -264 268 0
-121 109 22 0
-191 80 118 0
91 -267 -204 0
216 109 -35 0
-168 32 -247 0
-62 88 209 0
232 18 -87 0
-243 -235 -54 0
-233 2 254 0
-63 -43 -55 0
-8 261 -186 0
59 -48 238 0
-14 -32 49 0
-2 5 -157 0
-33 218 -186 0
123 51 -212 0
-95 104 -41 0
-114 279 -210 0
232 101 -34 0
-233 266 -63 0
221 -55 -68 0
238 249 155 0
-215 -7 -68 0
19 -43 -28 0
182 -105 121 0
207 244 54 0
-243 -19 -247 0
-158 47 209 0
-251 -11 -158 0
-265 -206 150 0
-188 18 101 0
127 -145 226 0
49 -156 214 0
-111 13 246 0
-13 -217 -201 0
-1 148 167 0
-168 -13 -26 0
-171 193 -120 0
-246 214 61 0
-231 -147 24 0
198 191 -159 0
-44 -80 59 0
-83 -210 -37 0
34 71 272 0
194 -191 221 0
232 -186 -84 0
-272 200 -11 0
181 9 132 0
259 -181 -257 0
-268 -161 -228 0
-213 -206 251 0
-12 -203 -28 0
-154 -195 51 0
88 -130 -237 0
-108 -98 -170 0
93 -12 -128 0
-219 10 154 0
228 135 -87 0
-159 -3 17 0
37 43 196 0
2 -250 -217 0
-92 59 116 0
79 54 235 0
-53 -277 179 0
-257 34 -150 0
-263 -23 -43 0
63 -155 -182 0
-163 283 280 0
70 -272 152 0
167 53 50 0
250 -101 -152 0
262 29 -244 0
27 -118 122 0
95 -159 104 0
-222 127 138 0
132 -121 -265 0
260 232 -88 0
231 -236 -22 0
-215 -39 -170 0
60 -189 -149 0
4 9 -128 0
-225 -187 82 0
212 -155 103 0
168 82 122 0
157 -120 -85 0
139 -57 126 0
181 17 261 0
221 68 -105 0
55 -248 -161 0
249 -270 208 0
285 103 -85 0
128 -86 -191 0
-190 137 284 0
23 110 117 0
-179 236 -8 0
-134 -172 -87 0
-50 81 -13 0
-33 101 285 0
-120 -242 139 0
-209 -82 -231 0
210 251 -238 0
255 -235 240 0
-16 -209 -181 0
178 88 199 0
234 -222 75 0
-141 -44 170 0
16 193 274 0
-91 -174 229 0
-55 66 -212 0
-55 195 230 0
43 -201 -267 0
-134 265 160 0
-115 10 81 0
159 206 133 0
235 -233 162 0
-243 -256 -270 0
240 139 -140 0
97 -238 128 0
167 16 -258 0
-117 49 37 0
175 174 -221 0
148 -64 -37 0
98 81 118 0
-264 17 -23 0
-216 37 31 0
-150 57 143 0
-176 79 148 0
61 112 217 0
217 146 -216 0
7 47 273 0
253 251 -123 0
-130 87 -23 0
-168 169 -5 0
-69 -195 46 0
251 233 109 0
158 -208 -207 0
209 -277 164 0
-128 207 165 0
173 -1 -13 0
239 66 108 0
187 -130 96 0
186 37 -248 0
-163 254 -107 0
256 -71 109 0
129 41 -254 0
249 189 88 0
106 171 217 0
218 31 -255 0
138 128 217 0
-142 -244 177 0
227 -232 38 0
-221 -242 -236 0
-210 59 -185 0
-242 225 -241 0
-44 95 -148 0
-113 -160 -253 0
-66 -161 50 0
143 51 -170 0
-261 54 -184 0
120 -51 109 0
12 -89 -202 0
100 230 -225 0
22 118 235 0
-120 -180 -76 0
-138 276 -104 0
-275 -282 -116 0
152 246 200 0
-235 2 -124 0
81 144 -149 0
189 -145 59 0
28 213 124 0
158 70 86 0
-143 -137 251 0
115 -202 74 0
155 278 69 0
1 -168 -284 0
-28 -225 -173 0
250 152 -200 0
86 133 -280 0
-258 116 210 0
-281 -258 179 0
133 -177 46 0
-111 93 -76 0
-280 282 220 0
-97 -164 -234 0
-139 -116 232 0
-269 -49 -252 0
-188 -182 -39 0
209 158 160 0
236 157 -21 0
-102 107 124 0
-194 166 -237 0
66 216 61 0
4 -263 41 0
233 -234 -91 0
-242 177 -71 0
213 118 -83 0
-79 -211 58 0
-156 -137 -210 0
-142 213 219 0
-147 44 41 0
-228 -13 113 0
-219 197 89 0
139 -177 -125 0
236 -145 279 0
117 -8 -9 0
63 -238 113 0
-206 -53 -159 0
44 -42 -75 0
276 -132 -252 0
272 -23 -128 0
166 90 -276 0
-197 6 95 0
37 190 162 0
-149 137 -107 0
243 111 55 0
148 47 257 0
-224 -40 137 0
-153 29 -85 0
-254 -230 -166 0
248 -204 -78 0
202 36 -137 0
-261 -98 222 0
-239 -193 171 0
60 -42 196 0
251 -180 -56 0
254 -69 -147 0
39 123 201 0
-103 -23 -111 0
-265 33 -28 0
87 81 -118 0
-250 -206 204 0
208 -269 197 0
273 188 -248 0
-81 3 141 0
-178 111 285 0
-252 -206 -209 0
16 41 247 0
92 99 -246 0
-216 282 -230 0
124 194 136 0
105 128 14 0
214 -12 -180 0
-83 177 -201 0
-227 72 -32 0
-174 -201 -157 0
-82 -283 37 0
41 -87 201 0
-99 -221 235 0
-238 -205 31 0
-123 31 -128 0
-78 261 -183 0
-219 18 183 0
-203 216 -232 0
-279 -222 -210 0
-228 35 -271 0
239 -158 123 0
241 80 153 0
-114 -9 -229 0
-221 -229 -93 0
-18 -228 -273 0
-255 -105 -6 0
174 -192 95 0
131 126 244 0
269 -74 259 0
140 -125 -106 0
-275 140 172 0
-233 -228 195 0
-278 -232 -101 0
-61 -154 -221 0
36 -103 209 0
128 186 -124 0
58 145 -181 0
-62 -217 87 0
-201 -60 198 0
-41 -264 -131 0
-285 -132 -243 0
82 52 -135 0
49 -282 -108 0
145 234 44 0
197 274 -94 0
-132 27 -257 0
156 231 -192 0
-14 99 -121 0
-173 -183 -9 0
263 68 276 0
166 235 -184 0
66 -118 -225 0
177 -210 -162 0
-225 146 41 0
121 125 10 0
229 131 49 0
-103 -190 -120 0
-160 162 -43 0
-3 -56 -40 0
54 -214 -109 0
11 -104 -121 0
-9 215 -260 0
229 -128 -243 0
-56 165 -216 0
270 -127 -171 0
-175 -69 -26 0
33 176 234 0
-42 -72 -277 0
-24 -5 224 0
-58 109 280 0
-89 -171 109 0
257 -25 126 0
225 54 -64 0
-65 -175 -14 0
-104 242 128 0
262 255 25 0
-102 169 -69 0
72 141 281 0
85 -52 -104 0
60 17 150 0
-127 -270 274 0
38 213 -9 0
-281 100 -177 0
228 -28 -200 0
-268 -140 35 0
53 61 -172 0
248 196 -133 0
179 -219 266 0
49 239 139 0
-36 -40 208 0
244 -205 -37 0
196 133 -119 0
262 -142 -37 0
-183 -281 -193 0
-268 239 -65 0
-69 242 191 0
210 -204 209 0
-201 -32 280 0
-280 75 -272 0
231 -112 -14 0
84 -97 -8 0
138 -188 280 0
277 253 -171 0
-197 279 -265 0
-154 165 64 0
226 -210 -18 0
66 -214 -151 0
-93 91 142 0
-205 -19 -132 0
-195 -237 57 0
-105 -47 12 0
-264 281 157 0
-112 176 267 0
-159 164 -5 0
151 -259 263 0
-195 -101 43 0
-26 -93 275 0
241 -123 48 0
-144 -204 187 0
-273 237 92 0
283 -166 -86 0
-153 -260 -181 0
-223 253 199 0
48 253 -123 0
95 -268 53 0
-93 273 275 0
107 59 -170 0
252 24 216 0
154 -168 28 0
-228 129 208 0
208 -106 -191 0
194 178 -164 0
37 -245 -227 0
2 197 172 0
-137 250 -63 0
-277 -108 209 0
31 -165 -107 0
-118 265 -234 0
-116 -146 200 0
104 -111 226 0
-118 37 -129 0
13 204 24 0
180 -31 78 0
-179 281 215 0
-115 -79 51 0
223 18 219 0
-207 -67 55 0
177 253 -272 0
-135 -3 -145 0
94 -82 247 0
79 146 -107 0
-253 57 -41 0
111 14 -3 0
-35 -107 -258 0
-121 59 -269 0
-12 -283 166 0
129 -65 198 0
-191 -172 131 0
-160 156 -40 0
-208 -204 278 0
212 -271 166 0
186 -149 232 0
-98 60 84 0
-188 23 264 0
-118 184 -69 0
7 -147 -184 0
126 24 -112 0
106 133 158 0
-90 -63 -281 0
-222 61 -208 0
-58 30 -164 0
109 -285 -147 0
125 113 -106 0
174 60 -28 0
123 -246 124 0
103 -41 151 0
58 231 -205 0
-207 143 -8 0
-80 72 261 0
260 -180 133 0
-40 -157 -118 0
90 47 179 0
-98 80 -128 0
-280 -10 -118 0
143 201 -203 0
230 -281 42 0
226 24 -165 0
149 74 148 0
-70 233 -127 0
149 -70 134 0
132 177 143 0
-78 263 123 0
88 -63 267 0
-205 194 19 0
191 -122 -120 0
-226 195 -231 0
267 110 -240 0
-77 153 -68 0
-246 147 -22 0
-108 -90 49 0
204 110 -248 0
138 -69 -23 0
-205 174 -165 0
-214 -266 -249 0
66 229 273 0
168 -26 -186 0
-208 180 213 0
-247 -283 -207 0
54 -61 223 0
-269 -188 86 0
-60 -154 -5 0
-22 -66 12 0
48 -233 -218 0
77 282 28 0
-166 -52 116 0
118 -9 22 0
171 -220 -130 0
154 270 87 0
-33 86 -281 0
-19 43 -85 0
-140 -178 -215 0
280 -174 -24 0
90 135 80 0
248 -185 21 0
128 63 -41 0
-199 -237 74 0
49 244 56 0
262 285 -86 0
70 105 -212 0
87 191 144 0
55 191 282 0
-64 208 -43 0
45 -73 -10 0
118 27 202 0
257 145 37 0
216 238 -206 0
-196 -126 -86 0
249 139 -221 0
