p cnf 285 1214
233 18 77 0
-244 -98 3 0
167 -14 -29 0
-277 197 -166 0
-232 -139 -192 0
77 -124 -192 0
108 -165 44 0
266 -31 -25 0
-124 -148 -180 0
-72 47 -198 0
-265 76 213 0
108 -96 -61 0
-224 -207 -75 0
-139 131 -102 0
-280 206 -275 0
138 126 -13 0
58 -159 -189 0
94 -52 -56 0
183 -85 64 0
217 -227 -11 0
-54 -178 -56 0
190 -149 -259 0
-159 54 277 0
-156 263 168 0
-246 -229 -170 0
225 -154 218 0
100 -240 -70 0
96 216 198 0
99 218 -16 0
20 40 75 0
-281 260 -55 0
103 -233 -30 0
-117 97 -191 0
219 218 -178 0
203 -170 -192 0
194 156 274 0
-55 160 -152 0
44 144 -187 0
-40 -204 251 0
122 -21 -58 0
176 -74 -20 0
-246 76 120 0
-86 208 129 0
143 275 -162 0
259 -87 -277 0
16 130 230 0
253 191 -221 0
-164 154 101 0
254 26 145 0
-136 -5 -224 0
-86 -83 -37 0
-69 4 241 0
152 172 254 0
-49 148 -4 0
212 165 -22 0
174 -109 -77 0
-177 61 -88 0
149 61 176 0
118 92 269 0
-95 -131 88 0
-121 111 -235 0
-141 -125 -214 0
211 -250 -221 0
-72 171 133 0
7 -205 -283 0
95 -120 -161 0
175 97 167 0
147 239 166 0
-243 -82 -236 0
246 -92 -188 0
197 -43 -131 0
121 207 -13 0
-21 188 -275 0
103 279 -70 0
260 117 -15 0
-169 -146 -192 0
205 -54 -91 0
98 -277 154 0
64 22 -218 0
270 201 108 0
-207 268 49 0
186 262 222 0
-108 116 186 0
237 4 -119 0
261 11 -133 0
-209 -174 -243 0
105 -76 220 0
-261 -111 250 0
228 -46 259 0
-141 256 -253 0
-83 -187 -15 0
-22 -137 -275 0
-115 17 -1 0
-247 -207 -273 0
140 -82 111 0
-159 111 65 0
171 -102 -196 0
-149 -252 -152 0
86 94 -77 0
-207 189 -260 0
-187 -256 -200 0
-43 170 148 0
249 -22 -20 0
233 -160 -111 0
82 68 196 0
230 -89 -175 0
83 49 -101 0
71 207 -226 0
-216 147 114 0
-278 60 267 0
248 -232 95 0
-240 -134 -204 0
71 -42 -184 0
60 -30 265 0
-30 162 19 0
63 -127 120 0
162 -84 -144 0
101 -219 -23 0
95 278 123 0
-129 -213 -100 0
-271 -146 44 0
-56 154 -72 0
-265 167 276 0
-84 -178 -138 0
72 -78 268 0
26 -238 -170 0
58 69 -278 0
-48 159 218 0
-230 231 51 0
-47 -193 106 0
-85 -230 170 0
261 63 -155 0
260 -222 150 0
-19 -132 -77 0
-171 -250 3 0
216 -193 246 0
-258 -263 -212 0
241 -272 -13 0
-64 -252 246 0
-129 -168 -217 0
99 197 -208 0
10 65 -272 0
202 235 18 0
-129 -144 2 0
-182 -94 -180 0
190 12 -252 0
275 47 -7 0
-134 141 60 0
-61 128 78 0
60 19 157 0
193 11 220 0
159 -52 -60 0
262 -229 160 0
-275 66 166 0
138 228 10 0
-32 63 184 0
112 -270 222 0
-75 -184 198 0
-24 215 -82 0
-195 77 95 0
253 106 7 0
3 -263 60 0
-189 -245 26 0
214 -54 187 0
225 -72 161 0
-168 223 109 0
189 -207 163 0
13 -195 191 0
-46 252 259 0
-142 -19 -202 0
110 -253 271 0
99 -22 156 0
208 -235 253 0
54 279 212 0
-6 -204 -181 0
-146 -117 -55 0
-170 -160 239 0
-280 -165 -92 0
-123 173 -277 0
-63 -34 219 0
-31 -119 -255 0
240 -93 209 0
-284 250 -63 0
-240 -218 167 0
-35 -234 -143 0
-165 -58 140 0
158 -74 -184 0
-159 -213 194 0
-161 193 -254 0
-26 -88 119 0
-251 -110 -260 0
-25 179 -187 0
60 95 -155 0
-103 203 -84 0
206 132 -189 0
-256 -131 111 0
-261 88 -37 0
140 244 -117 0
-211 -190 23 0
242 -49 -4 0
-11 170 -72 0
178 125 -106 0
-148 197 272 0
235 207 -210 0
-246 -51 150 0
-61 188 -26 0
58 -262 86 0
-266 173 -32 0
-259 -193 243 0
93 -86 -75 0
243 129 20 0
100 73 -85 0
115 136 -196 0
187 30 65 0
-156 -71 -113 0
-23 -280 241 0
251 259 253 0
-49 130 65 0
228 195 109 0
-90 -285 22 0
170 -221 45 0
-135 118 233 0
-43 162 -276 0
88 -212 183 0
-110 95 256 0
104 -152 -153 0
-129 109 -13 0
159 -242 266 0
-253 64 271 0
-87 -77 242 0
-243 -246 -1 0
-158 -56 33 0
9 -22 179 0
-137 -265 -26 0
-198 40 268 0
229 155 -252 0
-160 11 186 0
139 181 134 0
48 58 -150 0
-282 -240 -255 0
-117 -129 114 0
283 96 214 0
284 -7 41 0
-281 -53 113 0
-243 27 7 0
222 160 18 0
-279 214 129 0
69 171 123 0
243 169 202 0
-260 -236 -120 0
43 -185 -196 0
-67 3 -195 0
-76 -134 -137 0
-272 55 38 0
-236 173 -247 0
67 -280 256 0
167 148 98 0
-92 71 -164 0
44 75 215 0
-25 -131 -47 0
-72 -143 189 0
190 -180 249 0
237 109 -51 0
179 -63 255 0
-197 16 23 0
-100 3 144 0
247 162 -165 0
118 -232 -233 0
214 38 129 0
-51 48 -216 0
-107 -138 196 0
-62 -266 251 0
220 50 -170 0
-36 -262 -67 0
167 -20 -70 0
262 -59 132 0
277 242 68 0
-42 -27 -60 0
67 45 -229 0
-206 -10 34 0
-12 -62 220 0
244 -190 246 0
-111 -258 9 0
-212 123 2 0
-249 59 -207 0
259 209 62 0
59 116 224 0
-191 217 200 0
64 -264 -193 0
90 137 49 0
101 100 -216 0
80 276 -176 0
225 139 -271 0
-124 -67 -21 0
104 -234 -50 0
114 -135 -180 0
-102 235 71 0
-91 -123 193 0
283 -138 -224 0
-132 -194 -61 0
-71 147 -284 0
25 -210 -228 0
12 -153 197 0
165 11 -88 0
-50 -269 171 0
-199 129 119 0
-49 93 188 0
258 -44 113 0
-222 -112 -108 0
-137 55 169 0
168 -192 -40 0
28 132 -226 0
-114 155 217 0
270 -202 224 0
-28 160 -18 0
165 210 255 0
-52 -211 -53 0
99 28 -108 0
104 70 -171 0
-231 -111 255 0
-12 -174 -162 0
186 -219 6 0
225 233 257 0
-109 -283 159 0
143 -254 -150 0
128 -72 -218 0
149 107 5 0
15 237 -283 0
-89 259 59 0
-279 149 24 0
60 244 -46 0
178 -117 116 0
212 -262 85 0
-34 119 -120 0
-135 -141 115 0
193 196 33 0
82 13 196 0
206 -186 -15 0
-206 189 160 0
47 -279 -53 0
-173 164 229 0
104 134 -203 0
16 -254 -158 0
28 252 -254 0
142 51 -221 0
135 -179 162 0
50 -82 -271 0
191 31 53 0
277 270 22 0
227 -130 -106 0
-186 -60 184 0
-10 284 204 0
-49 231 -70 0
51 -23 -263 0
-268 -255 -94 0
-50 -226 -221 0
126 -272 188 0
55 -36 -134 0
68 253 -264 0
-213 166 -249 0
228 -279 190 0
57 145 225 0
-96 70 263 0
185 140 188 0
-249 -264 115 0
5 168 45 0
-85 -57 56 0
136 -5 -125 0
195 -239 252 0
-105 114 285 0
-236 201 -119 0
210 -249 156 0
132 125 20 0
-153 17 -244 0
139 267 284 0
-6 257 198 0
-200 -236 193 0
64 -116 72 0
202 -165 69 0
-158 -235 86 0
-135 246 243 0
102 -36 155 0
-57 -92 -115 0
69 43 16 0
-237 -67 -283 0
-257 155 237 0
4 -136 -197 0
-25 -62 -158 0
-117 137 -188 0
-158 227 -224 0
18 -267 275 0
-207 210 67 0
96 -103 -27 0
212 271 -26 0
26 63 70 0
270 -116 -90 0
66 -219 -136 0
31 -68 148 0
190 274 -262 0
234 -252 96 0
74 1 -16 0
-207 -170 226 0
101 27 282 0
125 232 -194 0
-107 105 -25 0
33 194 231 0
-31 40 208 0
165 41 -141 0
165 269 106 0
-240 42 -199 0
-209 214 -245 0
-25 -20 71 0
226 -95 -36 0
-85 -113 -23 0
-179 -249 128 0
5 -195 262 0
115 111 -167 0
-16 130 190 0
25 179 104 0
-62 -238 105 0
-54 53 102 0
-59 -21 54 0
72 278 -247 0
-237 214 -161 0
135 170 -149 0
132 -203 245 0
285 -218 -122 0
-279 -137 215 0
-21 86 -87 0
-112 138 30 0
195 137 199 0
111 218 -55 0
205 -79 -129 0
196 -262 67 0
-182 -213 -41 0
-268 222 -35 0
-154 -243 132 0
-18 -57 264 0
284 230 -158 0
210 -27 -63 0
20 -23 -200 0
87 -233 -27 0
-91 -104 284 0
-51 40 221 0
64 156 -133 0
-201 99 -49 0
127 9 281 0
-79 -225 111 0
-212 236 -1 0
-124 -167 170 0
225 -70 261 0
-150 -193 -142 0
-13 147 -139 0
250 -177 270 0
130 235 112 0
-271 155 -212 0
-249 39 -95 0
-80 -201 214 0
-113 196 179 0
-147 -69 4 0
-248 227 -8 0
-12 -60 122 0
59 120 274 0
-192 232 -241 0
-11 202 -198 0
230 -151 133 0
280 -23 -130 0
-268 22 90 0
-228 49 -210 0
-59 17 -75 0
213 227 172 0
269 99 -146 0
-35 -127 -243 0
-107 126 -101 0
188 198 205 0
196 11 106 0
181 216 -240 0
-31 65 -40 0
-114 -128 -217 0
123 -210 -120 0
32 81 64 0
-137 179 -196 0
-230 153 123 0
-4 -250 136 0
-145 -114 -34 0
-157 64 44 0
-132 -17 -229 0
146 223 127 0
248 -159 -43 0
-100 228 115 0
184 -246 32 0
-255 -253 -265 0
-206 92 -23 0
-65 171 -173 0
-160 -137 -230 0
86 97 -67 0
30 -196 -67 0
252 236 -186 0
-146 55 33 0
-212 3 -44 0
127 284 -99 0
53 240 -236 0
-261 -176 -209 0
-98 -65 -20 0
-37 94 22 0
-285 -182 -198 0
69 -238 -111 0
-59 258 -236 0
-101 -72 -164 0
181 -109 -138 0
133 40 -142 0
35 -167 28 0
50 28 82 0
-33 -234 127 0
-34 -199 -31 0
25 131 -119 0
108 127 256 0
-210 234 97 0
211 -221 264 0
221 216 -138 0
-1 233 -87 0
-3 88 95 0
181 87 84 0
-244 -114 -209 0
-56 -284 195 0
92 -93 -161 0
125 -75 147 0
280 -126 164 0
280 -111 139 0
-196 79 28 0
-170 -207 -99 0
-36 243 188 0
-99 -155 -146 0
-179 221 158 0
-12 199 -69 0
19 180 133 0
275 152 137 0
-142 -205 -28 0
85 -44 257 0
-41 -242 265 0
144 170 -187 0
254 83 77 0
-63 -226 61 0
-128 -107 250 0
240 249 -144 0
-154 -28 106 0
118 -149 143 0
168 225 -57 0
161 127 -249 0
226 31 -41 0
-234 233 -136 0
85 138 -180 0
125 -17 267 0
230 6 -216 0
235 -41 72 0
-160 65 270 0
-74 -62 -252 0
-100 -98 -224 0
-193 -99 67 0
-5 -140 -70 0
80 -237 79 0
-94 157 -14 0
229 -93 12 0
107 -64 -110 0
179 -50 97 0
-175 -31 -16 0
225 -201 -41 0
108 -33 -44 0
-148 178 -166 0
113 83 -235 0
-71 -8 96 0
99 -134 268 0
155 -138 273 0
-266 281 235 0
-52 220 -10 0
84 -101 283 0
241 -41 -261 0
259 -8 -228 0
-105 -279 -244 0
6 -253 131 0
-144 145 280 0
-57 71 -3 0
-109 180 -185 0
215 -242 172 0
279 -57 -5 0
-217 89 -127 0
-255 -181 261 0
36 39 -25 0
-166 -198 4 0
278 -270 111 0
-255 150 208 0
254 171 205 0
-14 -257 229 0
-118 200 -144 0
223 100 98 0
-174 255 -237 0
69 20 87 0
198 -247 209 0
-51 18 -176 0
-64 50 28 0
-208 105 264 0
252 -273 219 0
57 -105 9 0
-162 -278 -139 0
-171 283 -26 0
-58 34 -178 0
92 -186 -112 0
234 -280 275 0
149 140 127 0
-197 195 -147 0
-266 -96 -155 0
-74 97 -15 0
100 30 104 0
-12 25 58 0
64 40 25 0
146 -271 -164 0
38 -3 52 0
-261 90 -138 0
-129 233 -125 0
138 -150 -14 0
174 134 -76 0
244 107 78 0
-6 248 267 0
-76 -107 64 0
185 -222 196 0
-214 -166 -34 0
241 -74 262 0
-271 118 -189 0
186 254 -192 0
-120 -51 -70 0
-68 132 114 0
227 -88 -32 0
80 279 -209 0
93 95 17 0
55 -144 -5 0
164 -195 10 0
-53 -153 -203 0
199 -201 115 0
7 48 235 0
198 235 -16 0
-17 12 276 0
-142 158 -123 0
223 70 44 0
172 -234 201 0
-61 -225 274 0
-98 131 -232 0
-248 -216 -227 0
-265 -61 212 0
-264 50 -255 0
135 -231 -215 0
157 -1 186 0
-227 -202 147 0
-98 196 -62 0
-32 -54 244 0
58 -262 111 0
-21 236 186 0
118 -25 186 0
8 -103 -217 0
285 -152 -186 0
-29 167 60 0
214 -266 146 0
118 36 -101 0
11 38 16 0
-258 185 -147 0
96 59 132 0
-134 -224 252 0
74 58 -177 0
17 175 181 0
90 -159 -198 0
-127 116 64 0
173 187 176 0
68 -245 213 0
178 200 95 0
-82 -73 202 0
-44 22 213 0
138 -207 -194 0
264 237 -192 0
16 -19 252 0
-30 -226 130 0
-42 1 -240 0
-141 -200 -25 0
216 -95 136 0
60 11 235 0
-3 112 -215 0
-143 -147 76 0
143 -115 86 0
13 283 199 0
152 270 -69 0
-15 -63 -48 0
222 -271 197 0
229 -237 -83 0
27 20 173 0
-176 -258 -186 0
-269 15 -74 0
-44 -110 212 0
-72 29 -189 0
-108 -193 -30 0
-48 -142 117 0
18 210 106 0
-14 -176 235 0
123 -282 -53 0
-16 210 -194 0
200 88 -8 0
215 75 -280 0
28 125 -241 0
71 -142 -138 0
-63 -131 234 0
-266 -25 222 0
-177 -133 -42 0
214 203 282 0
-32 191 205 0
71 224 -81 0
182 -263 -11 0
175 -168 207 0
-152 7 54 0
-28 -60 176 0
139 172 -252 0
-131 202 -241 0
215 -30 -48 0
-188 -56 -143 0
252 -164 -60 0
92 -200 176 0
-35 256 -32 0
-235 265 -129 0
65 -247 78 0
250 -92 172 0
-5 263 -45 0
-107 41 -65 0
-141 -160 201 0
-257 255 -191 0
180 221 -95 0
134 195 -163 0
108 263 244 0
110 -36 -2 0
-11 77 -74 0
41 233 95 0
-171 239 -77 0
282 -198 -4 0
130 197 -8 0
-236 -269 -38 0
-258 165 30 0
-241 225 -171 0
-181 43 -14 0
-260 -182 146 0
272 -32 -3 0
50 -13 84 0
-191 -223 -64 0
62 225 -180 0
38 -69 -188 0
-50 -284 -33 0
-124 23 130 0
198 -197 -73 0
187 -226 -234 0
-259 -176 2 0
127 155 -176 0
111 -61 -85 0
-146 166 -268 0
-263 90 93 0
148 145 25 0
-248 -180 192 0
35 269 -259 0
-279 30 -66 0
1 6 3 0
-70 202 -161 0
-105 209 -190 0
-76 175 -127 0
28 -125 -104 0
-274 242 -173 0
-195 -274 29 0
-257 258 133 0
77 28 176 0
280 -86 249 0
-95 128 117 0
250 -67 -167 0
21 -68 -97 0
-235 10 117 0
1 16 69 0
252 -109 281 0
70 -130 108 0
97 -231 -35 0
200 214 51 0
231 46 -249 0
131 -135 -211 0
-197 27 -212 0
241 -236 67 0
267 164 2 0
-83 -269 -192 0
8 184 140 0
-74 160 -62 0
-36 -72 107 0
156 201 15 0
-160 -151 229 0
-95 -156 78 0
216 -66 47 0
149 192 -257 0
-24 -237 -177 0
255 99 19 0
-109 37 232 0
146 10 -244 0
57 -166 110 0
82 56 68 0
209 -68 -162 0
-33 85 125 0
-138 -8 79 0
75 36 141 0
100 243 152 0
148 -190 77 0
128 -179 217 0
-160 -83 -220 0
-108 -18 -229 0
-179 6 55 0
-18 72 -217 0
-67 -58 -73 0
242 211 219 0
-7 222 -126 0
-94 -118 -1 0
8 55 29 0
211 169 -250 0
-234 25 -83 0
3 -208 -92 0
-107 -266 -256 0
-280 -253 116 0
-43 -85 -92 0
-163 -69 133 0
-111 125 -102 0
-171 -254 53 0
-68 -181 -109 0
10 180 -274 0
151 -36 -30 0
-280 21 254 0
252 247 175 0
223 -154 209 0
38 179 -174 0
186 115 251 0
-28 166 208 0
-92 47 39 0
-223 -119 123 0
-193 -12 -149 0
-196 -279 -42 0
-32 82 58 0
-101 214 165 0
136 -39 -267 0
-195 -38 116 0
-247 -96 -274 0
-212 64 115 0
-53 243 -43 0
-139 231 -44 0
-222 65 -188 0
239 -201 -203 0
65 -134 -61 0
-236 56 -215 0
-265 -131 212 0
-11 -131 -98 0
10 29 116 0
40 4 -67 0
-106 68 266 0
270 87 -189 0
141 135 -87 0
-49 224 103 0
257 241 111 0
-211 -126 64 0
-114 -92 78 0
-154 -166 230 0
-32 220 142 0
-12 -155 -47 0
-277 -130 198 0
-17 139 -243 0
116 80 -206 0
-211 -187 11 0
-202 -251 212 0
-98 60 80 0
87 -96 -145 0
44 -192 -174 0
-50 -86 228 0
-140 -16 143 0
-107 -57 -158 0
-99 -220 -174 0
118 -166 67 0
-170 -272 15 0
262 -8 -192 0
271 -221 177 0
275 -198 -267 0
-229 -21 40 0
58 -96 -47 0
-264 53 139 0
-279 215 -80 0
-101 -145 -133 0
241 30 -12 0
267 169 103 0
-275 114 -119 0
258 154 271 0
-239 -23 -93 0
-239 76 13 0
-256 -170 190 0
-237 -233 -57 0
121 120 -170 0
121 -179 87 0
26 182 -176 0
-36 162 210 0
200 -188 237 0
-144 95 123 0
133 78 7 0
-54 -196 -119 0
-95 203 -232 0
-247 8 85 0
-240 -129 -127 0
-281 -161 -199 0
-235 -152 155 0
-200 -88 -217 0
-68 -150 -233 0
118 -217 -258 0
259 -109 80 0
78 244 -123 0
-31 246 22 0
-99 -82 -57 0
266 -173 19 0
-150 -18 111 0
-122 174 95 0
137 -263 156 0
-85 -190 235 0
-239 177 14 0
227 -9 -281 0
266 -61 184 0
-262 222 55 0
-60 -276 -57 0
274 -241 -133 0
116 2 64 0
-249 -134 -54 0
45 -96 -220 0
-28 10 -189 0
114 175 11 0
-194 250 -122 0
-192 117 37 0
-178 180 278 0
73 125 158 0
80 -58 -239 0
-197 60 41 0
285 211 131 0
-100 -107 247 0
-12 -178 76 0
162 232 137 0
-52 155 -236 0
-28 -61 73 0
155 2 157 0
-170 262 -21 0
-213 269 51 0
144 141 -259 0
137 104 -205 0
-144 96 -29 0
68 114 -261 0
90 -197 148 0
-157 121 -282 0
-113 -138 145 0
69 124 108 0
-30 -154 -155 0
-112 216 77 0
22 206 -9 0
39 -162 -223 0
-130 -136 -145 0
153 -149 272 0
-68 -25 136 0
-129 124 24 0
27 134 74 0
264 203 164 0
134 -50 12 0
-268 129 -111 0
85 132 -45 0
-112 41 135 0
172 12 266 0
186 185 114 0
110 -189 35 0
84 226 20 0
-235 44 284 0
-169 -45 12 0
-22 -105 -170 0
-145 203 -247 0
-189 -239 12 0
-29 -181 -207 0
188 90 46 0
-43 244 -180 0
180 223 -261 0
-121 -7 4 0
30 169 45 0
149 69 203 0
154 -135 174 0
-144 -162 -59 0
36 -282 219 0
-64 17 -29 0
145 -31 129 0
232 -238 150 0
-148 54 261 0
171 -132 138 0
-49 18 -161 0
56 -144 1 0
-66 198 -77 0
-9 229 -4 0
-131 187 -153 0
276 -172 -139 0
157 232 -152 0
216 -140 192 0
47 -183 244 0
-278 79 238 0
-29 139 267 0
79 52 -126 0
51 -88 -200 0
-55 68 283 0
248 -109 113 0
109 174 -237 0
-3 -237 -183 0
-226 -230 36 0
-158 275 -27 0
-223 187 -264 0
216 -264 210 0
208 100 -172 0
-241 -121 -18 0
-155 38 181 0
-207 169 191 0
-5 16 18 0
-15 -118 174 0
122 -3 270 0
198 98 -234 0
225 -238 -51 0
110 -283 39 0
146 93 215 0
-81 -42 -126 0
93 -153 -11 0
181 114 -62 0
-157 193 70 0
-234 15 168 0
-1 -156 -221 0
243 7 -71 0
267 -283 -263 0
-186 -266 284 0
92 -10 164 0
-110 26 -66 0
-231 -86 -41 0
-147 244 261 0
46 -20 43 0
137 -85 134 0
-81 -47 137 0
138 -266 -179 0
68 46 72 0
-62 72 109 0
7 83 240 0
-161 -71 -209 0
-231 59 -115 0
-31 193 186 0
242 91 -205 0
121 45 200 0
-105 -120 -17 0
218 -114 67 0
136 -166 155 0
145 95 87 0
212 169 193 0
75 124 140 0
-220 199 -106 0
83 -175 -16 0
149 -253 282 0
29 176 -15 0
98 -67 -200 0
-221 -44 3 0
-105 7 56 0
-30 -52 16 0
-150 -177 212 0
124 -109 -70 0
182 72 214 0
1 -101 114 0
166 -111 239 0
-137 -132 -58 0
29 -208 114 0
151 102 -188 0
41 -42 207 0
-114 -140 -263 0
-218 177 109 0
-248 207 51 0
249 -155 -123 0
280 -207 -74 0
219 -155 -235 0
-260 -239 45 0
258 -167 76 0
140 201 274 0
-281 242 -107 0
-126 239 -232 0
14 27 -53 0
-36 -202 177 0
-83 11 182 0
231 102 131 0
115 -27 -16 0
-260 101 250 0
-161 -122 224 0
-186 141 210 0
-83 52 -273 0
6 200 41 0
-140 -121 -244 0
152 -24 -79 0
110 232 92 0
-156 233 87 0
165 244 -137 0
207 183 -250 0
-194 -148 95 0
2 83 84 0
87 255 50 0
185 -25 -201 0
-273 -270 220 0
261 -168 -231 0
-180 -145 -87 0
266 103 -222 0
165 -203 99 0
106 -207 133 0
226 33 247 0
-2 -221 7 0
-74 -220 -211 0
-63 -59 37 0
163 104 -99 0
14 -225 -220 0
-2 -73 -194 0
245 126 5 0
-215 -160 138 0
-274 174 -194 0
-251 149 -62 0
80 205 128 0
235 265 -275 0
61 60 -82 0
8 3 95 0
205 -212 36 0
52 -81 -14 0
-191 57 -224 0
43 110 99 0
251 267 -62 0
200 241 -108 0
-4 -119 -67 0
-27 -241 -254 0
-212 -172 -48 0
47 147 274 0
-181 -49 -37 0
217 67 -54 0
43 -232 118 0
232 -135 -263 0
-257 -270 261 0
-81 13 86 0
-19 -224 76 0
159 161 -278 0
-234 188 -22 0
261 268 174 0
26 226 80 0
-280 8 285 0
152 -33 105 0
-211 -97 -69 0
-17 -85 -213 0
223 -181 -208 0
49 256 77 0
-155 -211 -31 0
243 -217 92 0
132 201 -114 0
-11 223 263 0
265 109 17 0
-23 -218 159 0
-127 147 -251 0
-102 -45 106 0
106 157 89 0
213 -57 -217 0
-43 160 226 0
174 182 65 0
-46 64 6 0
58 270 -103 0
-26 85 112 0
-93 -30 279 0
-280 -246 197 0
263 -214 -247 0
-186 -260 278 0
-138 -130 -114 0
99 68 151 0
166 -31 7 0
-19 25 101 0
-109 39 248 0
-188 285 141 0
102 108 100 0
-199 -271 -54 0
185 -222 102 0
-113 39 98 0
-190 -63 154 0
-68 49 76 0
95 -237 -131 0
-40 138 -277 0
-254 265 102 0
-146 -246 -77 0
17 101 213 0
129 -267 162 0
154 -186 -12 0
-44 149 99 0
-133 39 -85 0
-269 -252 257 0
138 -107 -220 0
72 -277 256 0
271 -48 38 0
223 -120 -217 0
-95 -46 -35 0
241 -182 -148 0
-39 -30 8 0
-144 -174 103 0
-212 76 -169 0
-169 -226 -19 0
75 18 147 0
-74 -203 -263 0
-231 67 -280 0
106 241 162 0
62 90 47 0
-5 -166 -99 0
-243 -179 93 0
69 228 -56 0
12 -37 -80 0
-253 155 99 0
-143 57 133 0
175 -157 -76 0
