p cnf 285 1214
-124 -136 -197 0
-229 2 270 0
183 272 266 0
127 -38 27 0
-155 -264 -75 0
259 -260 -128 0
-48 -200 5 0
219 100 -269 0
231 -75 -104 0
58 -66 -44 0
-221 272 76 0
-262 -133 -143 0
-139 -172 -271 0
78 128 -123 0
-43 -126 -213 0
-141 157 -42 0
12 -41 -56 0
168 -39 -50 0
-71 95 -135 0
84 -48 -147 0
-276 163 -6 0
159 -125 -162 0
-281 -3 -36 0
-163 265 -204 0
-42 -185 65 0
146 249 150 0
281 261 -8 0
260 -215 -225 0
-229 -203 174 0
160 -201 182 0
-94 -282 -19 0
-209 -167 -223 0
-40 -26 31 0
-264 -200 65 0
136 162 252 0
31 -53 80 0
82 150 92 0
-165 -66 264 0
95 209 192 0
-164 167 215 0
34 188 -237 0
-215 -194 239 0
196 225 -160 0
-272 54 -167 0
143 105 231 0
-53 -64 -93 0
13 -234 -235 0
91 -135 110 0
-223 247 -154 0
171 -53 -282 0
49 -154 -48 0
-277 56 242 0
41 -179 -73 0
-188 -134 -235 0
-35 -108 -169 0
37 -161 84 0
174 27 -241 0
-155 153 -34 0
-220 -66 141 0
-46 -98 128 0
-137 105 10 0
144 199 1 0
169 -92 278 0
-91 -63 205 0
-187 273 -27 0
38 -192 247 0
180 191 37 0
102 -246 -222 0
184 -148 -216 0
14 -100 188 0
-61 -232 -38 0
146 228 193 0
274 151 -50 0
278 202 -171 0
126 283 140 0
-247 -222 22 0
-6 221 -55 0
-214 -45 -104 0
215 70 19 0
-212 132 -105 0
-76 -228 204 0
-27 -68 281 0
168 -142 218 0
69 -47 -215 0
-154 76 -138 0
265 113 -200 0
-234 -17 -258 0
-163 -201 194 0
249 171 210 0
-264 -137 -101 0
260 224 181 0
-92 174 -86 0
-181 -173 125 0
-9 -162 221 0
-274 83 187 0
-126 26 22 0
182 -177 -134 0
234 -99 -83 0
24 -248 -246 0
-55 160 -221 0
-139 -115 8 0
34 -184 173 0
1 122 -117 0
43 163 156 0
-277 144 -90 0
-210 245 -179 0
136 -12 -10 0
207 93 100 0
255 213 142 0
-47 -112 203 0
90 151 -270 0
132 -22 -32 0
-264 -180 -101 0
-100 18 150 0
-161 -193 -159 0
222 271 -18 0
-144 -212 -268 0
11 85 -10 0
-65 98 29 0
-268 164 230 0
-232 209 199 0
-17 -171 27 0
116 -135 -247 0
-47 -68 206 0
-31 266 -4 0
-278 1 22 0
-241 -243 93 0
-50 239 107 0
-281 103 -36 0
-278 -277 -212 0
-167 -61 -66 0
125 236 261 0
142 56 67 0
-238 -156 5 0
-84 -93 -212 0
203 176 -70 0
48 -212 33 0
-140 -133 -209 0
126 278 -140 0
9 29 80 0
-28 158 169 0
-200 -135 -231 0
21 -77 -218 0
182 -2 136 0
-256 269 103 0
102 221 -209 0
-76 -174 -159 0
-235 242 -5 0
266 -71 -275 0
87 35 -228 0
-182 8 189 0
10 165 226 0
251 -49 42 0
53 -136 279 0
130 64 89 0
-273 -65 89 0
111 220 283 0
-42 -164 204 0
61 221 -27 0
68 -150 50 0
44 -118 -261 0
34 59 87 0
85 182 -99 0
131 -32 91 0
-117 8 -209 0
-75 -77 -23 0
-129 152 133 0
-29 211 -150 0
-195 264 217 0
-26 -185 208 0
31 204 -258 0
276 83 -186 0
-221 -122 38 0
110 72 280 0
13 -276 -58 0
23 -30 11 0
242 108 128 0
-89 13 -281 0
-156 -120 -269 0
-24 216 -236 0
-182 -111 280 0
108 -59 196 0
-231 -117 -79 0
-239 -222 -233 0
247 115 -40 0
-93 257 120 0
-153 17 66 0
255 68 135 0
-216 178 188 0
-109 -71 -9 0
205 198 -234 0
-57 -215 -179 0
-235 -90 -147 0
276 188 101 0
-30 -68 260 0
-128 102 84 0
-261 281 -259 0
-194 113 -263 0
240 210 -181 0
56 119 -114 0
-190 274 123 0
-241 58 -244 0
-163 -208 222 0
-212 -172 -26 0
254 147 -141 0
-223 105 -251 0
136 139 -77 0
-21 -99 98 0
-229 263 189 0
189 -216 60 0
-273 -17 -151 0
-100 -61 25 0
207 143 46 0
229 180 5 0
-266 -137 14 0
-23 98 -124 0
-156 -158 -37 0
-134 -68 143 0
-37 -40 -133 0
-201 -134 -78 0
-104 -260 -23 0
-33 73 -138 0
-264 148 176 0
161 -148 190 0
72 148 -92 0
-281 -126 -223 0
-15 -10 164 0
272 -284 167 0
1 271 168 0
117 -280 -23 0
-14 87 71 0
-88 61 265 0
-27 85 -65 0
77 -84 25 0
-205 -78 245 0
-13 -250 95 0
173 97 -72 0
88 -161 -41 0
44 245 206 0
95 -236 82 0
96 -50 154 0
212 108 -207 0
-156 -223 214 0
-201 196 -247 0
-17 -275 19 0
105 246 -155 0
263 -253 227 0
-206 72 -251 0
128 -205 -25 0
8 149 109 0
-58 254 220 0
179 133 67 0
172 -233 132 0
241 149 223 0
206 277 184 0
-159 -105 4 0
-31 137 102 0
24 277 31 0
32 -61 -248 0
217 54 -175 0
-249 -22 35 0
-123 229 -48 0
142 266 170 0
118 36 -122 0
103 -144 -109 0
198 -246 -54 0
-65 83 255 0
-73 -24 263 0
54 147 253 0
113 -179 -267 0
128 -185 152 0
-67 -261 100 0
-72 -49 -126 0
-41 -118 -258 0
-270 264 -176 0
98 69 212 0
-183 48 172 0
17 -102 230 0
46 -251 -141 0
149 205 7 0
257 104 172 0
-38 192 91 0
84 128 234 0
-28 254 141 0
-166 -59 90 0
-283 -203 -163 0
181 194 135 0
-58 -204 -197 0
160 -107 104 0
-235 285 -209 0
255 102 -57 0
244 -7 243 0
-43 -251 121 0
-93 -242 -201 0
-182 -208 -38 0
241 -253 2 0
-132 231 159 0
-241 191 61 0
-211 104 2 0
23 269 -76 0
270 -107 58 0
215 -118 -264 0
-6 24 16 0
-154 134 -85 0
119 155 -138 0
278 -6 264 0
-114 132 137 0
-165 46 -159 0
-77 116 -237 0
-216 39 -70 0
-120 80 -135 0
-149 47 237 0
117 -141 44 0
135 266 280 0
-271 136 122 0
-261 -92 120 0
145 268 -124 0
-103 169 35 0
-247 -274 -275 0
76 -95 57 0
-257 -98 33 0
-212 -91 -87 0
-69 -29 163 0
121 -11 215 0
-204 -255 -242 0
-235 229 -150 0
-281 -54 -100 0
-206 -20 -188 0
-57 13 257 0
-109 111 -103 0
56 -134 210 0
239 114 -1 0
43 -33 5 0
-213 -146 -264 0
-96 175 -23 0
-45 -263 43 0
23 -106 -264 0
266 -42 -209 0
-265 -56 -59 0
34 79 193 0
258 17 128 0
154 106 228 0
245 -206 56 0
22 84 -153 0
-204 149 77 0
122 268 -73 0
145 280 285 0
85 -265 148 0
181 239 211 0
-182 -127 -60 0
-276 -1 -284 0
77 -214 127 0
-160 137 253 0
284 29 -118 0
145 -159 135 0
7 -151 13 0
93 284 -158 0
-166 58 -7 0
125 121 276 0
242 -57 139 0
-9 -111 -39 0
191 -113 100 0
38 -45 -80 0
44 -130 168 0
58 11 -120 0
-139 92 -15 0
-168 -150 118 0
-167 -28 145 0
163 275 -232 0
168 124 100 0
187 68 -45 0
-134 -170 75 0
-258 -193 -178 0
137 -279 205 0
4 -181 -157 0
-89 -202 138 0
-70 -67 13 0
268 -95 -40 0
259 102 177 0
41 -44 17 0
-262 -95 273 0
-131 39 -217 0
-44 -240 93 0
72 -105 195 0
67 -223 11 0
-113 -166 -263 0
-216 257 -94 0
-99 284 192 0
-65 -167 199 0
-264 -78 166 0
111 161 -6 0
-228 271 175 0
-249 -51 258 0
-236 -275 70 0
-135 89 256 0
-33 -274 -21 0
-58 249 246 0
-269 273 259 0
7 51 -206 0
-66 134 10 0
-192 -7 -149 0
136 -81 -74 0
-170 -195 207 0
143 -102 248 0
-131 -180 -273 0
86 8 -262 0
147 -36 -134 0
44 130 -269 0
29 231 -131 0
-10 -139 -88 0
280 -30 -119 0
168 -242 115 0
-32 104 39 0
141 266 246 0
199 -106 -201 0
-89 2 -251 0
-48 164 -106 0
-61 -271 -131 0
232 277 190 0
-213 139 42 0
126 134 7 0
-85 -184 -188 0
18 275 138 0
-266 -273 103 0
-41 -15 -148 0
203 118 -241 0
-152 24 -205 0
150 -165 -106 0
30 -190 -137 0
-228 -155 41 0
261 -95 -60 0
121 47 224 0
83 122 -245 0
-8 282 108 0
5 -142 157 0
-272 260 -97 0
266 251 -76 0
5 -205 -16 0
-188 -54 141 0
-200 -279 -116 0
-31 178 232 0
-105 -129 169 0
-10 113 204 0
-268 -8 70 0
-258 -61 -210 0
-123 -271 -136 0
52 162 123 0
-211 213 207 0
-222 -282 63 0
179 -148 256 0
188 -231 193 0
-169 -71 1 0
187 107 -100 0
3 -7 -260 0
222 -139 60 0
-215 264 -129 0
-152 -176 -275 0
-249 250 177 0
52 8 -186 0
261 126 -230 0
92 166 -128 0
-167 -16 108 0
-170 80 -144 0
116 74 -39 0
-215 193 102 0
-278 175 -143 0
-275 169 126 0
62 95 15 0
40 132 -208 0
-15 167 91 0
202 -176 169 0
267 260 -141 0
-38 -259 -204 0
-157 -254 112 0
184 -245 -36 0
-159 48 -172 0
-99 122 -112 0
-254 21 252 0
-216 272 -133 0
80 -138 242 0
-72 162 34 0
110 -10 162 0
-82 -99 162 0
-248 109 174 0
-26 192 -279 0
-19 -75 -32 0
-202 209 -274 0
-54 -98 18 0
-83 253 -91 0
119 -204 75 0
-246 59 25 0
-64 -237 -165 0
214 -125 -248 0
-47 285 280 0
-65 -110 -166 0
101 -207 -34 0
34 235 100 0
-276 -127 109 0
67 200 201 0
-17 15 254 0
-175 105 -149 0
108 281 265 0
-12 -201 -145 0
-38 -10 214 0
186 4 261 0
-2 -261 134 0
-110 235 -171 0
-70 -206 214 0
-37 -24 169 0
49 210 269 0
-157 -95 -190 0
-109 284 -15 0
254 239 185 0
41 142 159 0
63 229 -272 0
191 233 40 0
-210 -231 105 0
81 -70 180 0
-109 -274 -212 0
-145 -47 75 0
-51 162 241 0
9 -36 65 0
-61 -30 267 0
212 265 133 0
-164 -283 -4 0
-24 222 230 0
-162 -49 125 0
-86 -138 277 0
69 123 -124 0
215 250 249 0
69 -258 51 0
6 53 -272 0
-144 54 87 0
-8 65 179 0
204 199 -98 0
110 86 147 0
179 213 59 0
177 -1 -47 0
-85 -146 260 0
55 191 146 0
119 -77 24 0
-157 264 229 0
-21 -34 -100 0
-127 19 239 0
188 -267 134 0
-22 -40 -272 0
-158 275 253 0
-148 161 249 0
90 -263 244 0
88 -281 -219 0
50 270 198 0
-160 -206 -105 0
127 -69 138 0
-283 -31 144 0
190 -257 -185 0
63 54 -113 0
-19 -123 89 0
-127 200 -104 0
-215 105 60 0
212 262 34 0
-188 -243 218 0
-151 149 -259 0
193 163 30 0
116 250 -189 0
30 -32 34 0
65 -128 230 0
89 -147 -83 0
-134 139 -260 0
-124 74 -248 0
253 -141 74 0
-213 11 253 0
-113 231 -112 0
-116 -165 -180 0
87 -167 66 0
93 80 -269 0
-266 -28 -39 0
-186 79 12 0
-199 253 -280 0
66 16 198 0
140 -137 110 0
-273 -70 -14 0
-25 -166 84 0
49 109 10 0
63 202 -204 0
-63 93 82 0
-118 262 8 0
42 -57 -87 0
179 -102 187 0
114 -278 95 0
-170 247 121 0
-70 -164 -210 0
-185 280 182 0
203 -121 -152 0
-162 27 126 0
140 -10 -54 0
-34 -69 36 0
-148 -263 268 0
121 -42 109 0
31 181 -137 0
141 -224 221 0
-95 259 25 0
253 -75 -175 0
6 249 -73 0
-176 -267 -152 0
-30 -213 -148 0
-100 -275 -94 0
-206 -64 -146 0
-2 244 178 0
-49 27 -66 0
38 -166 256 0
272 208 -92 0
-63 -276 212 0
7 -197 -282 0
-19 -207 226 0
121 -69 -40 0
-278 24 149 0
-158 265 95 0
-118 -32 -212 0
215 -155 116 0
-255 -141 219 0
-105 -264 193 0
-92 -98 -5 0
49 231 194 0
-260 -226 26 0
267 193 19 0
176 -204 -150 0
-156 28 -131 0
71 214 -148 0
-272 192 -65 0
188 -161 32 0
285 -73 139 0
-192 55 -272 0
-259 135 202 0
235 -73 251 0
185 52 160 0
-31 49 132 0
-275 49 -99 0
-76 245 -30 0
-164 -169 -256 0
78 -119 31 0
-105 245 -145 0
36 -55 -126 0
-19 237 -279 0
-235 78 -81 0
-174 135 -231 0
16 78 158 0
-235 260 79 0
-167 -158 33 0
-165 -183 -99 0
-129 -178 109 0
14 -185 -188 0
-10 -229 -231 0
-31 248 -279 0
242 -168 203 0
45 -200 -197 0
-98 260 197 0
83 -114 -183 0
81 74 199 0
-168 118 33 0
37 110 -23 0
265 261 -48 0
-201 34 -31 0
52 -84 -94 0
-34 209 224 0
-133 -130 80 0
162 22 -159 0
248 -10 -223 0
133 115 130 0
253 153 225 0
276 -11 24 0
-213 -57 92 0
-35 -67 270 0
7 226 71 0
269 -31 285 0
-239 -283 52 0
203 95 9 0
-107 -281 88 0
-258 -230 -113 0
68 -8 -218 0
-84 -52 -237 0
17 -250 -33 0
-66 146 250 0
-36 -199 196 0
-207 -40 126 0
235 -179 79 0
52 -213 73 0
11 137 123 0
-99 -102 86 0
156 1 -118 0
-36 -243 115 0
-122 -201 270 0
36 -245 -150 0
265 86 -209 0
-35 -80 -239 0
104 -30 204 0
224 158 253 0
57 -280 87 0
-98 -91 -268 0
-156 131 -235 0
271 191 -28 0
-68 -186 250 0
160 193 -147 0
-168 -217 -67 0
212 -140 78 0
250 90 -45 0
-39 216 -205 0
-18 238 14 0
-110 -212 68 0
-272 128 127 0
15 -277 115 0
-41 28 -128 0
-245 -87 222 0
-241 161 6 0
-262 -216 272 0
209 -77 -19 0
-98 -110 -129 0
145 -180 233 0
222 172 -85 0
31 2 25 0
190 -144 -106 0
259 177 -155 0
-217 -57 -281 0
-252 -191 97 0
-180 137 -105 0
-68 -257 265 0
-214 48 -35 0
175 97 -191 0
92 -50 -74 0
114 -167 -83 0
161 -142 -114 0
-20 25 -285 0
-28 -255 197 0
-201 207 103 0
134 -221 -114 0
233 199 239 0
-106 36 -82 0
192 267 115 0
259 65 -279 0
-151 91 -121 0
-93 -122 -239 0
143 37 198 0
220 264 -95 0
-111 -134 276 0
-13 -233 -228 0
-237 -11 138 0
-254 -283 -82 0
-276 158 -178 0
170 -274 46 0
46 -165 -61 0
-246 215 9 0
-224 196 151 0
46 -6 -149 0
110 273 105 0
149 228 184 0
-214 -187 77 0
17 2 -130 0
173 -88 202 0
243 -217 -35 0
-61 281 -196 0
-49 -231 -42 0
75 64 -34 0
-249 122 198 0
37 -256 267 0
226 231 79 0
180 -278 107 0
-215 194 -180 0
64 185 102 0
46 273 226 0
-153 -68 -280 0
69 278 190 0
48 -250 107 0
-252 32 65 0
236 204 71 0
35 48 2 0
-73 -283 -217 0
24 55 13 0
-226 199 -201 0
274 -131 -97 0
-210 46 -105 0
106 -115 163 0
153 -194 -185 0
98 -33 -69 0
137 69 121 0
-25 -132 57 0
280 -114 28 0
36 31 -141 0
128 282 36 0
5 -167 -26 0
-272 -205 207 0
-3 175 152 0
-118 -10 -255 0
191 263 47 0
-130 -170 -34 0
97 -155 -119 0
-256 -113 21 0
-46 -186 170 0
182 -117 -258 0
169 199 99 0
212 226 170 0
-1 281 113 0
102 266 272 0
-119 21 -71 0
-207 -33 216 0
159 -271 214 0
167 -50 -75 0
-53 37 211 0
-272 -202 150 0
149 -258 43 0
200 -39 168 0
246 -233 205 0
-63 -184 25 0
-166 -45 -35 0
-1 118 -281 0
-90 113 119 0
11 -13 34 0
-135 2 -55 0
143 -245 106 0
163 -117 -64 0
3 -77 -2 0
3 -31 243 0
175 191 -140 0
-68 182 -266 0
-262 50 -222 0
-60 -58 -39 0
100 129 92 0
121 -14 -29 0
-198 160 120 0
-273 -185 -190 0
-86 -134 19 0
281 214 97 0
70 -250 19 0
-82 48 -231 0
230 -56 37 0
-63 -280 -87 0
254 -72 -164 0
139 -102 80 0
123 -65 120 0
-205 -138 47 0
136 54 194 0
163 159 -100 0
195 92 -134 0
-214 222 -243 0
231 -63 -190 0
-205 172 -245 0
-144 -149 -223 0
256 190 -25 0
-107 260 104 0
-277 77 245 0
149 -190 -266 0
-238 -57 -188 0
-135 260 267 0
-221 -30 -181 0
77 -236 274 0
254 -273 -237 0
-209 227 104 0
-168 128 -157 0
168 -119 271 0
78 196 -60 0
-163 -247 52 0
-18 -140 -259 0
279 -108 232 0
153 -178 -237 0
-138 -218 61 0
282 -48 -20 0
-112 213 -141 0
-138 255 32 0
125 -9 -136 0
118 57 -46 0
-199 269 235 0
-75 -222 -117 0
246 -96 35 0
-137 62 -231 0
277 77 -247 0
276 -123 26 0
-74 151 -278 0
172 195 262 0
124 164 16 0
-15 -185 -50 0
233 177 -105 0
-279 -45 -55 0
-5 -227 177 0
-202 -122 142 0
-267 -55 48 0
-231 -196 239 0
-101 -20 -88 0
-174 -184 -167 0
-198 -265 72 0
99 124 -261 0
46 42 143 0
44 -112 6 0
207 239 -271 0
-47 -132 -2 0
114 135 194 0
22 278 179 0
-157 41 -57 0
71 -115 138 0
-52 189 -63 0
114 -77 -130 0
-162 73 -260 0
129 34 -186 0
-225 239 235 0
-147 34 -223 0
273 -110 -169 0
61 169 -246 0
-96 -178 170 0
72 -187 -270 0
83 -206 117 0
-102 -153 211 0
-244 -64 -197 0
-259 69 44 0
-165 -175 -39 0
208 229 -7 0
-220 -259 -95 0
-282 91 167 0
126 68 260 0
-7 -14 -113 0
209 -137 184 0
122 -72 -154 0
-112 121 -132 0
-45 130 122 0
-196 -109 -158 0
-185 -209 -183 0
261 -14 -285 0
-61 29 -107 0
-44 -127 -70 0
227 -184 -94 0
194 -156 172 0
-140 -261 83 0
262 210 92 0
83 174 -210 0
187 88 231 0
31 -281 -219 0
152 180 60 0
80 -274 267 0
-277 -4 279 0
-269 223 -154 0
-111 -74 278 0
-168 196 206 0
-196 174 79 0
-119 -60 -37 0
240 24 150 0
138 254 108 0
270 253 -125 0
285 -41 -67 0
201 -96 78 0
21 -199 110 0
267 -101 -225 0
-274 -5 -171 0
-29 217 -74 0
159 131 194 0
-108 -77 79 0
169 215 132 0
177 80 -183 0
-13 49 164 0
-129 -263 271 0
-180 285 70 0
-201 -13 -270 0
-265 202 -266 0
194 48 -116 0
-23 110 39 0
163 -251 -145 0
-197 28 -21 0
126 234 -124 0
-77 251 -21 0
47 201 -105 0
-109 41 -148 0
69 106 158 0
118 -257 -172 0
148 240 132 0
-75 -270 -181 0
-256 -277 179 0
170 -267 -188 0
63 51 -85 0
163 29 -246 0
63 -102 194 0
-20 -89 -44 0
-114 -153 -250 0
191 6 -34 0
93 214 139 0
-193 -255 50 0
-81 -41 222 0
-204 269 76 0
6 -249 232 0
124 221 83 0
-264 252 -279 0
-231 -271 -122 0
-123 62 76 0
248 17 51 0
-205 -170 -150 0
198 -72 -87 0
-184 -51 31 0
68 -216 -77 0
-184 27 123 0
-209 277 195 0
-91 149 -73 0
218 -31 -91 0
251 -218 -141 0
8 89 199 0
-262 224 -196 0
222 46 132 0
-188 -17 179 0
249 126 10 0
-127 67 -254 0
-160 -167 47 0
-170 -28 227 0
230 166 278 0
97 -12 -205 0
137 -243 160 0
260 161 -247 0
-234 -186 142 0
78 -35 -14 0
58 -154 -189 0
-84 207 169 0
265 156 -117 0
-80 280 252 0
-177 220 29 0
-30 -63 -270 0
-26 -192 -125 0
-124 -56 80 0
157 -148 -273 0
-143 -202 -241 0
74 -129 283 0
204 -254 69 0
-202 238 205 0
270 -110 -211 0
-117 -239 6 0
32 175 -149 0
46 132 -248 0
69 -93 -245 0
-25 -155 -199 0
66 16 271 0
-268 210 -124 0
57 -121 -70 0
-22 276 235 0
189 -222 219 0
-189 -73 126 0
130 137 216 0
-219 -220 -14 0
17 160 159 0
142 21 83 0
-250 -152 20 0
91 232 -115 0
-193 26 122 0
175 263 -212 0
-164 222 -139 0
268 -12 224 0
10 -271 -28 0
-276 -248 108 0
254 -28 -232 0
110 -89 -35 0
74 -119 175 0
-22 118 4 0
97 248 59 0
173 -113 -106 0
-238 150 262 0
-194 -158 -90 0
56 -245 32 0
104 -94 -43 0
-186 178 61 0
-46 -24 -15 0
256 -198 -276 0
-145 -148 -249 0
-3 195 152 0
-74 -55 27 0
22 88 -40 0
-237 -182 106 0
26 100 -28 0
-140 -264 119 0
204 154 137 0
-225 -177 -285 0
77 42 -258 0
150 152 58 0
-136 230 -34 0
-75 92 -269 0
205 -52 255 0
-201 -178 20 0
-6 138 -25 0
-66 240 153 0
125 -82 -8 0
123 -258 147 0
-37 231 -159 0
214 -233 -137 0
65 -215 -244 0
-244 104 6 0
185 168 -178 0
148 -119 -27 0
52 103 -213 0
126 167 221 0
272 -186 -269 0
210 61 -258 0
131 129 -5 0
167 -64 224 0
-35 -266 232 0
228 61 3 0
187 77 42 0
185 -42 -86 0
88 104 97 0
-85 164 110 0
-168 5 -89 0
50 -135 167 0
-187 90 20 0
92 200 5 0
284 -150 -51 0
95 108 -162 0
-7 -168 -25 0
192 -226 -157 0
-136 -209 -82 0
111 205 224 0
-239 229 -217 0
32 -280 -223 0
119 48 209 0
-208 -133 -49 0
176 147 -125 0
-284 146 -47 0
-198 -49 -42 0
193 -28 61 0
103 168 282 0
-251 211 6 0
-163 2 -88 0
-280 57 16 0
33 259 111 0
15 -194 249 0
-259 -15 -234 0
70 -268 -120 0
-187 -174 147 0
18 -8 244 0
21 201 231 0
-267 -30 56 0
-214 -156 261 0
-257 -186 -248 0
-16 -148 129 0
-238 135 113 0
275 268 196 0
52 161 221 0
212 -44 115 0
56 147 198 0
272 69 -166 0
249 -105 157 0
172 246 -196 0
166 -35 -156 0
144 194 146 0
34 57 20 0
-144 -91 -31 0
-75 216 267 0
-24 -102 -104 0
54 -186 -238 0
-275 204 117 0
196 42 51 0
-224 285 147 0
-155 192 38 0
129 -245 96 0
-37 -226 41 0
-4 -247 -113 0
-279 -189 -114 0
-127 -65 265 0
-119 76 174 0
-135 200 63 0
-237 -138 194 0
202 52 242 0
157 -285 -74 0
191 115 5 0
-225 263 -202 0
251 -103 4 0
-82 -244 165 0
115 184 248 0
-85 280 114 0
-105 59 179 0
116 -255 88 0
147 183 226 0
11 -211 -268 0
119 -161 -84 0
-89 -54 -24 0
177 161 90 0
-108 232 233 0
-7 84 38 0
89 6 -52 0
-202 -108 -51 0
-236 -165 29 0
136 173 174 0
257 96 -226 0
136 160 -133 0
-182 273 -78 0
106 225 -153 0
277 92 -70 0
-194 280 -282 0
-229 180 -123 0
216 -7 -167 0
-54 -71 -35 0
67 170 244 0
-246 -151 -235 0
-31 182 -257 0
134 -27 268 0
-96 33 180 0
-99 30 -32 0
-173 160 83 0
-152 -90 191 0
94 -114 185 0
-270 -150 -245 0
-183 128 267 0
152 179 -149 0
-130 -274 48 0
108 -84 169 0
240 -116 -132 0
-91 192 -94 0
238 -183 227 0
113 -63 11 0
155 270 -35 0
115 -126 -202 0
-222 -267 9 0
-1 161 140 0
155 -100 217 0
-3 157 -239 0
40 -80 -79 0
-149 45 -35 0
