p cnf 285 1214
-59 250 30 0
51 -67 169 0
45 240 185 0
227 64 62 0
158 -77 -66 0
12 -197 -165 0
-237 115 57 0
-173 -168 98 0
167 277 -37 0
-284 235 42 0
29 251 -232 0
163 -174 -99 0
-128 -146 -52 0
133 -186 -75 0
-123 217 68 0
-224 -144 -200 0
4 -25 -38 0
-31 255 -85 0
131 126 256 0
-273 135 16 0
-17 284 62 0
9 -137 40 0
-263 -264 2 0
-218 129 -147 0
-56 -31 104 0
31 74 -85 0
-152 -210 -255 0
-34 161 -264 0
-244 -45 152 0
76 30 -246 0
185 -20 -220 0
-125 255 -50 0
201 200 26 0
169 217 -127 0
-231 -31 274 0
264 161 143 0
133 -239 260 0
-80 164 -56 0
-80 -177 -89 0
-213 87 195 0
209 -118 13 0
12 62 191 0
79 -222 35 0
-1 269 252 0
31 -82 -188 0
105 -164 -114 0
-107 190 276 0
191 252 -243 0
206 -195 128 0
-27 -248 21 0
20 -57 117 0
108 20 -96 0
-132 281 -123 0
-79 -25 99 0
-165 182 -28 0
138 213 -10 0
149 -261 -55 0
-260 -133 -57 0
-88 264 -58 0
242 184 219 0
-166 192 -254 0
-221 270 12 0
-60 -204 -99 0
-76 -17 -224 0
-20 -144 -170 0
-224 -128 170 0
121 -39 -156 0
-157 93 34 0
27 91 182 0
170 -8 192 0
33 276 87 0
-76 284 -20 0
-43 -207 -157 0
248 174 2 0
-42 118 193 0
-148 -180 -103 0
162 -187 192 0
49 218 -23 0
94 -242 101 0
94 271 -167 0
-35 -137 -153 0
264 -17 9 0
-111 216 -229 0
-201 -77 95 0
-57 164 -190 0
-225 31 -220 0
-151 32 -174 0
-64 145 232 0
-199 79 255 0
207 137 -280 0
110 -163 -234 0
-196 -45 -212 0
89 -42 161 0
-163 115 209 0
152 105 -93 0
204 212 195 0
175 -12 -146 0
133 -102 -18 0
99 4 247 0
-147 59 -21 0
26 62 -245 0
-199 72 49 0
14 -102 -20 0
-165 198 217 0
201 -206 -165 0
-171 42 -11 0
205 -112 56 0
-270 273 16 0
-124 108 -203 0
109 139 -8 0
83 -241 -193 0
87 175 261 0
-80 165 -266 0
-32 215 -170 0
116 256 130 0
244 148 -84 0
169 -97 124 0
-106 -244 -12 0
251 -195 238 0
169 105 -111 0
225 119 -62 0
181 -253 -106 0
244 13 -243 0
-267 -177 251 0
180 -198 -168 0
156 -285 273 0
209 230 -33 0
76 -119 -255 0
-20 -195 9 0
-124 -284 253 0
-143 276 -194 0
-70 -233 -189 0
135 279 -216 0
-276 -231 -23 0
-82 26 255 0
-39 111 238 0
-16 191 55 0
204 -90 -252 0
17 -4 -178 0
-58 -37 237 0
112 62 147 0
-248 124 206 0
171 183 84 0
257 -42 76 0
260 118 201 0
178 -202 30 0
-103 -253 -229 0
-21 -271 80 0
-250 -264 -120 0
55 140 -109 0
247 95 60 0
159 -247 219 0
-164 -197 232 0
-255 2 263 0
-245 261 39 0
226 -181 -27 0
232 -12 -229 0
237 -192 -106 0
170 260 104 0
132 -75 -259 0
-199 254 128 0
98 -59 163 0
113 244 -127 0
76 255 131 0
28 21 -276 0
4 187 63 0
-260 152 -149 0
57 -259 -48 0
-52 -34 195 0
63 223 -173 0
40 -69 62 0
-154 -230 69 0
233 -229 -183 0
82 -268 145 0
240 -107 -56 0
6 -215 274 0
-62 172 269 0
-19 22 234 0
-57 82 -283 0
106 -21 184 0
-214 -11 61 0
255 -6 -24 0
15 28 91 0
133 257 -153 0
280 58 -22 0
40 -204 9 0
114 239 244 0
-16 -190 235 0
-4 -114 -81 0
62 61 -271 0
194 257 273 0
-213 -22 193 0
-167 -18 -56 0
-186 12 1 0
30 -231 -70 0
-103 -234 -53 0
-48 -9 143 0
-37 235 -225 0
-224 56 -61 0
218 190 153 0
-111 113 -125 0
26 -222 -212 0
282 -238 241 0
124 -81 40 0
-279 -47 146 0
164 48 -238 0
3 -39 -205 0
21 -107 65 0
243 166 -271 0
208 193 260 0
-38 -229 -133 0
-55 -214 -64 0
62 284 143 0
145 -270 277 0
-82 -143 -35 0
-273 268 -110 0
-183 7 9 0
-203 278 -46 0
-91 -278 -235 0
-72 127 68 0
205 -21 188 0
169 -74 -77 0
184 -40 257 0
270 -141 284 0
201 -136 35 0
-169 143 -32 0
-3 177 -62 0
38 162 283 0
275 -10 -254 0
152 13 -266 0
166 143 83 0
55 -264 -51 0
98 -264 -132 0
252 -208 -155 0
-103 -55 -220 0
-42 -162 156 0
84 165 -279 0
-60 101 -202 0
-98 -120 -167 0
12 -128 -220 0
176 200 123 0
228 226 -256 0
-225 -194 -163 0
-254 109 20 0
-269 -267 166 0
161 -191 241 0
283 -235 128 0
2 -225 -268 0
168 -95 48 0
-255 -111 20 0
276 57 82 0
70 -249 -106 0
157 247 162 0
-27 51 146 0
-19 68 -75 0
176 -7 105 0
149 254 219 0
-88 -184 96 0
-83 228 16 0
27 -54 -247 0
-81 12 227 0
-28 -267 206 0
-85 149 -99 0
78 -236 -230 0
10 -38 233 0
-15 184 222 0
-140 -55 139 0
8 248 -10 0
129 -122 142 0
246 60 239 0
111 178 -123 0
51 -152 40 0
204 -186 203 0
-109 130 82 0
-8 264 -194 0
46 -109 -58 0
30 60 187 0
-17 -44 28 0
-284 187 283 0
-233 -215 63 0
158 268 100 0
78 -285 97 0
-32 243 -246 0
168 200 61 0
-58 3 -117 0
127 -255 62 0
79 225 31 0
63 -34 243 0
208 -26 -113 0
-203 -30 42 0
118 -145 -6 0
-208 261 -221 0
-1 230 -10 0
-86 -237 -172 0
206 -8 177 0
223 104 -184 0
-67 51 207 0
219 -48 -10 0
248 101 -67 0
-33 188 -253 0
164 -126 -206 0
146 187 180 0
-225 270 -284 0
-102 -241 89 0
-68 -67 92 0
-164 -158 275 0
240 -118 195 0
-171 -208 254 0
262 201 55 0
-103 -178 -201 0
-94 73 117 0
-30 6 -37 0
-281 -47 34 0
-236 -155 22 0
-93 172 269 0
-283 250 231 0
-253 -226 -174 0
119 -36 -30 0
-221 237 46 0
48 142 -243 0
246 38 214 0
-12 100 -95 0
-283 19 -35 0
147 -53 67 0
-238 -133 229 0
-195 126 -101 0
264 -108 182 0
-228 -102 -141 0
35 -182 -51 0
60 12 6 0
194 265 91 0
176 -174 -40 0
108 67 -233 0
-219 -51 -227 0
161 -231 -138 0
24 57 129 0
180 -229 72 0
250 -183 169 0
110 240 144 0
37 182 190 0
-121 -7 137 0
176 76 -173 0
-38 168 -240 0
224 -92 130 0
-125 -206 -282 0
246 -154 -20 0
-198 94 -62 0
-180 34 96 0
-199 -180 -88 0
-170 -39 -56 0
185 -195 -19 0
-10 -189 -203 0
-265 148 -254 0
-21 210 100 0
-104 284 -179 0
3 39 -252 0
68 -116 211 0
221 -81 276 0
-56 149 174 0
138 89 132 0
229 -134 149 0
73 -78 -233 0
-135 -53 139 0
260 -113 -241 0
-254 194 158 0
151 -56 -171 0
-192 269 164 0
-32 -168 56 0
220 -192 180 0
-29 12 -34 0
203 268 78 0
-42 -38 -211 0
-284 19 -87 0
-27 -218 -53 0
-246 -11 -170 0
-156 105 -267 0
-127 149 125 0
-131 -241 66 0
172 111 -133 0
-74 -96 -201 0
241 282 135 0
110 -204 70 0
-92 -262 280 0
258 -51 -37 0
-88 -178 193 0
-278 -129 -63 0
217 -87 231 0
198 99 -210 0
110 -186 -7 0
-22 62 131 0
-261 59 -116 0
71 -280 203 0
-177 -83 -234 0
-210 -204 -198 0
-56 91 -25 0
-161 173 -152 0
267 31 -37 0
75 285 -127 0
-163 139 157 0
-60 269 -93 0
-154 -194 -281 0
-268 -230 78 0
282 147 -27 0
189 153 139 0
-145 237 11 0
144 50 115 0
256 -129 21 0
101 80 -38 0
208 -67 175 0
-183 228 222 0
185 183 -102 0
-137 -182 104 0
-50 -17 261 0
259 272 -108 0
-13 190 -208 0
71 5 -116 0
210 -242 -270 0
-198 169 264 0
226 103 231 0
142 76 -147 0
112 215 -66 0
-262 -253 -150 0
-93 53 -238 0
-116 -9 -271 0
4 -15 -59 0
57 79 179 0
-144 236 64 0
-32 27 74 0
-161 233 -125 0
120 -213 125 0
-41 -37 -164 0
228 92 47 0
128 -275 172 0
-254 56 -152 0
276 5 -218 0
22 -147 210 0
-78 168 -181 0
-192 134 272 0
-205 251 21 0
82 -20 -157 0
229 -147 178 0
-228 -239 -121 0
21 -134 46 0
-243 -25 -148 0
-45 3 -153 0
-220 -215 151 0
-99 -141 117 0
-97 -51 -201 0
-2 18 -173 0
-69 -195 204 0
155 219 -1 0
-213 -166 93 0
-247 -166 -168 0
-200 -249 108 0
37 192 -269 0
119 -184 71 0
160 46 94 0
-15 7 -270 0
-67 -42 9 0
-238 239 132 0
103 65 -52 0
146 236 193 0
259 -112 283 0
-165 89 -251 0
161 45 40 0
89 132 -247 0
-54 -74 -123 0
133 -64 179 0
-190 222 191 0
173 230 274 0
237 -118 -140 0
205 32 -196 0
-114 3 -209 0
-75 281 271 0
-282 -265 60 0
-132 -184 -251 0
186 -26 100 0
125 146 -59 0
10 -167 -204 0
250 -39 168 0
215 272 -74 0
105 149 -19 0
273 -140 13 0
65 -139 -113 0
31 38 -80 0
181 273 -89 0
-53 259 -150 0
86 -239 246 0
-21 -2 46 0
282 -191 198 0
222 -79 260 0
242 -170 47 0
113 -92 268 0
-21 259 -118 0
9 -173 -163 0
83 179 267 0
-183 7 129 0
52 -78 -7 0
246 160 -216 0
-28 10 138 0
101 74 160 0
72 -119 -272 0
207 -15 -177 0
-139 -34 33 0
-240 214 175 0
83 -170 223 0
-110 3 -98 0
-238 96 109 0
-122 -20 -120 0
-101 -269 -19 0
-24 -80 270 0
270 49 134 0
15 62 -47 0
-130 113 254 0
-130 205 280 0
-41 -169 205 0
14 146 149 0
-164 -58 -191 0
206 122 -169 0
-62 137 20 0
-57 -32 19 0
-159 -280 218 0
-192 -173 242 0
-76 137 -96 0
-231 -267 6 0
163 -216 -256 0
74 59 -50 0
138 125 104 0
-91 -199 -45 0
112 -74 31 0
-146 -120 8 0
121 104 -62 0
85 -270 204 0
-113 115 282 0
64 272 -76 0
41 -249 220 0
-172 1 57 0
-215 -86 -149 0
45 84 221 0
-43 148 -10 0
26 177 42 0
210 142 -189 0
79 154 -22 0
5 53 197 0
-60 21 -29 0
108 -220 146 0
91 -250 -123 0
-223 -7 -68 0
15 41 -201 0
200 -273 -148 0
-232 101 102 0
166 171 103 0
135 -60 124 0
175 -75 89 0
-78 193 -247 0
-164 -279 -111 0
-103 112 282 0
-186 -215 -87 0
266 252 248 0
-15 89 101 0
14 1 -135 0
-169 -207 29 0
202 -200 -72 0
-16 -119 179 0
122 158 146 0
116 48 274 0
233 -51 -164 0
284 30 -277 0
216 144 175 0
-148 102 161 0
219 54 -3 0
121 233 272 0
-143 -63 193 0
238 -42 -147 0
277 -123 -166 0
-265 -156 52 0
86 161 8 0
-223 -114 73 0
-268 -205 -279 0
15 -40 -57 0
-16 -207 -281 0
-182 212 200 0
-147 42 185 0
-166 17 259 0
47 -58 113 0
120 -238 -80 0
-48 243 17 0
-125 -171 -263 0
-101 264 -12 0
-124 -7 163 0
-201 -233 24 0
129 -15 -201 0
256 249 -126 0
-243 284 163 0
63 -79 -127 0
143 -53 -179 0
-145 -196 -255 0
-27 68 -253 0
-168 117 208 0
-103 10 119 0
-217 71 135 0
252 -38 262 0
-223 66 132 0
-144 76 218 0
164 179 276 0
108 84 -40 0
267 -125 44 0
283 -105 217 0
78 56 202 0
127 46 -211 0
105 69 217 0
57 252 108 0
-213 113 -147 0
-92 157 -178 0
-22 264 -258 0
-113 -270 -205 0
-237 -278 -35 0
-128 -91 273 0
-220 234 5 0
230 -48 216 0
201 -268 -273 0
230 25 -70 0
-284 -168 -72 0
-58 -252 -85 0
-50 229 77 0
-30 -52 243 0
-235 139 -176 0
115 -52 -256 0
217 260 -155 0
-118 116 -240 0
88 227 -105 0
135 106 281 0
-102 156 47 0
-104 269 -20 0
-63 271 -231 0
144 -256 171 0
-136 241 12 0
131 -106 -167 0
-142 -24 -171 0
-101 -100 -34 0
253 104 -148 0
39 -42 104 0
-66 -270 278 0
8 -96 76 0
195 -186 187 0
19 193 248 0
-92 244 -139 0
-17 -58 274 0
280 -87 -86 0
-57 89 258 0
-65 6 -1 0
9 -192 -257 0
-77 -113 148 0
182 173 -215 0
53 1 -139 0
266 -113 179 0
-249 -200 191 0
-210 45 -284 0
-78 -180 116 0
-10 -157 228 0
147 -227 -173 0
149 225 -269 0
-148 -164 82 0
117 -272 133 0
38 276 -105 0
243 -127 -200 0
70 -130 184 0
-55 212 -233 0
-26 -63 206 0
-142 273 -155 0
-2 -88 -85 0
277 164 48 0
225 104 -174 0
-112 -114 107 0
-187 -214 -49 0
-120 -188 -85 0
-4 9 143 0
-257 -219 -101 0
-79 -157 151 0
42 -13 206 0
284 39 280 0
58 -182 53 0
32 258 250 0
246 -60 -269 0
10 -174 156 0
-54 187 228 0
-59 -271 102 0
-94 14 63 0
-101 191 198 0
226 250 -18 0
-104 -34 -215 0
-63 -223 -91 0
-92 -220 -161 0
-280 -158 -176 0
166 -122 -124 0
16 -268 266 0
103 -96 -227 0
216 -44 249 0
127 49 112 0
94 -205 189 0
-213 73 41 0
-83 231 -197 0
163 72 269 0
235 -250 4 0
-74 -215 -62 0
-136 -140 -279 0
22 -145 -172 0
-247 -242 176 0
-22 75 175 0
166 31 -222 0
197 219 182 0
-68 275 47 0
141 -248 201 0
-153 -119 -92 0
54 219 -154 0
-113 -251 -278 0
-170 -221 109 0
200 -260 -106 0
-244 242 -92 0
-81 284 -97 0
233 140 251 0
-13 27 -99 0
180 -86 -9 0
-61 -21 -213 0
126 -30 234 0
251 156 99 0
53 -239 121 0
101 250 -90 0
-67 255 39 0
-61 242 40 0
-35 -198 -21 0
186 -162 -244 0
189 -155 94 0
166 99 42 0
118 -97 -88 0
134 171 60 0
-8 -58 -234 0
-176 -121 156 0
3 42 -261 0
201 -255 -15 0
-96 137 -208 0
285 -147 6 0
-130 142 104 0
141 193 -134 0
163 -23 229 0
-106 11 -274 0
159 95 -88 0
-55 -187 266 0
22 -169 -23 0
-226 29 143 0
85 48 51 0
-98 -42 -101 0
-251 -167 42 0
-276 -246 -103 0
-57 -56 -90 0
170 -37 -125 0
131 2 -207 0
279 221 39 0
-264 -201 -183 0
192 -257 -190 0
-62 4 151 0
36 -166 129 0
54 278 -27 0
-115 285 -27 0
67 -217 105 0
227 127 239 0
178 -239 51 0
-197 61 177 0
107 -29 -285 0
118 -182 36 0
-54 -131 -230 0
-149 38 173 0
-165 -29 -134 0
-154 -77 285 0
-281 -59 10 0
-235 -30 203 0
-43 155 -225 0
-190 23 -73 0
277 282 -221 0
-4 138 -128 0
-38 -234 92 0
78 199 -120 0
32 274 240 0
8 -3 193 0
-187 -125 -205 0
-52 -206 150 0
-267 -229 -91 0
-141 -133 -98 0
-284 -215 250 0
11 -104 273 0
-105 -52 -222 0
110 15 -67 0
-56 64 -280 0
247 -162 22 0
-195 246 -218 0
53 -252 -248 0
-208 -51 276 0
279 -147 154 0
119 142 -89 0
110 -271 174 0
179 225 128 0
-109 -157 282 0
-285 47 -94 0
-152 -231 218 0
-179 44 223 0
-99 41 70 0
-67 -151 -152 0
237 -104 235 0
247 -14 275 0
37 -125 -83 0
-66 -247 94 0
118 58 13 0
68 -56 51 0
-132 -195 17 0
-247 -100 -193 0
146 -200 6 0
-144 47 9 0
57 -281 144 0
281 -244 -207 0
-203 93 110 0
237 135 -244 0
220 36 -167 0
-251 -18 -52 0
102 -143 -280 0
-96 26 -7 0
-284 -158 129 0
269 173 -141 0
-247 18 221 0
111 265 -66 0
-169 146 -230 0
177 -240 225 0
-24 -123 211 0
-73 -169 66 0
-105 -217 -247 0
124 -274 211 0
-93 191 -65 0
64 -256 48 0
-62 -37 229 0
-216 218 75 0
-263 -220 144 0
-53 -176 -254 0
-133 -145 182 0
-283 -137 110 0
-267 -77 190 0
-285 -42 172 0
-98 -258 8 0
-198 280 -24 0
-151 247 -163 0
-186 204 254 0
43 8 -3 0
285 10 -49 0
120 105 149 0
46 -54 35 0
166 25 -123 0
169 127 156 0
144 -36 130 0
154 207 101 0
-259 -153 -6 0
-161 105 2 0
-167 -141 -262 0
140 -161 -11 0
-247 -246 280 0
-169 227 -149 0
-157 159 46 0
-152 -70 -178 0
-35 -97 208 0
185 54 -92 0
101 262 28 0
-31 -202 -193 0
92 -104 121 0
125 60 -122 0
220 63 215 0
-78 -57 -208 0
221 -285 172 0
216 -241 -38 0
222 238 163 0
-170 285 -277 0
74 -34 -269 0
106 -120 -166 0
42 -255 -20 0
-12 52 230 0
-168 68 -9 0
194 97 -243 0
66 88 152 0
-200 148 263 0
275 -199 36 0
-210 271 85 0
-89 -16 215 0
222 -249 104 0
147 247 -135 0
-172 156 -37 0
-37 103 50 0
18 -6 -3 0
63 -199 -18 0
21 80 -256 0
120 51 98 0
-114 -24 124 0
-13 140 15 0
78 45 -69 0
247 207 -51 0
-265 211 -149 0
75 -52 238 0
74 284 263 0
-229 83 209 0
-29 249 256 0
160 -75 -278 0
43 68 -185 0
106 20 -24 0
42 194 187 0
-225 36 -14 0
-9 -274 283 0
104 -218 260 0
99 106 -80 0
112 -190 -27 0
-225 109 -68 0
-21 281 -59 0
284 271 205 0
-207 -7 -247 0
-52 -280 -176 0
-5 51 -145 0
124 263 -266 0
131 68 -258 0
119 120 -106 0
40 120 -195 0
-159 -285 -155 0
-106 107 51 0
-244 -14 -159 0
107 219 -274 0
49 91 44 0
241 -142 283 0
-40 -222 177 0
46 258 -260 0
116 -22 -202 0
-127 191 -12 0
-99 -85 -187 0
-80 -258 -193 0
121 220 158 0
28 -165 -154 0
166 4 15 0
62 -238 -100 0
202 -61 136 0
-134 94 261 0
-143 -82 255 0
-253 50 138 0
155 240 -131 0
-99 -88 -134 0
142 100 -202 0
-22 93 87 0
89 34 276 0
-129 -229 76 0
14 131 -280 0
268 156 244 0
-271 -110 278 0
276 157 86 0
158 45 -227 0
176 259 169 0
-88 186 -152 0
126 162 -261 0
-111 251 -86 0
-91 -172 123 0
74 -190 274 0
147 259 -270 0
-14 -10 -244 0
-191 -27 -66 0
-260 14 162 0
-119 -251 -62 0
-15 169 27 0
-52 -261 -59 0
-110 31 127 0
-207 -250 198 0
168 -111 173 0
176 230 92 0
258 -224 -76 0
-254 148 102 0
239 105 -74 0
-99 123 -56 0
-37 278 277 0
-74 232 -3 0
-91 -280 -146 0
258 145 -63 0
8 -159 284 0
-11 67 -46 0
-226 -265 153 0
5 -155 -257 0
81 280 -160 0
252 57 59 0
-175 20 -78 0
235 -22 -281 0
-117 124 25 0
20 -50 99 0
-254 -138 -144 0
-282 134 276 0
-81 -149 -115 0
254 -236 33 0
55 206 -61 0
76 95 -10 0
-155 251 84 0
-32 179 43 0
230 235 156 0
-139 38 -129 0
-191 -267 -109 0
164 32 -144 0
203 -264 123 0
-52 260 -114 0
-11 96 -277 0
-62 86 -113 0
166 104 -117 0
63 129 -115 0
-40 182 237 0
29 -35 -76 0
-236 214 51 0
-238 -179 254 0
234 -59 -135 0
-29 -126 -136 0
215 219 179 0
260 -68 108 0
-131 -89 142 0
-120 -252 -122 0
-9 211 -163 0
5 61 92 0
-103 151 -144 0
280 -249 -237 0
-249 -97 -227 0
-25 264 -19 0
117 -99 -100 0
-193 -12 132 0
162 119 139 0
-100 -182 126 0
169 -120 71 0
-11 -269 235 0
-149 -203 218 0
41 -209 49 0
47 -221 201 0
259 -93 46 0
-167 -15 177 0
-229 268 277 0
153 210 -246 0
-107 156 -233 0
-49 111 -77 0
-14 -220 -51 0
-26 119 -241 0
-77 -284 228 0
112 -67 5 0
-122 -267 112 0
-278 -169 -260 0
274 171 201 0
68 -239 23 0
-282 -2 23 0
27 -153 -244 0
-112 25 83 0
214 235 243 0
212 143 -19 0
-109 87 -133 0
151 -163 -256 0
-102 -23 152 0
237 65 -112 0
-69 186 -34 0
-60 -265 -123 0
67 255 150 0
282 -82 -124 0
121 -152 234 0
223 8 26 0
-228 195 -31 0
108 50 276 0
-261 214 166 0
278 91 -3 0
-193 -267 -171 0
-57 110 191 0
-19 83 -58 0
183 282 52 0
-201 -207 8 0
243 -16 -139 0
155 56 -25 0
-251 -172 19 0
-24 79 -209 0
126 -246 -208 0
230 42 -255 0
182 105 -217 0
-33 187 189 0
197 -276 55 0
-260 -255 -274 0
105 -126 180 0
92 127 141 0
-31 -212 227 0
-71 -46 -40 0
23 -108 81 0
214 231 -168 0
84 -152 -20 0
-128 -134 122 0
50 180 205 0
-70 55 -209 0
-249 -227 84 0
-107 -235 -125 0
-103 83 -260 0
-24 225 -270 0
85 -86 49 0
-22 -58 -231 0
-34 -150 184 0
174 258 -223 0
4 75 -142 0
173 -16 -174 0
117 -147 -262 0
-10 -107 233 0
-168 -12 -197 0
45 -24 -131 0
224 -251 -190 0
166 176 -218 0
115 -200 172 0
-260 -69 220 0
188 -169 5 0
87 247 -272 0
-19 -249 -244 0
-272 -279 12 0
-11 -74 -22 0
6 240 60 0
15 -152 -192 0
71 -1 -191 0
-175 170 208 0
-127 -203 -6 0
-211 55 -269 0
-57 -227 18 0
-183 190 172 0
-101 231 -240 0
261 72 47 0
246 -59 268 0
20 222 10 0
228 12 -88 0
264 -89 -253 0
-116 268 276 0
220 -143 -103 0
16 29 251 0
141 -29 149 0
113 53 193 0
164 -214 -139 0
-17 276 -40 0
122 92 204 0
132 258 276 0
-240 -213 -231 0
10 32 -208 0
-101 -109 261 0
63 276 215 0
68 152 -211 0
-181 56 -40 0
-165 63 -103 0
44 239 -256 0
138 78 120 0
-215 -282 -118 0
-24 157 64 0
257 -23 225 0
-69 -64 225 0
-43 197 199 0
263 -160 219 0
-118 -10 72 0
-52 -236 240 0
-155 176 -145 0
229 -242 38 0
-270 283 146 0
-49 -165 -96 0
72 55 -60 0
-198 -221 -43 0
-8 58 126 0
158 234 -184 0
125 165 -236 0
240 -56 231 0
-159 -78 261 0
-241 153 115 0
-149 -63 -92 0
-7 54 256 0
-214 -239 -13 0
265 49 225 0
261 1 154 0
120 -132 112 0
246 -167 -69 0
168 -110 -107 0
-186 -1 149 0
31 -15 -203 0
52 233 -71 0
-146 134 -117 0
-250 -177 -107 0
60 -92 38 0
54 116 91 0
128 124 245 0
95 206 228 0
-117 150 109 0
91 133 195 0
-49 -146 285 0
54 -11 -73 0
-73 -151 -24 0
-179 172 94 0
171 182 -225 0
-75 176 -259 0
29 155 -195 0
-41 252 59 0
-4 -159 -22 0
-198 -130 52 0
-32 102 -129 0
-239 124 236 0
-154 -143 -106 0
-36 -246 -122 0
-277 88 122 0
268 177 87 0
144 -85 -59 0
159 90 -57 0
-271 -100 121 0
237 -17 63 0
121 -165 120 0
68 84 139 0
-118 -121 -141 0
-109 -99 184 0
-59 -158 -201 0
284 -150 109 0
-181 244 63 0
-7 42 -248 0
-112 11 118 0
