p cnf 285 1214
1 147 -254 0
181 -87 146 0
110 213 -123 0
36 165 15 0
188 132 -42 0
3 -84 196 0
261 -123 93 0
169 136 -213 0
-241 137 160 0
145 216 211 0
243 -41 107 0
208 89 73 0
-36 -101 -47 0
130 226 141 0
277 -163 106 0
265 31 -241 0
128 14 -22 0
97 -82 -99 0
-49 -177 249 0
188 -30 -285 0
-100 -140 -146 0
59 211 -153 0
161 130 -127 0
-102 255 -236 0
6 -27 -252 0
131 110 120 0
-78 -140 278 0
85 102 -108 0
-122 207 199 0
-229 245 38 0
-19 -78 -102 0
-188 -109 74 0
138 95 -16 0
-79 104 160 0
41 -273 217 0
-178 -114 157 0
267 -211 280 0
257 -223 -221 0
236 -216 50 0
202 -26 209 0
157 104 -166 0
-52 21 168 0
200 168 -254 0
-184 -186 -260 0
-141 147 -168 0
144 212 -224 0
229 256 35 0
-219 -283 -152 0
101 -240 144 0
105 -283 -187 0
36 -166 -65 0
-120 89 159 0
-220 219 122 0
97 -273 -112 0
-51 -281 -164 0
-218 -106 189 0
202 152 -200 0
-52 30 -238 0
196 -275 108 0
-262 -198 -170 0
206 -271 249 0
-162 -133 -61 0
133 -192 147 0
102 -64 195 0
-274 198 -282 0
-192 -96 -132 0
-165 131 -98 0
-210 -233 -111 0
-109 82 -278 0
202 54 -143 0
128 6 204 0
-136 -239 -90 0
-200 195 -21 0
-216 93 -244 0
-122 -212 -91 0
-110 -12 -65 0
-127 156 261 0
177 -17 127 0
245 -172 6 0
-255 36 -61 0
-279 -84 215 0
-33 52 41 0
-90 -225 41 0
50 -21 67 0
-132 63 276 0
197 203 -261 0
-121 248 -78 0
-225 143 224 0
-284 243 16 0
131 120 56 0
121 -175 209 0
-202 -231 -239 0
-44 166 74 0
-100 -221 136 0
-86 -60 -121 0
-225 270 -50 0
-104 254 41 0
275 125 273 0
73 66 -183 0
-252 106 34 0
-100 188 -184 0
273 29 202 0
35 -3 -274 0
9 131 268 0
54 -272 -91 0
209 -245 -211 0
17 161 92 0
-163 -225 -231 0
-50 -146 139 0
5 238 -146 0
78 -178 120 0
11 -197 -170 0
121 231 -45 0
130 276 221 0
-181 -212 -246 0
-19 -95 -9 0
187 64 -53 0
264 -163 36 0
21 239 30 0
244 245 31 0
49 -282 199 0
-284 -84 -187 0
-249 -221 35 0
-207 -76 -70 0
282 -11 256 0
-29 -9 203 0
-283 109 213 0
48 -156 -232 0
45 -284 10 0
280 118 136 0
-187 270 -98 0
274 135 -95 0
-215 -34 -226 0
141 227 -24 0
61 -164 136 0
32 -62 19 0
-42 3 -27 0
241 -159 -192 0
-74 11 -57 0
261 92 79 0
72 54 219 0
-223 -4 38 0
-35 168 135 0
-217 138 12 0
21 -182 224 0
-214 112 -230 0
-282 16 -69 0
183 263 -217 0
-181 210 -277 0
-27 -193 -284 0
-86 166 -174 0
-196 274 -165 0
-145 175 -147 0
74 285 24 0
60 158 162 0
-172 281 210 0
-151 -18 250 0
95 58 -177 0
-133 84 -265 0
66 166 -281 0
-193 -94 46 0
-203 -220 285 0
-91 216 54 0
234 270 215 0
-44 -212 -205 0
113 24 -125 0
-93 65 -231 0
248 -51 -15 0
141 -85 267 0
-247 273 205 0
158 269 -50 0
-4 234 278 0
-223 112 -240 0
-218 -230 280 0
36 -42 -37 0
185 100 -110 0
230 -163 261 0
168 259 115 0
199 -154 132 0
-238 -55 285 0
254 209 -270 0
-116 -32 155 0
-189 -67 155 0
12 72 273 0
-280 191 243 0
-279 -224 -124 0
217 78 -22 0
-110 159 -24 0
-195 -240 15 0
111 6 21 0
-154 -250 -194 0
-39 59 -248 0
-108 -12 -46 0
239 170 63 0
-59 121 -214 0
-150 -6 86 0
-181 245 214 0
-165 148 -25 0
-124 -82 -151 0
-208 5 73 0
7 28 168 0
-26 -45 232 0
244 -80 -185 0
57 -110 -70 0
-249 243 91 0
259 -181 22 0
-272 -47 -281 0
126 246 -160 0
-70 227 85 0
251 -99 -238 0
-26 -166 105 0
-48 -18 212 0
-243 165 -38 0
127 232 90 0
82 -87 85 0
159 137 240 0
-43 276 233 0
-280 -20 -235 0
179 -193 -22 0
-133 63 -257 0
247 230 85 0
-145 158 65 0
186 -49 -9 0
29 149 -222 0
19 -177 66 0
92 90 -275 0
265 201 15 0
-97 -107 -116 0
181 -15 -110 0
38 277 -184 0
100 135 -74 0
-83 -29 -124 0
251 -155 -151 0
236 -99 88 0
179 -172 112 0
283 47 267 0
161 -240 -63 0
-276 219 195 0
38 -78 21 0
66 -44 -15 0
-143 -202 -129 0
-57 2 214 0
17 92 220 0
139 -8 -108 0
63 -278 -145 0
2 46 -212 0
-236 -65 161 0
-116 -14 -284 0
129 -184 218 0
-176 -218 -17 0
51 179 -125 0
-66 -152 -69 0
108 265 -267 0
127 151 100 0
-202 -62 148 0
236 -253 -235 0
209 204 98 0
-228 -264 234 0
189 -261 165 0
-114 -40 -164 0
-284 -247 194 0
-101 -218 189 0
-232 -247 -89 0
102 236 -111 0
-20 -43 -58 0
35 275 180 0
270 124 -222 0
12 -84 37 0
242 261 119 0
-1 -155 -47 0
-104 -5 176 0
-136 -197 -276 0
80 -148 252 0
28 11 208 0
281 -210 -143 0
-51 -208 33 0
-126 -166 114 0
-203 -39 -23 0
40 -173 118 0
211 267 -178 0
205 -12 -117 0
-247 206 -96 0
-10 -33 -276 0
-23 -171 -114 0
126 113 14 0
37 244 -73 0
90 -100 128 0
189 -275 -267 0
-243 -78 202 0
121 229 -234 0
-212 -250 183 0
-89 41 33 0
187 -96 -2 0
-15 -157 -99 0
-138 175 105 0
186 -167 -106 0
-27 -262 -96 0
88 -65 150 0
44 -185 276 0
-2 -100 -270 0
-53 37 -168 0
210 -238 -113 0
-202 -276 -43 0
-263 173 252 0
-133 126 75 0
102 -65 192 0
144 -92 181 0
-46 -5 218 0
74 274 -118 0
251 72 -259 0
127 -174 213 0
246 -270 -282 0
23 259 -2 0
-160 -128 -98 0
76 -74 246 0
17 -13 -243 0
255 94 258 0
-71 -197 249 0
-134 -116 40 0
93 -8 131 0
174 53 -81 0
118 -237 264 0
163 85 202 0
-84 -203 83 0
237 166 44 0
-261 255 -202 0
131 128 -42 0
127 -192 215 0
-49 -213 13 0
73 -265 219 0
-19 32 -133 0
-184 205 285 0
63 -88 -223 0
-186 -260 -98 0
243 139 -97 0
107 245 271 0
205 -284 184 0
20 192 81 0
-205 -138 33 0
-94 181 -133 0
162 212 -201 0
-8 113 -285 0
2 -131 -268 0
-72 -61 28 0
-123 -45 -193 0
201 36 63 0
-256 92 -82 0
-235 -236 282 0
-164 -74 97 0
-143 191 -153 0
141 90 270 0
282 107 43 0
272 145 -197 0
173 17 -279 0
181 -40 -255 0
-47 -262 -95 0
-87 144 11 0
-66 -205 65 0
277 279 -276 0
102 -284 -239 0
173 272 -186 0
-260 -238 228 0
-240 86 6 0
-78 138 69 0
-244 -181 203 0
54 -183 48 0
-199 -260 65 0
19 21 -193 0
66 65 -260 0
-55 -187 -42 0
-57 196 -250 0
153 -73 36 0
140 80 -41 0
245 199 -283 0
-56 28 -152 0
232 -236 -193 0
-120 208 110 0
-239 -150 -208 0
-63 -60 165 0
-49 -124 -241 0
112 151 123 0
85 -277 50 0
-62 227 149 0
247 270 84 0
260 -188 -253 0
30 134 246 0
263 -73 22 0
244 -252 97 0
-19 -59 63 0
210 -93 -71 0
83 219 -258 0
252 63 -118 0
-191 101 6 0
-47 -208 -82 0
152 31 -257 0
-24 253 273 0
239 -269 -158 0
-264 -161 282 0
7 -46 -269 0
-34 8 16 0
110 142 36 0
14 109 -202 0
8 -117 -220 0
-125 -11 227 0
-55 -54 241 0
231 194 -115 0
110 -191 -37 0
184 -26 -272 0
-69 138 22 0
55 -257 191 0
198 205 -130 0
108 156 -275 0
-257 -259 39 0
95 -244 146 0
269 -137 -198 0
-225 -108 -276 0
-12 165 -34 0
-285 142 -255 0
171 -19 -219 0
-244 183 -38 0
75 -173 149 0
-155 134 -106 0
-75 149 -271 0
111 -1 -196 0
-242 -241 -19 0
-137 40 -33 0
246 -236 -196 0
-7 60 -166 0
-16 104 214 0
183 210 -277 0
-88 -198 141 0
229 232 214 0
-250 -221 -121 0
-146 227 -56 0
123 -155 -24 0
199 -148 20 0
136 198 -101 0
-102 -249 -180 0
-75 -254 -113 0
-181 177 -220 0
281 92 20 0
-93 -35 -262 0
-190 23 217 0
129 -87 41 0
-216 -249 95 0
-128 60 285 0
165 12 -75 0
107 -245 184 0
254 -116 -113 0
-196 221 208 0
-131 -35 -142 0
-156 164 -122 0
173 59 -61 0
74 142 221 0
-115 86 95 0
-12 193 -21 0
96 -187 -33 0
156 170 251 0
64 177 -118 0
43 267 88 0
-34 -41 -221 0
172 108 62 0
-113 -112 222 0
49 195 156 0
29 7 250 0
-196 -20 18 0
270 56 206 0
-237 -135 -256 0
136 -75 -6 0
72 -134 -1 0
-86 68 54 0
117 -62 101 0
51 66 280 0
142 -150 214 0
66 -45 178 0
180 111 -126 0
203 11 31 0
34 236 -262 0
232 -27 -10 0
-122 -112 -3 0
275 -161 71 0
-192 -225 156 0
120 -68 -31 0
86 112 9 0
-171 112 48 0
-107 118 45 0
-72 186 128 0
222 195 90 0
-7 29 57 0
197 -106 -264 0
63 -255 -53 0
259 56 255 0
-178 273 -252 0
-5 37 84 0
237 272 -44 0
269 144 261 0
-249 122 274 0
280 -253 107 0
-18 103 7 0
120 3 -52 0
-171 -195 -225 0
201 178 49 0
-220 228 15 0
231 212 257 0
18 -201 -36 0
-221 -260 -164 0
-95 -54 -72 0
-208 -113 -270 0
-3 -100 107 0
-202 -246 105 0
54 -125 237 0
-71 143 -275 0
69 -14 -65 0
122 242 204 0
-9 58 -155 0
-202 159 -271 0
-168 -148 61 0
175 -10 -187 0
29 76 -272 0
38 96 -48 0
-232 88 -129 0
-118 131 -250 0
218 115 -155 0
23 90 256 0
259 27 -230 0
240 138 -32 0
121 -105 -217 0
-171 114 -227 0
269 237 -203 0
-98 -226 -206 0
242 200 -264 0
198 -273 66 0
160 151 -183 0
65 14 86 0
-121 22 225 0
-153 17 -217 0
172 -270 192 0
131 186 179 0
120 162 250 0
119 255 -38 0
-272 146 -119 0
278 146 -218 0
212 -99 265 0
-129 -180 247 0
-233 183 -214 0
-229 86 -213 0
-11 242 179 0
226 -15 210 0
-261 -253 250 0
218 247 -114 0
247 186 -72 0
85 -43 -206 0
108 -193 211 0
-201 -5 -50 0
-278 233 -39 0
-98 -140 -19 0
-241 142 -98 0
65 -269 17 0
-27 -195 97 0
-169 -267 -271 0
-208 34 159 0
63 -259 86 0
23 244 124 0
-119 -131 150 0
215 244 49 0
-32 43 -184 0
-5 -276 181 0
-60 -144 -175 0
-100 114 281 0
-277 -145 113 0
-272 -178 220 0
30 244 -161 0
22 38 -82 0
186 -128 276 0
97 -172 -45 0
80 36 66 0
-125 48 -15 0
34 213 -104 0
170 -208 84 0
104 -60 -199 0
26 -45 23 0
-225 -86 -278 0
15 -109 -173 0
277 -36 -259 0
-119 -78 -17 0
-158 90 163 0
251 243 131 0
66 86 -143 0
-251 -123 -126 0
-132 -208 73 0
255 199 132 0
135 -72 -224 0
-267 -184 234 0
-152 14 60 0
-126 129 -246 0
-266 -143 -279 0
-256 -273 -101 0
-87 234 -220 0
200 31 -3 0
158 236 -25 0
64 -273 -220 0
92 -249 114 0
-166 -188 2 0
-167 -241 -82 0
-164 137 -221 0
-137 -245 155 0
213 229 -145 0
45 24 -219 0
244 205 46 0
246 -192 262 0
-255 -246 -260 0
-22 261 107 0
121 129 269 0
87 228 154 0
-94 -242 197 0
105 11 -180 0
133 23 15 0
-87 -185 159 0
-133 199 218 0
85 -146 -8 0
82 -222 -142 0
-28 -118 60 0
-1 -152 224 0
124 25 -1 0
-96 129 -158 0
-51 -32 -248 0
-162 37 59 0
282 40 -48 0
-120 30 -154 0
-234 -109 197 0
-216 28 22 0
279 -205 -80 0
-41 -187 -27 0
12 -176 -210 0
-62 273 226 0
-86 44 -196 0
68 -273 194 0
253 214 -64 0
240 92 128 0
-156 -262 281 0
-152 -74 -154 0
-240 262 -136 0
228 -167 17 0
-42 -129 -25 0
234 -21 204 0
-18 -194 -284 0
208 265 83 0
-186 -65 83 0
30 -124 104 0
180 -48 196 0
-166 190 -244 0
285 -46 -73 0
-32 -115 179 0
-51 280 136 0
-281 103 149 0
-268 -66 222 0
83 272 215 0
-154 -18 146 0
253 -44 251 0
260 230 21 0
250 93 98 0
-238 -276 257 0
-194 -275 -174 0
27 -235 243 0
-160 -249 178 0
65 -117 -166 0
22 -57 44 0
-86 260 -231 0
-253 -88 -180 0
114 -184 -52 0
92 -152 -238 0
267 -135 -231 0
115 -165 -141 0
14 80 193 0
-190 260 117 0
125 98 -123 0
-106 -204 76 0
93 -184 145 0
175 -33 -284 0
239 -135 -132 0
157 -167 -277 0
14 -159 167 0
-56 -128 -220 0
66 -204 -227 0
235 117 162 0
-225 -279 -215 0
210 -4 43 0
235 190 153 0
44 -17 -27 0
255 -33 -107 0
-51 -168 -88 0
-111 37 -229 0
212 246 -54 0
77 211 -22 0
45 68 -58 0
-113 -144 102 0
-117 135 -105 0
161 258 138 0
234 -197 124 0
78 -171 -248 0
-222 159 109 0
36 -93 62 0
-57 161 257 0
173 -121 94 0
-62 89 -267 0
18 208 -221 0
-259 -137 -77 0
-258 -132 -25 0
-66 58 -180 0
-239 212 -34 0
-3 -71 229 0
-198 193 -4 0
-89 -6 72 0
-242 69 261 0
30 -163 -215 0
194 164 -284 0
75 33 -226 0
106 -102 -139 0
-29 -198 -96 0
211 45 6 0
104 114 -24 0
150 -67 203 0
264 171 -245 0
163 40 -186 0
92 -226 215 0
-241 202 -187 0
96 262 -97 0
249 284 239 0
221 187 -246 0
169 25 255 0
80 -15 8 0
-27 60 -146 0
223 -215 257 0
-93 128 -271 0
284 47 239 0
66 -29 -174 0
61 -259 135 0
266 51 -193 0
266 157 -209 0
51 259 153 0
-59 -48 -33 0
213 144 -252 0
211 6 73 0
234 -120 109 0
250 54 -218 0
90 76 -48 0
-278 277 160 0
-170 257 181 0
-92 247 -156 0
-211 151 44 0
-155 141 260 0
157 24 61 0
-194 -112 279 0
118 94 -265 0
-53 -270 -19 0
-30 -233 -192 0
76 -195 -157 0
208 281 130 0
9 -127 98 0
11 253 169 0
97 71 -175 0
14 -200 -101 0
-279 146 -243 0
234 46 166 0
-253 -103 -113 0
171 147 -189 0
-60 283 -112 0
21 -31 -40 0
-282 -175 -52 0
109 208 -277 0
145 111 -261 0
-184 -50 21 0
-43 -149 237 0
257 144 -99 0
-200 122 178 0
-32 -166 281 0
-223 142 9 0
-141 31 -265 0
263 -141 108 0
83 -116 59 0
-44 111 -22 0
167 233 189 0
-246 127 208 0
211 122 -3 0
-149 -258 283 0
-55 -57 -264 0
-235 30 88 0
-78 -270 -21 0
-185 121 227 0
-25 256 -131 0
-192 223 13 0
-30 240 180 0
-225 -263 131 0
-120 137 263 0
283 240 -281 0
123 -86 84 0
-272 -22 -248 0
-222 39 -191 0
-59 -60 232 0
16 235 238 0
-208 97 95 0
-26 -252 -142 0
273 -149 -258 0
-11 270 163 0
-107 -6 226 0
67 75 281 0
-124 172 -120 0
-205 -36 219 0
-220 79 -112 0
210 258 -203 0
233 -181 -79 0
-198 -208 -172 0
70 275 69 0
-192 -221 -253 0
17 216 254 0
-17 -197 233 0
-132 151 108 0
-55 206 133 0
280 259 -263 0
245 -9 147 0
123 -33 -225 0
237 -88 141 0
-132 -38 139 0
-263 116 -26 0
-200 -233 -54 0
-53 -168 226 0
-270 -22 188 0
-245 185 -184 0
280 -115 -58 0
116 -164 -150 0
63 -17 222 0
159 -78 138 0
137 -103 175 0
-169 215 100 0
237 -152 178 0
258 27 -61 0
149 78 187 0
-33 173 -249 0
105 161 -119 0
74 6 -252 0
-253 51 175 0
231 -41 8 0
-269 -257 -144 0
214 -17 103 0
-151 264 96 0
220 64 88 0
-172 71 -269 0
158 133 262 0
96 127 134 0
47 169 -260 0
203 83 210 0
-138 -171 211 0
105 -65 -53 0
86 85 -11 0
-279 -51 -164 0
74 -61 -168 0
-177 -92 94 0
-107 -263 -252 0
-176 125 -158 0
-282 -42 -252 0
12 -147 174 0
78 263 -46 0
-121 -43 146 0
-94 -273 -181 0
-170 20 88 0
-138 30 257 0
-84 -157 -243 0
-60 176 172 0
-32 -278 267 0
96 193 -147 0
-151 267 213 0
222 -17 78 0
149 203 -260 0
-90 -139 -25 0
21 -168 -142 0
-12 -146 -71 0
-221 -4 -69 0
-238 24 -173 0
168 -58 -51 0
284 -160 -38 0
-110 17 -11 0
-14 -34 243 0
-181 105 211 0
189 4 -23 0
-134 -4 -138 0
234 -44 269 0
-73 215 -282 0
42 -178 56 0
-180 121 163 0
-144 272 -217 0
-84 -16 258 0
265 -196 -280 0
-205 20 -185 0
210 199 95 0
126 125 -276 0
-119 129 18 0
-156 -204 -38 0
165 -34 207 0
-101 244 50 0
178 189 -205 0
76 -194 -22 0
-91 118 -67 0
-41 -180 -167 0
-184 -146 -123 0
12 9 -266 0
56 -271 -11 0
-284 -164 187 0
121 -268 -82 0
-70 253 -124 0
-104 181 243 0
-34 166 277 0
-53 43 -237 0
-106 -173 240 0
105 218 237 0
204 -123 2 0
-23 -264 43 0
169 50 -72 0
-243 169 -87 0
213 171 157 0
-232 176 -62 0
203 -229 266 0
-226 108 -276 0
-22 284 45 0
-24 69 -267 0
285 197 208 0
-17 -238 -205 0
91 25 -84 0
-281 7 -80 0
107 168 198 0
180 -108 232 0
87 269 -85 0
-54 -206 -31 0
-80 -217 156 0
173 -12 124 0
-97 -201 127 0
246 -61 -263 0
-211 -138 160 0
-130 -194 104 0
-153 224 33 0
160 88 -268 0
61 -201 -278 0
-264 -103 212 0
14 -95 -18 0
193 105 -217 0
18 165 23 0
-111 -254 281 0
250 -245 75 0
257 -60 -219 0
-245 78 176 0
-278 21 250 0
-146 151 -89 0
-4 -126 57 0
-239 154 -271 0
-165 -49 -83 0
-259 -179 157 0
155 -268 134 0
-29 145 226 0
-223 114 137 0
249 129 -240 0
-102 46 -178 0
236 -263 -48 0
228 70 -266 0
-258 -217 240 0
-3 -77 213 0
226 -171 -95 0
201 -85 236 0
210 -130 27 0
-140 156 -174 0
274 178 -131 0
-16 -285 36 0
103 -47 36 0
204 222 -184 0
-32 -176 -193 0
13 -259 -164 0
-61 -182 94 0
-71 -141 -60 0
171 -133 169 0
226 -81 -91 0
34 255 93 0
46 -93 80 0
227 -157 213 0
115 193 -99 0
-127 -15 14 0
-109 -50 -133 0
49 -248 -252 0
11 -38 -42 0
281 58 -83 0
-8 139 173 0
-45 -29 -191 0
263 70 129 0
-76 23 258 0
162 190 -105 0
-144 7 -92 0
-216 12 -113 0
-265 -161 197 0
-116 -183 -129 0
-226 208 -228 0
-213 -43 -128 0
140 97 -247 0
-74 255 -223 0
-159 -203 11 0
-156 183 6 0
-80 -281 148 0
188 205 -148 0
-255 -182 140 0
69 272 -73 0
-53 -60 -185 0
2 -88 252 0
243 245 268 0
-99 -100 -126 0
-18 5 -57 0
122 -209 -2 0
252 -116 28 0
-74 -209 16 0
-272 11 216 0
223 -170 210 0
-179 -64 -193 0
-283 -85 -218 0
-96 148 247 0
-8 170 5 0
-29 -234 -238 0
144 4 -117 0
100 257 207 0
223 144 22 0
-281 -184 219 0
-136 -204 -112 0
-187 -239 -174 0
-235 -228 -34 0
267 -177 179 0
51 -155 -131 0
-265 201 -204 0
-202 138 79 0
-174 199 106 0
190 30 -280 0
125 248 155 0
60 112 -115 0
-182 203 -38 0
-78 108 -152 0
-37 95 28 0
-45 -20 211 0
-115 15 126 0
-112 -70 235 0
253 -84 -76 0
226 -138 -103 0
218 160 -202 0
-220 -278 22 0
-172 -267 -138 0
206 43 225 0
-107 276 109 0
210 -49 225 0
-120 116 -173 0
165 239 -142 0
-238 -19 -241 0
-121 125 -17 0
-149 151 130 0
-17 -103 68 0
-240 -43 -54 0
-265 -250 -68 0
-249 20 264 0
236 -120 23 0
-206 -66 33 0
-215 -260 -41 0
-55 155 239 0
-89 -133 -42 0
32 237 -40 0
251 277 215 0
271 238 -100 0
11 273 236 0
-97 122 -23 0
222 -253 -20 0
-279 -169 -27 0
27 -3 -37 0
120 -85 -104 0
78 -141 117 0
41 12 -9 0
-195 -54 -154 0
276 90 -241 0
173 139 -170 0
234 -90 38 0
98 269 6 0
-13 175 -67 0
188 100 234 0
-193 -218 -65 0
-15 61 154 0
34 -272 -56 0
-185 18 29 0
243 240 -130 0
166 -68 169 0
13 -14 27 0
257 273 -203 0
-14 213 -56 0
237 284 38 0
-46 220 134 0
-203 145 -251 0
131 251 220 0
107 55 19 0
64 -60 124 0
-267 -165 141 0
-129 -210 14 0
208 134 -233 0
27 234 268 0
-264 233 198 0
-127 -202 -102 0
247 119 -44 0
50 -145 158 0
166 28 154 0
-119 -99 -177 0
-262 93 197 0
-70 175 -104 0
-134 165 -127 0
65 99 94 0
-163 -257 150 0
-152 232 146 0
-219 69 -118 0
248 54 252 0
156 -193 -118 0
-76 164 87 0
-98 46 116 0
-248 -254 260 0
209 142 223 0
-270 -15 -197 0
-68 170 -124 0
-153 271 10 0
138 43 118 0
204 -127 -254 0
142 207 -194 0
128 -140 261 0
-118 34 160 0
-254 18 -157 0
166 -56 -161 0
-30 235 7 0
-221 -91 195 0
164 213 -152 0
-207 183 139 0
-163 223 275 0
-99 -2 278 0
108 -25 188 0
-63 14 -18 0
-103 -1 239 0
237 49 44 0
80 41 -16 0
-107 -72 -126 0
158 -46 -140 0
125 -78 61 0
-51 62 -193 0
60 -267 -65 0
134 -247 178 0
210 220 170 0
-20 -87 -66 0
44 185 -152 0
-210 -28 -245 0
-151 281 -93 0
65 78 5 0
-270 29 -101 0
-170 -156 -218 0
268 -220 -2 0
92 -105 -248 0
-156 -236 224 0
21 244 -218 0
278 -154 272 0
271 267 -253 0
-214 90 115 0
187 83 -102 0
274 -275 -189 0
159 -270 -73 0
284 -166 130 0
193 -25 145 0
25 -195 -17 0
260 -272 -279 0
-59 213 5 0
118 276 260 0
-261 -2 76 0
-9 219 -166 0
-220 45 12 0
-76 -202 -280 0
189 -255 19 0
235 -25 187 0
194 -21 -142 0
177 -112 116 0
-177 234 -169 0
-196 -35 137 0
175 -201 29 0
171 248 220 0
-178 -48 -27 0
50 -156 -173 0
-93 -277 221 0
-114 120 -51 0
-108 90 -27 0
-111 -204 259 0
55 -247 192 0
220 -253 -120 0
39 198 -82 0
278 53 92 0
55 -196 85 0
-141 285 -123 0
101 84 201 0
126 -229 -261 0
-44 145 -195 0
-16 -202 156 0
-70 -124 -114 0
79 -256 178 0
211 171 61 0
-217 5 -22 0
106 -189 -135 0
-93 -83 257 0
-216 29 82 0
131 56 -124 0
-129 234 185 0
81 79 -152 0
-146 -282 56 0
179 -85 176 0
123 207 269 0
188 5 140 0
85 -89 -263 0
