p cnf 285 1214
6 206 180 0
69 -64 -44 0
13 114 -52 0
-127 -253 234 0
153 74 -39 0
-228 107 217 0
-17 -234 96 0
-232 258 -168 0
246 6 155 0
-188 18 -5 0
-124 158 -224 0
221 -88 46 0
142 267 -221 0
-163 90 -173 0
135 116 -249 0
-164 -142 73 0
176 -212 -271 0
63 -171 237 0
-234 -48 -8 0
46 -208 188 0
61 -72 -141 0
109 -114 -234 0
-16 156 -163 0
-234 -115 282 0
-74 89 127 0
-16 261 194 0
-221 -102 181 0
-216 -191 -200 0
-60 190 -23 0
-60 -235 -239 0
-73 -203 97 0
48 196 10 0
-261 58 11 0
-48 100 -96 0
223 -13 -167 0
83 -279 121 0
170 -274 -161 0
-217 78 36 0
228 84 114 0
-194 -48 171 0
-41 211 -80 0
-5 -27 -131 0
-31 -39 -235 0
219 -240 -132 0
173 151 -220 0
72 237 163 0
240 -69 150 0
-232 -104 -140 0
87 -142 195 0
-224 -98 -285 0
-27 -14 -61 0
-32 83 -267 0
134 -5 -202 0
-36 -231 56 0
-211 190 -168 0
-33 -83 -31 0
195 -9 -12 0
80 112 285 0
215 -47 -222 0
-89 132 56 0
77 50 149 0
253 258 140 0
-98 76 69 0
144 -228 171 0
122 -279 -113 0
60 99 -253 0
232 -82 -81 0
-148 145 -280 0
155 -281 38 0
268 -62 -256 0
-29 -146 80 0
-11 232 174 0
-106 101 38 0
-242 -86 239 0
147 50 -163 0
86 -133 -74 0
-258 40 271 0
-280 31 -258 0
167 -81 -276 0
-1 -196 159 0
245 -63 -104 0
-124 151 106 0
-49 -196 219 0
201 220 -136 0
154 -115 193 0
283 151 192 0
-255 -50 270 0
218 60 83 0
218 69 6 0
-186 70 -27 0
255 -120 200 0
184 203 151 0
-44 -85 228 0
281 81 115 0
-239 -169 144 0
-277 217 230 0
137 96 210 0
-166 -58 194 0
246 178 -268 0
149 -92 -235 0
190 -260 166 0
224 228 -123 0
-266 3 235 0
-74 -263 -247 0
14 -207 42 0
25 62 -120 0
41 -157 -147 0
71 -78 -92 0
-117 57 -148 0
-40 -247 -108 0
188 -253 89 0
-42 -259 -252 0
-273 261 61 0
161 -81 -276 0
-35 -208 -134 0
-17 -130 -195 0
110 156 113 0
43 -149 -56 0
-146 -17 -40 0
-87 278 -235 0
189 126 -165 0
-82 109 -174 0
-275 -94 -213 0
12 39 -57 0
-269 -90 -88 0
-88 -146 85 0
-53 209 -154 0
113 34 176 0
-271 -204 106 0
203 56 216 0
-109 8 -3 0
-237 109 271 0
140 -220 187 0
192 17 60 0
109 29 -131 0
-50 154 -47 0
-93 -22 -182 0
-279 -121 -148 0
-40 172 27 0
225 -187 205 0
261 -7 198 0
129 -238 9 0
-49 29 -23 0
-9 -28 -62 0
217 -272 -71 0
-195 21 -82 0
-43 -170 -251 0
148 18 -86 0
-262 122 125 0
-172 268 -214 0
-92 -250 -253 0
-66 -79 -27 0
-115 -79 15 0
-160 209 144 0
266 -116 -13 0
-61 -168 214 0
-34 3 -118 0
124 -237 -20 0
126 -98 -82 0
-194 -3 -217 0
-257 33 -274 0
-283 226 26 0
-109 -47 -97 0
-136 261 -88 0
204 -46 -149 0
-268 107 -50 0
-91 -38 -261 0
-226 -9 -225 0
147 30 80 0
-260 -193 192 0
-85 219 146 0
-277 25 207 0
-243 -39 211 0
197 189 194 0
-146 -75 151 0
67 112 -101 0
-57 -234 -30 0
-191 8 248 0
23 -224 110 0
201 -49 -284 0
-283 191 -43 0
221 97 -55 0
104 -95 186 0
150 177 -251 0
-40 26 190 0
-284 -238 279 0
-45 -2 84 0
-275 -117 -112 0
184 275 74 0
161 -223 -160 0
77 -74 -19 0
216 181 281 0
210 -220 229 0
63 -59 239 0
-69 154 263 0
-206 -94 20 0
-48 146 246 0
60 -25 172 0
165 -157 142 0
-223 51 234 0
134 -25 -49 0
7 -105 -161 0
226 72 228 0
69 60 48 0
17 -57 -89 0
224 -67 -60 0
-107 183 -162 0
174 -230 2 0
109 -70 -145 0
-204 -213 166 0
255 240 132 0
108 283 90 0
282 -15 -109 0
51 274 -261 0
136 199 81 0
49 -116 107 0
-252 -8 57 0
-249 232 -126 0
32 -157 -174 0
-182 -104 -52 0
-172 169 -109 0
52 171 24 0
-273 240 133 0
-120 -21 -221 0
178 56 -11 0
255 128 -93 0
-59 209 -245 0
-105 -35 151 0
188 -185 221 0
97 -74 -103 0
255 -268 195 0
-240 106 123 0
-281 -153 155 0
270 -241 26 0
-27 213 -65 0
62 -281 -197 0
-101 138 148 0
-215 208 72 0
-254 104 76 0
-209 -216 226 0
212 -125 108 0
-225 260 -127 0
-256 44 185 0
68 -58 -97 0
145 -77 38 0
-67 -80 274 0
-9 130 88 0
-255 154 185 0
-158 178 122 0
-63 -134 181 0
265 10 96 0
-83 32 -244 0
-221 -196 148 0
192 -71 -129 0
267 65 87 0
-142 207 5 0
176 98 -106 0
-108 247 141 0
-238 2 39 0
-200 -110 -161 0
29 -161 -126 0
100 -231 -65 0
-64 80 -41 0
-174 195 -183 0
15 280 76 0
-209 84 147 0
-227 8 13 0
262 -223 175 0
-269 -154 121 0
-1 -207 -252 0
95 -149 -179 0
48 33 -74 0
264 220 285 0
165 59 -84 0
-262 225 -217 0
-22 -157 -124 0
79 16 143 0
-11 -208 -196 0
-145 95 -58 0
-148 255 -185 0
-241 180 -117 0
-181 -117 -194 0
278 82 -135 0
127 21 -16 0
-200 24 -214 0
-133 -213 199 0
220 -18 -144 0
31 90 130 0
-284 46 -110 0
10 -114 248 0
-267 -192 230 0
275 -153 -181 0
60 -197 -96 0
-73 -241 -4 0
-87 147 49 0
159 275 85 0
-160 48 -250 0
123 -37 -105 0
-199 90 -96 0
37 -120 -97 0
136 84 92 0
-267 -189 92 0
189 -111 -225 0
61 -123 -77 0
258 -158 -39 0
270 -267 219 0
223 -37 -258 0
-127 70 12 0
-171 -33 -234 0
147 -159 -24 0
-79 -30 9 0
-36 242 85 0
90 -119 63 0
58 123 186 0
-83 -210 -138 0
-129 224 239 0
80 74 34 0
26 103 158 0
-71 -149 -282 0
-233 245 -151 0
128 -116 5 0
-194 63 131 0
260 76 66 0
-167 110 -141 0
83 -187 -193 0
-62 266 72 0
194 133 -5 0
-66 97 169 0
10 7 182 0
5 145 -205 0
82 222 213 0
59 46 -115 0
175 146 -180 0
176 -268 139 0
-196 -228 -79 0
-145 -240 255 0
-276 130 -139 0
-80 116 144 0
-109 41 277 0
81 -243 18 0
-228 231 -155 0
78 -263 24 0
-268 -43 -242 0
-194 -145 102 0
-1 -245 279 0
-160 151 148 0
221 -113 184 0
23 -118 -226 0
14 -45 89 0
-236 -57 -182 0
25 -11 58 0
-260 -67 -61 0
42 229 -53 0
118 212 215 0
3 -171 278 0
-224 -79 -267 0
-65 -262 -261 0
39 -18 -224 0
-125 -98 254 0
44 -281 -253 0
60 40 -204 0
-157 -143 -34 0
-141 154 -20 0
-263 129 228 0
-144 -218 -32 0
-146 -169 -248 0
-190 -237 144 0
-83 -185 -199 0
267 248 -132 0
-18 -221 -236 0
-120 -36 -140 0
-101 -263 13 0
18 -205 17 0
-241 33 -100 0
78 93 -61 0
-227 -239 -118 0
-274 -144 -26 0
-69 -173 -93 0
-222 -197 -147 0
250 -279 -169 0
-83 -12 62 0
116 -200 -137 0
-145 -142 -184 0
-18 -219 -159 0
-231 12 64 0
13 206 20 0
58 -83 -69 0
-65 119 11 0
-140 -84 -229 0
117 122 -186 0
259 141 16 0
139 85 -154 0
89 192 152 0
282 -114 54 0
-253 124 151 0
-168 -85 -188 0
-165 36 -123 0
120 76 -136 0
206 103 -39 0
-258 -246 -237 0
-206 -59 -41 0
-213 226 119 0
101 103 -25 0
87 186 -22 0
208 211 -78 0
170 -279 103 0
158 -129 159 0
276 -247 -85 0
-99 -45 -280 0
-194 31 262 0
-188 40 -126 0
53 233 95 0
79 269 -139 0
-85 188 97 0
-222 43 -89 0
92 183 -186 0
-171 14 -196 0
-137 -214 91 0
-202 -187 177 0
123 208 9 0
-106 105 163 0
-126 -101 146 0
97 -143 -207 0
214 -196 -60 0
279 265 -60 0
37 69 -134 0
-238 13 119 0
158 -85 225 0
257 61 231 0
67 -200 -160 0
28 72 -259 0
29 74 -278 0
46 -91 222 0
-209 -249 -56 0
-242 -282 86 0
273 -68 -117 0
236 256 137 0
256 273 -106 0
201 -179 77 0
155 -81 -44 0
-284 166 213 0
129 -236 282 0
34 44 184 0
6 37 -224 0
266 -121 -107 0
-266 -39 -25 0
58 -45 -38 0
135 -181 120 0
-30 -165 -36 0
-183 169 -188 0
-178 272 -88 0
-234 -111 186 0
-49 32 266 0
49 -117 -230 0
-132 58 155 0
-161 -282 186 0
-216 57 244 0
-223 -164 155 0
72 96 -19 0
-240 270 51 0
131 251 6 0
-191 -228 -201 0
259 -236 223 0
170 -251 7 0
-188 229 14 0
254 -153 168 0
195 -94 -108 0
-86 -119 -281 0
-147 -142 174 0
253 166 228 0
58 186 -262 0
-123 41 173 0
194 -251 -91 0
-11 280 143 0
136 220 52 0
52 162 -238 0
89 94 142 0
-99 234 -135 0
-194 -281 -35 0
-236 261 -268 0
63 -174 191 0
161 184 123 0
33 -207 -270 0
222 201 -275 0
-43 -9 -113 0
146 153 210 0
-263 178 -83 0
-229 175 136 0
-283 -46 -37 0
25 -92 273 0
247 -266 -184 0
207 277 -241 0
-79 203 -250 0
140 187 190 0
68 129 104 0
-248 28 234 0
162 11 -278 0
271 262 -72 0
149 169 68 0
134 -110 261 0
-222 -8 -155 0
-60 232 20 0
-172 133 -44 0
-151 68 -91 0
-64 158 48 0
-261 -229 36 0
100 -129 217 0
218 -188 2 0
-49 -259 277 0
-132 82 166 0
-97 -266 228 0
-155 -43 -4 0
58 -248 90 0
-77 196 -263 0
-115 -210 -89 0
-93 44 264 0
-72 -163 220 0
-92 2 -47 0
-76 -89 188 0
-85 129 86 0
-2 98 147 0
-99 -111 -150 0
-167 -200 215 0
160 234 -213 0
-41 50 -127 0
-255 -229 -126 0
-101 -13 -18 0
-68 -129 -255 0
-39 -86 201 0
-267 -55 -77 0
221 -92 -115 0
32 94 162 0
236 240 -159 0
-256 159 -184 0
62 97 88 0
-237 274 -97 0
176 68 121 0
-9 -250 -72 0
-100 -183 58 0
-83 -139 150 0
-38 265 -274 0
60 193 81 0
-172 230 31 0
2 -35 -75 0
-10 -191 -97 0
-163 -126 231 0
-284 257 -266 0
-133 179 -88 0
-10 -43 213 0
186 -116 -138 0
257 150 187 0
-60 -144 -142 0
148 -217 -29 0
214 -237 -159 0
114 45 179 0
-262 79 -157 0
191 13 64 0
-173 144 -152 0
138 176 200 0
181 194 128 0
36 -161 68 0
98 80 -161 0
-148 28 159 0
249 275 -167 0
17 -109 56 0
-23 -79 -43 0
-221 266 121 0
281 182 171 0
116 115 22 0
214 -257 139 0
-126 256 -279 0
56 -47 123 0
-64 283 -207 0
-26 -83 -215 0
-24 182 119 0
-6 -20 269 0
-85 -158 -176 0
-158 -205 87 0
18 104 -56 0
22 -268 -53 0
-42 -268 37 0
-67 -143 125 0
-69 259 111 0
-224 30 -203 0
249 -198 44 0
-228 110 30 0
162 30 -280 0
-99 -103 -199 0
196 56 89 0
56 251 -213 0
140 -270 -214 0
113 270 158 0
260 -112 -171 0
-125 -74 -81 0
149 -255 -128 0
111 -58 39 0
249 231 165 0
285 -233 -130 0
47 -50 198 0
-216 177 -129 0
-193 204 215 0
97 204 269 0
181 254 -95 0
-224 8 -197 0
159 103 275 0
104 -172 61 0
273 -74 54 0
-280 75 104 0
99 268 93 0
-84 273 106 0
128 203 249 0
-23 -142 62 0
178 90 260 0
22 279 151 0
175 -262 263 0
-152 37 29 0
5 97 225 0
-140 -55 139 0
-68 -53 21 0
-37 255 -174 0
-51 79 102 0
232 -226 184 0
224 157 107 0
192 -280 11 0
159 11 -90 0
-189 -255 -51 0
-181 -284 -171 0
19 -69 159 0
251 -259 232 0
-188 220 -170 0
-261 70 -94 0
265 54 121 0
9 -254 -30 0
171 8 14 0
71 163 -118 0
204 165 -260 0
74 69 188 0
55 108 283 0
-244 135 -32 0
65 210 216 0
-91 -125 -218 0
-230 -128 204 0
278 152 195 0
155 159 -113 0
20 215 159 0
17 -197 -128 0
-264 163 -209 0
-244 261 -178 0
-2 168 196 0
283 -266 -8 0
-116 43 31 0
144 106 -137 0
198 -191 -179 0
88 -81 -38 0
-123 237 -30 0
72 152 157 0
-6 -187 -164 0
-147 203 230 0
113 285 21 0
90 -232 13 0
-231 -126 33 0
150 -75 -252 0
-171 -57 -151 0
-120 102 -187 0
147 238 -135 0
-112 -136 114 0
137 -169 15 0
209 -230 255 0
221 -123 205 0
-70 -112 -182 0
101 221 -252 0
-195 276 -185 0
157 -6 45 0
-89 190 -110 0
206 -170 -238 0
-31 13 219 0
88 -130 -72 0
19 -256 -211 0
-97 -73 -137 0
-127 -285 -84 0
-175 59 -165 0
-220 6 -166 0
58 -147 4 0
-222 -142 -227 0
-131 169 -41 0
-238 30 92 0
261 118 241 0
-216 70 -113 0
3 36 259 0
-179 106 176 0
147 233 245 0
169 202 -201 0
-200 99 -224 0
-277 -166 -232 0
136 -96 7 0
240 -112 -159 0
-105 -112 254 0
-116 -151 244 0
156 -243 199 0
121 -218 189 0
276 -39 -44 0
262 216 -192 0
-259 -92 -270 0
-217 -281 -197 0
272 -81 28 0
-64 14 -235 0
95 9 -145 0
-165 90 233 0
91 -251 -219 0
143 -273 -129 0
87 75 -131 0
-22 -279 -3 0
10 207 -189 0
-129 -161 -72 0
276 -82 -17 0
-223 36 150 0
66 1 206 0
1 158 -234 0
244 271 -209 0
-63 -30 -90 0
-155 105 -8 0
-96 -64 163 0
-64 -272 274 0
-86 190 -219 0
-128 -250 10 0
81 -254 30 0
219 -179 130 0
-10 21 -45 0
-244 -73 -154 0
-152 -131 172 0
115 -172 -61 0
61 -223 159 0
164 109 -113 0
206 -232 -64 0
-90 -55 -147 0
-59 89 7 0
177 -72 94 0
129 -177 172 0
194 186 49 0
137 5 -264 0
43 -248 188 0
25 11 -275 0
32 -16 276 0
-206 -201 167 0
249 284 -59 0
266 -80 235 0
-214 -121 171 0
83 -153 -108 0
130 177 -168 0
-229 -212 -262 0
-271 49 -258 0
238 -173 -280 0
194 -86 -76 0
11 -176 -119 0
-197 9 63 0
101 1 -38 0
-195 39 -151 0
91 -283 -98 0
168 -72 -112 0
22 -169 -214 0
-28 -159 181 0
-175 81 34 0
-70 166 -31 0
147 255 181 0
-144 156 -84 0
-175 33 -202 0
-74 -246 -277 0
-229 29 209 0
73 159 217 0
124 35 -54 0
60 -165 43 0
99 -238 225 0
55 -135 -279 0
-275 125 99 0
-210 67 186 0
23 103 -187 0
-175 -28 182 0
-112 158 -60 0
239 196 79 0
-137 216 41 0
-46 116 10 0
-93 -156 -231 0
-60 180 -70 0
-276 -273 -262 0
157 147 72 0
232 110 22 0
-228 -123 -189 0
258 94 -126 0
180 5 116 0
122 45 -281 0
239 240 -169 0
-24 249 -92 0
6 -36 39 0
-210 -114 -189 0
121 136 -115 0
42 -92 242 0
-109 123 202 0
47 199 -14 0
253 246 -205 0
126 52 244 0
238 -119 -7 0
-243 263 -4 0
-146 284 279 0
-127 -27 52 0
-95 138 196 0
-37 251 -151 0
-150 202 274 0
-108 142 122 0
260 -252 -160 0
-169 -132 -141 0
-152 -77 -10 0
-26 -1 233 0
-219 -32 -252 0
111 261 53 0
117 276 188 0
-175 284 11 0
167 -48 19 0
140 245 110 0
-49 -267 224 0
-192 -217 238 0
-200 -284 129 0
150 182 133 0
186 -237 -195 0
137 165 -175 0
254 26 -64 0
197 72 -49 0
233 -254 22 0
260 35 158 0
-251 -81 -97 0
206 -31 -102 0
66 263 152 0
-185 -253 107 0
-249 102 -59 0
138 274 177 0
199 180 -45 0
-237 179 30 0
-31 47 -174 0
-7 19 -24 0
112 212 65 0
168 71 281 0
-237 210 207 0
-53 -101 146 0
-179 209 190 0
-63 262 -44 0
77 -74 113 0
59 -18 -123 0
-180 -284 -259 0
18 109 61 0
18 10 -44 0
6 271 -126 0
257 10 111 0
-272 157 -109 0
204 -192 222 0
41 -166 -265 0
9 181 -152 0
-147 133 -284 0
68 -222 -30 0
181 -201 25 0
191 -77 150 0
-226 -14 159 0
-212 -37 88 0
146 -249 131 0
-2 -97 277 0
104 74 58 0
-28 -7 4 0
159 -200 -88 0
23 164 95 0
257 104 -129 0
-235 -60 -173 0
-91 -31 41 0
26 -50 -137 0
-239 259 -111 0
-208 -172 280 0
-185 -282 161 0
-95 -142 162 0
267 -83 -80 0
-21 -115 -90 0
106 -25 -250 0
195 -158 -41 0
66 228 2 0
273 11 72 0
170 -185 215 0
258 113 215 0
-209 -109 219 0
-122 -46 -185 0
114 -10 -175 0
91 -111 30 0
79 -176 158 0
123 129 -103 0
216 255 -247 0
263 -161 48 0
24 269 225 0
177 162 -77 0
-246 -220 96 0
-208 -257 235 0
-70 134 260 0
4 -220 93 0
37 56 -281 0
218 2 4 0
61 -160 256 0
80 233 223 0
198 -96 -98 0
-196 -144 276 0
-284 202 -245 0
28 258 -20 0
-227 169 -246 0
260 234 77 0
-158 -136 -19 0
53 -66 209 0
86 -167 -275 0
90 -11 -230 0
108 -60 -212 0
-165 -162 -119 0
-85 -132 -42 0
14 -111 -124 0
197 149 -177 0
122 -106 74 0
85 4 -69 0
-15 -80 90 0
42 -64 -46 0
-33 -85 99 0
223 143 92 0
-30 -218 -265 0
-268 -60 39 0
-7 -72 204 0
104 -99 267 0
-249 -149 265 0
92 191 -157 0
-47 -87 134 0
88 -222 -244 0
3 -44 224 0
-176 -195 64 0
93 236 -35 0
130 170 77 0
158 223 -134 0
-57 -154 -222 0
-22 219 -235 0
-57 -50 129 0
196 -96 164 0
-66 -130 -59 0
-146 -78 284 0
243 21 39 0
123 -265 -45 0
-108 171 183 0
152 159 50 0
-129 227 272 0
209 35 -101 0
86 39 268 0
-109 232 34 0
165 -275 145 0
95 -133 268 0
-250 -75 229 0
-259 -104 239 0
211 128 -165 0
125 217 246 0
28 -163 -12 0
152 128 -145 0
32 134 -81 0
192 274 -29 0
-60 274 -167 0
-5 35 194 0
142 -234 24 0
-102 44 82 0
-76 73 59 0
-273 -146 113 0
-32 -255 34 0
52 -222 -59 0
45 38 -5 0
-133 155 252 0
-186 251 235 0
-77 -88 -6 0
-100 -103 -71 0
236 -28 67 0
139 -172 162 0
276 -274 -102 0
50 -155 76 0
177 -136 -255 0
-252 -206 -283 0
-255 -121 -119 0
85 181 -161 0
-107 -210 -249 0
150 175 -270 0
115 228 -50 0
-200 -86 208 0
130 114 -180 0
197 -199 -192 0
-13 -131 49 0
-14 -157 -131 0
-149 164 -68 0
261 -101 54 0
272 235 15 0
-23 -34 -197 0
48 80 227 0
-265 47 246 0
97 -223 -285 0
-131 -178 15 0
156 67 -144 0
38 -131 179 0
279 10 261 0
-21 -244 -255 0
183 -44 -65 0
86 108 170 0
86 266 -241 0
52 -232 273 0
151 -179 208 0
128 10 -234 0
-63 103 -89 0
134 -176 -55 0
24 181 12 0
-279 180 30 0
-185 -119 -200 0
-24 -96 95 0
-33 -164 -52 0
-173 -183 138 0
-189 -278 -87 0
174 -224 -230 0
84 34 -214 0
-140 -44 -271 0
-158 -153 -60 0
-159 36 -48 0
-105 -266 -96 0
-78 261 72 0
-180 75 -157 0
-140 76 85 0
-157 -185 244 0
-278 7 59 0
-138 116 200 0
-247 154 205 0
166 228 -181 0
-194 86 7 0
-131 -270 61 0
169 283 263 0
44 -123 55 0
-187 -56 125 0
142 153 205 0
-15 201 -243 0
-28 -237 136 0
129 268 -136 0
-137 -278 -195 0
-84 -269 -110 0
-283 -71 -194 0
-17 -254 -236 0
-66 204 -126 0
86 -211 -213 0
-39 226 233 0
234 225 -205 0
144 40 -247 0
-141 99 252 0
-195 12 -201 0
44 -82 35 0
-275 -260 273 0
-53 -45 238 0
139 -80 -98 0
16 248 -73 0
156 -186 -36 0
280 231 139 0
-69 -23 126 0
-88 40 197 0
-61 -1 273 0
81 -165 59 0
110 -115 278 0
-229 173 58 0
-136 20 -181 0
192 -7 -19 0
266 -76 150 0
-208 -186 -103 0
-118 -166 205 0
-284 -21 102 0
66 -102 -52 0
109 -43 120 0
240 229 -258 0
-173 -155 7 0
82 -240 -229 0
14 176 166 0
-199 -277 178 0
-38 276 -67 0
280 93 55 0
-60 164 8 0
39 130 132 0
-85 -111 143 0
-177 -98 207 0
-231 156 -43 0
146 147 -116 0
259 57 181 0
10 -125 143 0
-126 -220 -240 0
171 -71 -163 0
-106 43 212 0
261 -63 -19 0
-11 40 -72 0
206 79 246 0
-70 170 -261 0
61 19 174 0
-36 88 118 0
-26 -37 -25 0
215 -147 90 0
8 -84 -72 0
139 231 38 0
-203 242 23 0
-130 -134 -36 0
1 255 206 0
42 161 256 0
-32 10 -174 0
174 -185 112 0
266 24 -273 0
-2 3 84 0
-102 95 -104 0
237 -70 255 0
208 -181 -78 0
-56 20 -10 0
149 -147 -179 0
200 27 -207 0
-53 166 217 0
201 26 -166 0
251 -225 27 0
161 168 189 0
10 -74 -250 0
244 -263 186 0
-75 175 62 0
100 105 -222 0
-157 53 -101 0
-78 -251 215 0
89 161 149 0
-182 58 -249 0
-283 241 -5 0
-202 124 -147 0
-15 20 -21 0
-151 6 145 0
-239 165 151 0
-28 216 -115 0
284 84 250 0
55 74 -190 0
202 -3 -206 0
-241 -133 242 0
133 65 -81 0
-140 107 130 0
-103 73 -117 0
-33 262 -141 0
-185 22 -53 0
147 165 -226 0
-220 106 -196 0
-67 -24 128 0
-121 4 -242 0
173 -226 -258 0
199 11 -166 0
34 -215 -145 0
-108 278 -264 0
156 3 -282 0
247 65 179 0
239 87 -159 0
-134 -20 -1 0
171 -14 195 0
101 -269 -214 0
-114 189 -166 0
218 199 197 0
160 253 -69 0
-273 201 253 0
-111 97 -230 0
-24 6 -98 0
119 161 185 0
276 -87 3 0
-23 113 159 0
-186 65 252 0
-158 -159 -111 0
215 79 -237 0
160 -123 167 0
129 -113 -224 0
134 -42 123 0
-175 152 251 0
-32 180 -60 0
-73 -26 -47 0
19 -206 5 0
51 88 3 0
199 207 -275 0
36 126 42 0
211 -258 -225 0
-260 282 -76 0
-265 206 229 0
-111 -48 244 0
-127 -89 -21 0
-57 -235 178 0
183 -81 -122 0
124 191 197 0
183 17 79 0
1 86 282 0
167 -87 -65 0
-173 261 267 0
69 -258 -229 0
284 27 -116 0
-115 264 -22 0
187 -161 -224 0
65 29 -261 0
-238 109 160 0
-139 134 96 0
-234 -88 202 0
-59 252 -13 0
-126 -197 54 0
18 203 -209 0
17 -37 -267 0
14 66 95 0
-92 54 126 0
153 273 3 0
126 -41 153 0
-71 -107 57 0
190 87 -162 0
-281 -23 99 0
190 58 202 0
-176 221 283 0
-264 -161 -188 0
-248 14 -236 0
-213 -90 38 0
-16 -33 129 0
77 -135 159 0
-230 -51 -154 0
