p cnf 285 1214
-276 147 150 0
209 -183 -18 0
-266 272 5 0
176 -255 -38 0
3 213 -264 0
-93 -168 -72 0
199 -267 43 0
230 -4 78 0
-127 -101 -276 0
-59 -124 55 0
50 -226 -180 0
241 248 -12 0
-178 -139 32 0
121 53 239 0
-247 64 -40 0
62 140 252 0
118 216 -206 0
-40 -159 153 0
-239 110 -282 0
40 99 -114 0
204 254 126 0
196 -170 122 0
179 141 236 0
-13 120 -100 0
-235 164 238 0
120 -246 191 0
-103 -186 4 0
62 -167 -48 0
-22 -147 126 0
-118 234 -284 0
9 153 -240 0
211 -100 85 0
59 -24 49 0
23 234 101 0
-150 -20 -174 0
168 52 213 0
95 -223 -12 0
257 52 54 0
-141 113 -18 0
158 -132 -214 0
-17 152 -120 0
198 158 -150 0
-231 -173 72 0
216 241 -168 0
258 203 -234 0
223 210 185 0
-234 -122 -281 0
-98 13 -234 0
-37 94 49 0
-267 121 244 0
282 66 22 0
-63 -19 -142 0
-102 -23 -193 0
-84 106 90 0
281 -122 -11 0
-213 222 -35 0
173 210 94 0
-261 56 171 0
-117 -114 24 0
238 234 -277 0
102 -106 278 0
-273 92 -39 0
39 211 -184 0
-70 -123 192 0
107 -195 238 0
8 -10 142 0
238 -214 -3 0
89 -220 -121 0
124 -156 -21 0
-92 78 -67 0
200 198 133 0
-94 -59 2 0
-281 73 74 0
144 -9 280 0
193 249 257 0
107 55 273 0
264 -270 196 0
-58 -149 -68 0
-206 -58 -142 0
169 -177 35 0
-172 64 253 0
277 -119 55 0
-103 211 159 0
220 248 18 0
-267 134 -211 0
-211 1 -129 0
-101 144 -248 0
-196 -89 -163 0
-54 97 179 0
264 200 267 0
-99 162 -186 0
-233 58 123 0
-152 -158 262 0
-227 -73 -199 0
-17 -22 -281 0
-132 160 -78 0
10 26 -132 0
148 -255 220 0
-31 28 -184 0
44 164 42 0
45 -177 108 0
-61 96 161 0
6 281 214 0
131 151 -88 0
183 -163 -89 0
200 207 71 0
206 53 -93 0
29 228 -218 0
132 47 -174 0
-59 -82 -268 0
-221 -198 -250 0
-15 48 -262 0
144 -134 14 0
-242 114 115 0
-176 145 -10 0
-169 197 7 0
141 -150 87 0
21 -48 -192 0
-151 17 174 0
-41 266 -274 0
-46 32 209 0
-189 198 265 0
255 -97 279 0
-15 20 -104 0
155 261 -71 0
95 199 1 0
-246 -158 -129 0
-85 -256 -103 0
-76 261 -44 0
-16 -204 -143 0
114 -172 -52 0
-18 -144 -239 0
-132 -115 275 0
-231 -32 20 0
193 -216 -102 0
-159 6 243 0
274 204 -231 0
35 -75 43 0
192 99 -47 0
-115 85 126 0
51 97 171 0
-197 -284 -174 0
-250 83 -129 0
-264 100 115 0
125 -228 128 0
-46 -196 235 0
-17 62 281 0
-81 -24 -5 0
-246 70 -82 0
252 114 -202 0
-18 -123 80 0
-99 197 -29 0
3 239 284 0
120 -35 152 0
-107 20 143 0
100 132 87 0
-124 245 -197 0
-186 229 -226 0
-198 75 -41 0
-246 -161 -46 0
-135 -156 -251 0
167 178 195 0
124 -109 -183 0
168 -260 -76 0
223 -231 -227 0
279 -254 40 0
-168 153 -115 0
-259 -133 4 0
60 141 274 0
-204 -237 -22 0
-135 40 28 0
-238 254 251 0
50 279 -145 0
83 -28 220 0
59 -184 -43 0
69 -45 82 0
180 -119 175 0
-270 -92 -268 0
83 -19 41 0
106 -48 226 0
128 -149 -256 0
146 73 143 0
-264 255 143 0
-228 96 274 0
-157 -38 225 0
-262 63 -30 0
195 -219 159 0
-5 153 -21 0
-67 -285 -127 0
90 -132 284 0
-5 -65 81 0
209 -184 19 0
-272 240 271 0
254 -62 252 0
-201 218 -13 0
-238 167 194 0
-194 276 -45 0
57 -256 255 0
-152 29 -212 0
104 185 -135 0
92 -278 124 0
-206 -254 -237 0
13 -66 147 0
-46 255 72 0
280 200 217 0
-140 130 -265 0
-95 182 -13 0
-30 206 -134 0
227 44 -3 0
3 -124 -23 0
148 19 159 0
253 244 274 0
92 61 90 0
-139 4 154 0
-239 68 -254 0
39 -103 -167 0
-144 -228 72 0
244 116 -180 0
-186 -235 11 0
195 208 57 0
34 -199 -31 0
-178 133 -196 0
88 163 -263 0
-133 172 -165 0
-101 -266 136 0
107 78 -210 0
144 29 45 0
-97 40 -166 0
-174 -154 253 0
-100 105 -261 0
-109 207 100 0
271 -253 122 0
176 -66 -164 0
-57 264 250 0
213 -208 285 0
240 -128 -100 0
-237 185 199 0
95 276 -25 0
-118 -93 68 0
-139 -89 -282 0
17 -21 -237 0
-219 181 -218 0
99 144 140 0
-200 29 139 0
61 -20 76 0
122 17 231 0
96 227 274 0
262 270 32 0
18 -133 -31 0
280 -110 250 0
225 147 -23 0
-46 232 -183 0
69 -61 -105 0
-120 -248 -269 0
257 -125 -18 0
150 -108 51 0
-163 -208 28 0
-199 49 -197 0
106 -229 -50 0
-91 169 -15 0
285 156 243 0
-112 115 -275 0
-137 -270 30 0
-108 -157 181 0
120 78 35 0
-138 77 -217 0
-21 -261 -78 0
-108 34 -151 0
8 80 64 0
-103 -260 -279 0
-101 -275 75 0
-247 95 -171 0
261 -171 -116 0
-66 237 -180 0
-123 184 102 0
-50 -112 -61 0
-62 -23 -210 0
-207 124 282 0
238 255 -266 0
37 170 115 0
-10 26 247 0
-82 -232 85 0
-81 94 -88 0
140 239 -76 0
-182 -132 97 0
-6 -200 -220 0
188 -277 20 0
-193 -252 -163 0
188 29 114 0
-173 -79 -28 0
-27 -277 -203 0
-140 -23 197 0
-256 15 -168 0
160 -182 153 0
-40 -255 -152 0
26 -15 94 0
-206 127 -261 0
-249 -148 -233 0
185 -118 63 0
219 -282 264 0
76 247 -189 0
205 276 -87 0
250 83 30 0
-55 159 -178 0
169 -225 -44 0
-204 28 255 0
72 123 138 0
33 -114 82 0
-28 -94 -268 0
108 204 -215 0
157 183 -179 0
152 -49 -135 0
-50 128 69 0
-34 261 114 0
-281 -216 260 0
-258 197 -48 0
-64 149 -107 0
-140 -207 278 0
-7 270 46 0
-170 37 92 0
258 -217 127 0
-231 -126 -178 0
38 -111 -156 0
-265 -185 -182 0
275 -224 -12 0
-76 210 87 0
240 -218 279 0
92 -108 -173 0
-220 221 -104 0
-5 168 -79 0
-39 -264 220 0
42 159 40 0
-276 -249 228 0
123 -209 -118 0
212 130 26 0
194 67 260 0
84 -278 193 0
-159 -133 261 0
-263 -211 -96 0
234 144 -22 0
-262 -157 75 0
-68 -178 28 0
-140 -128 149 0
-128 217 105 0
-46 93 -164 0
-217 50 -43 0
-232 256 -261 0
208 188 100 0
41 213 -70 0
-163 239 -186 0
-260 110 253 0
-188 -189 48 0
224 139 -152 0
89 -16 90 0
-14 282 233 0
-63 104 124 0
-21 109 -101 0
108 -24 147 0
131 21 -251 0
266 -129 -260 0
77 109 -269 0
24 157 189 0
-259 236 12 0
111 -138 -34 0
189 57 -283 0
-131 242 161 0
250 28 -285 0
160 80 69 0
86 128 -220 0
146 147 252 0
243 125 133 0
-46 12 120 0
-197 210 218 0
-243 -110 -258 0
173 -91 -59 0
265 276 -123 0
50 244 128 0
49 215 25 0
-95 133 -165 0
123 204 111 0
-172 73 124 0
172 78 -216 0
163 -116 11 0
-283 -253 -127 0
-122 -258 -94 0
245 242 -161 0
-93 -132 171 0
-34 -285 101 0
-93 -218 -283 0
-156 -152 194 0
92 -222 64 0
-4 -107 -112 0
-121 167 62 0
-183 -209 -116 0
142 212 -7 0
-46 -199 -19 0
137 -73 191 0
201 -172 197 0
94 -120 280 0
-55 -112 279 0
-14 172 -263 0
128 -285 14 0
55 -42 34 0
243 211 -72 0
-256 -146 249 0
21 62 48 0
64 253 -230 0
51 265 -24 0
155 -255 -36 0
165 214 -238 0
142 109 231 0
228 -143 -4 0
-117 -50 119 0
65 50 249 0
-69 -54 -194 0
183 -68 -52 0
190 160 68 0
-209 254 154 0
-49 -68 -136 0
177 -165 40 0
141 216 280 0
-203 216 152 0
251 -47 239 0
248 -9 -85 0
-36 62 -207 0
-174 -23 246 0
-54 -112 -284 0
136 163 -70 0
96 74 -195 0
207 -276 104 0
-66 231 -109 0
237 253 -147 0
265 255 -62 0
-8 -34 215 0
-234 -206 7 0
118 220 51 0
-189 -275 -245 0
-47 285 164 0
-271 22 127 0
34 175 -118 0
168 156 -20 0
256 280 -52 0
51 195 -232 0
277 -269 -16 0
-253 -279 220 0
11 200 45 0
202 74 -273 0
31 -13 -88 0
-103 42 147 0
2 -283 110 0
-166 224 274 0
65 159 90 0
-193 -68 -19 0
60 -218 -146 0
237 44 168 0
-112 -131 -267 0
-53 -150 84 0
-97 -261 -282 0
175 -28 180 0
146 107 -73 0
80 -264 -279 0
-113 20 208 0
-223 -41 243 0
-104 61 46 0
56 -234 -114 0
-178 3 163 0
-239 -40 -237 0
123 241 -65 0
-233 -145 -236 0
129 19 -230 0
-135 -18 -82 0
-149 92 -4 0
-267 176 281 0
-35 225 -136 0
127 -98 -217 0
-219 20 -149 0
42 95 180 0
186 -212 -175 0
135 -33 -34 0
-129 -26 -254 0
100 -163 154 0
-248 221 -251 0
241 -258 -233 0
-148 163 -131 0
47 -55 228 0
-216 -139 112 0
274 -245 32 0
186 178 -54 0
-97 230 110 0
148 -80 196 0
282 182 60 0
-204 -171 -151 0
271 -249 49 0
-74 264 -268 0
-107 -22 234 0
-100 -87 -231 0
-179 -137 -284 0
-192 52 88 0
-79 264 -52 0
35 87 22 0
128 -12 113 0
-7 69 -279 0
120 66 -28 0
201 41 70 0
91 -60 -110 0
141 -36 -13 0
-218 -269 113 0
195 -161 56 0
-251 124 -8 0
185 -55 148 0
13 57 285 0
86 56 142 0
232 66 223 0
-76 55 63 0
-52 215 -170 0
58 -259 -93 0
251 -33 -154 0
-137 21 142 0
90 -207 4 0
-131 -119 -121 0
38 32 -105 0
257 -167 -269 0
-31 -107 244 0
-145 -230 -246 0
-111 228 -61 0
-125 14 -224 0
61 229 -218 0
-38 -97 156 0
150 -140 278 0
109 -213 -51 0
-21 -55 -123 0
-39 190 70 0
-56 245 -223 0
-112 126 -183 0
193 -227 112 0
55 195 -280 0
83 269 122 0
1 -194 157 0
152 -93 -204 0
-191 112 163 0
66 183 128 0
61 -144 101 0
231 182 198 0
237 240 244 0
-262 -183 151 0
-246 -206 -143 0
-254 120 -226 0
-99 -21 -230 0
50 -198 -74 0
-120 15 -149 0
-78 270 147 0
-80 47 132 0
66 -221 179 0
-67 -17 -154 0
66 -48 -104 0
-86 -214 15 0
-204 -277 57 0
9 -253 202 0
65 -147 -89 0
-51 -63 233 0
229 196 168 0
-55 -272 -90 0
-148 99 198 0
206 -191 -54 0
7 137 209 0
275 86 -105 0
113 -89 135 0
226 -42 2 0
280 5 56 0
-273 -87 -264 0
-283 -48 54 0
140 -230 -77 0
-83 147 -208 0
-231 -266 24 0
-97 -241 -193 0
108 49 -165 0
110 238 -221 0
166 162 248 0
90 -117 252 0
-238 -201 -37 0
7 255 83 0
144 224 122 0
-73 218 -161 0
226 117 79 0
-133 74 174 0
-140 -224 -44 0
-112 249 150 0
124 -74 -67 0
19 20 -204 0
-120 90 -47 0
99 194 -120 0
-252 -231 -196 0
108 -269 210 0
11 -171 222 0
148 189 -44 0
271 138 211 0
-45 171 251 0
-113 -27 -94 0
-196 -242 -44 0
101 -48 -217 0
275 195 -7 0
233 -277 -227 0
-192 223 -232 0
-168 53 244 0
-275 -184 -175 0
-2 100 24 0
229 -271 251 0
-175 -134 -46 0
-245 -186 282 0
-57 255 -42 0
-269 -37 26 0
-260 46 -43 0
184 60 -238 0
-13 -267 -172 0
-253 -9 -276 0
-223 -100 -267 0
-94 -54 171 0
94 259 -99 0
-69 -78 28 0
177 276 51 0
-256 240 115 0
-179 44 83 0
45 169 163 0
-139 235 -157 0
242 183 -282 0
142 -65 276 0
-204 166 275 0
-20 -268 -243 0
73 244 -149 0
-164 -8 -159 0
255 166 -91 0
64 197 -229 0
-159 -241 -66 0
170 266 -279 0
181 -136 -60 0
58 -109 135 0
-110 -102 162 0
-44 196 136 0
263 254 -176 0
-182 -212 190 0
-28 46 -155 0
151 -118 -116 0
70 110 65 0
33 45 -34 0
-70 -109 -214 0
-117 -203 -78 0
-179 238 -260 0
-98 -62 116 0
41 59 -114 0
191 -240 57 0
-133 -41 220 0
-275 11 36 0
183 175 -169 0
-53 -245 -198 0
283 -61 -2 0
250 -202 197 0
230 159 14 0
-5 -193 148 0
-95 90 -172 0
206 -184 -262 0
158 228 239 0
150 -101 -115 0
-38 -95 190 0
-18 -167 -221 0
-153 130 18 0
199 233 -232 0
-91 -21 -5 0
-202 48 -85 0
-9 -168 103 0
181 119 -200 0
-213 -165 -132 0
-261 127 264 0
139 -177 113 0
19 207 -235 0
-182 -225 -35 0
127 -139 -278 0
59 -189 -246 0
-185 94 240 0
262 -191 -234 0
241 -229 124 0
-211 71 20 0
-252 -191 173 0
211 196 127 0
228 -61 197 0
-139 180 -82 0
-236 -140 -256 0
55 156 282 0
-87 130 220 0
-119 245 227 0
-252 23 -142 0
259 154 32 0
-152 -172 -43 0
-151 -86 22 0
50 -280 140 0
-138 -142 125 0
44 95 8 0
220 218 -143 0
-60 260 172 0
124 -219 164 0
21 52 106 0
-119 94 76 0
159 192 43 0
20 -62 26 0
74 237 272 0
-148 40 -11 0
222 27 57 0
-258 -205 213 0
165 -232 -37 0
-211 -90 -145 0
-270 -117 79 0
124 -33 204 0
138 86 256 0
-10 46 -213 0
-262 206 183 0
105 148 -135 0
-178 -194 72 0
216 -145 -88 0
164 93 251 0
-180 -256 -156 0
-142 -75 155 0
-141 182 230 0
-22 93 -257 0
-193 142 -175 0
-206 112 250 0
222 226 196 0
236 185 -85 0
275 -145 187 0
-105 -26 129 0
130 245 -31 0
51 -97 -3 0
148 -200 37 0
-199 -38 -12 0
-246 -245 -215 0
-285 80 39 0
141 -80 160 0
-238 66 29 0
96 120 155 0
172 -51 -52 0
45 -233 -32 0
-41 72 -10 0
-157 -224 -278 0
-250 231 -278 0
-51 285 102 0
268 185 111 0
93 250 119 0
-171 -201 252 0
53 -174 249 0
242 270 -198 0
92 -157 -161 0
-31 -46 257 0
117 47 -42 0
108 122 -231 0
-249 -125 -260 0
-93 76 117 0
179 112 225 0
104 72 34 0
-181 -100 -41 0
163 182 -124 0
9 -210 105 0
262 -236 46 0
-95 -193 -240 0
-80 148 -209 0
26 -107 238 0
-41 -179 -177 0
-274 208 -1 0
208 -134 -170 0
-208 136 -80 0
195 111 142 0
-36 -10 -11 0
222 29 -10 0
221 118 -114 0
-144 -236 -155 0
-273 172 -25 0
82 271 218 0
-228 -207 -170 0
36 22 -31 0
185 22 -47 0
140 125 -173 0
69 -154 13 0
-277 7 228 0
-98 -257 -235 0
-200 87 -142 0
212 -211 -188 0
-87 7 -128 0
54 56 -124 0
66 225 43 0
98 49 -169 0
238 -171 -272 0
-182 -255 -90 0
-132 83 -239 0
-105 262 -56 0
65 127 -106 0
208 -65 119 0
233 -121 -8 0
-124 -16 -197 0
-28 156 -252 0
280 -163 38 0
154 -221 -179 0
181 -169 -185 0
-177 -147 210 0
235 -253 70 0
251 177 -229 0
256 -83 89 0
279 59 -230 0
-71 -76 -59 0
-214 102 202 0
82 115 261 0
-131 65 -73 0
122 -257 -182 0
-192 133 -207 0
170 179 165 0
-61 -166 20 0
166 261 112 0
237 -63 76 0
235 264 -104 0
234 81 -77 0
26 7 92 0
-280 34 -9 0
-207 -51 -111 0
34 51 -131 0
-104 -86 222 0
-237 173 184 0
-103 125 -70 0
-24 -48 189 0
244 -221 172 0
229 255 -3 0
176 158 139 0
236 -7 -177 0
-133 -143 220 0
285 223 173 0
-12 117 136 0
-67 119 -190 0
-80 -196 247 0
-89 53 -270 0
-163 -45 -276 0
49 107 -173 0
276 -272 -199 0
235 106 -202 0
-183 -41 -190 0
-117 28 -175 0
106 126 267 0
97 -45 110 0
-252 -10 11 0
127 85 68 0
-218 112 -178 0
-82 17 -252 0
213 103 -119 0
238 98 259 0
19 -99 -85 0
248 115 207 0
225 -228 273 0
56 108 78 0
205 177 193 0
177 149 -107 0
-170 37 -202 0
-231 61 101 0
67 -68 56 0
-57 -64 -118 0
235 -198 253 0
156 -34 -210 0
112 -212 127 0
-42 -236 -30 0
113 -53 -176 0
142 -268 183 0
103 -164 10 0
267 245 284 0
-60 156 -128 0
-173 -63 225 0
149 -172 -177 0
-219 -186 20 0
128 -50 -93 0
48 185 126 0
223 65 -220 0
-220 100 -51 0
113 -130 264 0
263 -42 232 0
145 230 -245 0
-160 -268 155 0
-81 -163 259 0
-252 -67 -63 0
27 -28 -230 0
-156 -111 143 0
27 238 58 0
84 -35 29 0
-166 147 245 0
176 232 -117 0
176 -47 -191 0
-210 23 182 0
-75 -87 -190 0
-269 135 152 0
25 -211 -147 0
166 -67 71 0
51 279 183 0
-114 -200 -267 0
131 -41 -278 0
-54 -61 130 0
-174 -101 -284 0
-35 136 188 0
120 203 -238 0
-36 -178 106 0
-83 -12 1 0
-242 -224 265 0
-131 182 -247 0
41 114 8 0
-265 -49 87 0
105 -173 -261 0
-164 -183 -207 0
61 189 -42 0
36 -174 184 0
35 57 -262 0
80 -13 -237 0
112 -230 242 0
-90 134 -34 0
13 -7 75 0
275 -110 -191 0
-182 256 181 0
-237 -49 -216 0
150 15 49 0
-50 -54 -210 0
-262 -30 80 0
124 247 100 0
-229 129 -165 0
115 -250 8 0
-114 -244 -252 0
8 153 9 0
-272 83 26 0
134 -106 201 0
246 127 -187 0
-26 -96 -158 0
-76 -7 268 0
-279 -26 -243 0
187 -265 -211 0
203 188 -247 0
-90 200 4 0
146 268 3 0
6 -251 -17 0
-239 213 11 0
152 84 -92 0
-237 -125 -230 0
84 -191 -42 0
285 -67 -40 0
1 62 -244 0
-252 -98 265 0
-172 224 -233 0
-181 228 -7 0
12 -202 -20 0
41 29 -121 0
-278 -190 172 0
91 83 220 0
-17 270 95 0
215 57 -210 0
-195 -81 -90 0
-89 156 -193 0
-193 182 170 0
-69 117 -284 0
-239 -168 -33 0
-128 250 16 0
-39 152 77 0
177 63 -231 0
158 38 -46 0
-229 111 -57 0
-43 -55 170 0
128 221 261 0
-156 157 66 0
77 -40 -226 0
247 144 137 0
-224 69 226 0
223 37 249 0
196 -261 -254 0
217 -103 29 0
-16 21 -241 0
-82 -196 -34 0
-242 255 167 0
63 111 120 0
202 -49 48 0
-194 91 238 0
248 -218 -94 0
49 -41 -105 0
-146 -257 -89 0
143 -215 11 0
119 -203 -54 0
265 -276 -50 0
-63 -17 -127 0
109 260 207 0
155 -260 256 0
255 91 115 0
-53 182 284 0
-220 -271 -53 0
278 -241 225 0
-81 255 -165 0
42 194 -275 0
218 -41 140 0
-170 -271 248 0
-253 232 219 0
60 100 217 0
191 169 174 0
-99 56 -26 0
89 -271 -240 0
156 129 -3 0
204 -152 -168 0
-16 -102 40 0
104 285 33 0
-154 197 267 0
99 -19 150 0
-104 115 34 0
50 -172 98 0
-94 118 -129 0
268 -183 -282 0
113 7 -185 0
-136 70 -174 0
12 -197 52 0
-127 -39 -69 0
-244 -28 166 0
-263 249 -39 0
24 -285 -1 0
-274 -208 -194 0
-112 -196 -247 0
105 218 9 0
114 -53 -215 0
-255 136 -37 0
-267 -210 -213 0
223 -50 179 0
265 2 242 0
98 -122 99 0
-225 86 -68 0
-173 95 150 0
127 196 -29 0
-31 104 109 0
272 194 148 0
18 47 91 0
95 182 16 0
-247 -51 -128 0
241 -205 85 0
138 -108 279 0
256 93 -206 0
-226 -233 103 0
22 28 247 0
-22 -200 222 0
284 131 -35 0
118 -72 -199 0
86 71 25 0
-127 150 215 0
27 -223 -85 0
-204 -157 29 0
268 -126 280 0
141 39 42 0
151 263 23 0
55 68 250 0
-114 91 49 0
215 -199 -39 0
-42 172 245 0
-119 -188 263 0
-266 -246 89 0
61 279 56 0
-156 116 74 0
193 248 170 0
-283 60 190 0
130 18 131 0
186 70 -156 0
104 202 -92 0
71 -97 258 0
-186 159 -79 0
-284 204 -60 0
-283 -106 91 0
243 32 -98 0
-72 -11 -156 0
-87 -216 -270 0
153 76 43 0
115 -103 170 0
-190 165 233 0
211 164 -168 0
-40 -220 234 0
143 -246 -232 0
-56 130 -176 0
-185 266 190 0
-15 90 -39 0
219 18 -156 0
233 106 283 0
-175 157 -5 0
147 -274 -265 0
74 -191 106 0
117 -69 -160 0
-109 -199 3 0
190 144 164 0
221 273 -185 0
-199 -69 95 0
-78 -108 128 0
14 253 -209 0
7 -214 202 0
115 -202 66 0
-260 125 263 0
109 -230 104 0
-258 -63 116 0
177 100 147 0
36 12 -44 0
-1 -247 -187 0
-44 57 237 0
132 -44 -62 0
-80 -137 -203 0
85 138 -131 0
-2 82 -176 0
212 40 14 0
267 229 82 0
-131 64 136 0
159 250 33 0
268 91 -212 0
196 -197 176 0
-47 -203 129 0
22 166 251 0
-119 -217 -32 0
181 247 263 0
-117 266 -175 0
149 -235 92 0
79 -40 -106 0
72 55 206 0
264 248 -194 0
152 183 -118 0
41 -279 280 0
-119 76 177 0
99 -89 -164 0
-12 139 111 0
-239 204 266 0
-98 -246 134 0
152 -198 201 0
-62 152 -35 0
-277 -39 -1 0
167 26 -281 0
155 77 -208 0
211 113 26 0
-132 16 165 0
-119 228 -17 0
121 47 -150 0
28 273 46 0
96 -122 -15 0
-187 242 -16 0
238 243 72 0
-141 -105 228 0
-122 -68 270 0
66 276 67 0
-248 55 -114 0
-32 282 61 0
-161 -193 -203 0
-258 -61 278 0
-252 -208 233 0
256 -45 15 0
-65 167 58 0
40 270 86 0
211 133 49 0
-267 48 206 0
116 248 164 0
-33 119 275 0
-190 283 -285 0
-87 118 -189 0
173 -6 156 0
242 -230 156 0
21 138 -233 0
259 -50 184 0
-71 108 49 0
211 -196 120 0
252 -280 65 0
103 23 -169 0
-196 258 143 0
204 117 -209 0
-80 -148 195 0
176 179 -37 0
-72 166 -82 0
45 79 166 0
-11 -44 -228 0
85 -218 -262 0
-282 -261 206 0
-192 -167 44 0
188 -116 37 0
-264 248 -262 0
-57 -94 -153 0
-69 182 -142 0
-16 239 17 0
144 231 29 0
138 -168 204 0
281 -168 160 0
-14 138 227 0
38 100 238 0
261 -20 212 0
251 -139 189 0
35 177 185 0
69 -213 92 0
-157 173 244 0
-114 239 158 0
63 234 -15 0
157 58 -20 0
-100 228 136 0
207 36 -55 0
130 29 249 0
-187 262 215 0
-199 99 161 0
-161 115 41 0
31 -253 231 0
57 195 22 0
-219 69 42 0
-115 61 23 0
69 -34 -284 0
199 120 -50 0
-274 -174 229 0
-190 -43 -65 0
-144 -224 245 0
153 -158 16 0
100 -190 59 0
229 -99 -27 0
-70 -242 80 0
-145 18 -20 0
-134 221 76 0
-249 6 -115 0
194 -25 -58 0
190 -164 78 0
-110 240 239 0
